    1C
    1UUSER                                                              
    1UDATE              15.march.2023                                   
    1UTIME              16:32:33                                        
    1UHOST                                                              
    1UPGM               CalculiX                                        
    1UVERSION           Version 2.20                             
    1UCOMPILETIME       Sun Jul 31 18:08:37 CEST 2022                    
    1UDIR                                                               
    1UDBN                                                               
    1UMAT    1SOFT                                                      
    1UMAT    2HARD                                                      
    1UMAT    3PART                                                      
    2C                          3304                                     1
 -1         1 0.00000E+00 0.00000E+00 0.00000E+00
 -1         2 1.00000E+00 0.00000E+00 0.00000E+00
 -1         3 0.00000E+00 1.66667E-02 0.00000E+00
 -1         4 1.00000E+00 1.66667E-02 0.00000E+00
 -1         5 0.00000E+00 3.33333E-02 0.00000E+00
 -1         6 1.00000E+00 3.33333E-02 0.00000E+00
 -1         7 0.00000E+00 5.00000E-02 0.00000E+00
 -1         8 1.00000E+00 5.00000E-02 0.00000E+00
 -1         9 0.00000E+00 6.66667E-02 0.00000E+00
 -1        10 1.00000E+00 6.66667E-02 0.00000E+00
 -1        11 0.00000E+00 8.33333E-02 0.00000E+00
 -1        12 1.00000E+00 8.33333E-02 0.00000E+00
 -1        13 0.00000E+00 1.00000E-01 0.00000E+00
 -1        14 1.00000E+00 1.00000E-01 0.00000E+00
 -1        15 0.00000E+00 0.00000E+00 1.66667E-02
 -1        16 1.00000E+00 0.00000E+00 1.66667E-02
 -1        17 0.00000E+00 1.66667E-02 1.66667E-02
 -1        18 1.00000E+00 1.66667E-02 1.66667E-02
 -1        19 0.00000E+00 3.33333E-02 1.66667E-02
 -1        20 1.00000E+00 3.33333E-02 1.66667E-02
 -1        21 0.00000E+00 5.00000E-02 1.66667E-02
 -1        22 1.00000E+00 5.00000E-02 1.66667E-02
 -1        23 0.00000E+00 6.66667E-02 1.66667E-02
 -1        24 1.00000E+00 6.66667E-02 1.66667E-02
 -1        25 0.00000E+00 8.33333E-02 1.66667E-02
 -1        26 1.00000E+00 8.33333E-02 1.66667E-02
 -1        27 0.00000E+00 1.00000E-01 1.66667E-02
 -1        28 1.00000E+00 1.00000E-01 1.66667E-02
 -1        29 0.00000E+00 0.00000E+00 3.33333E-02
 -1        30 1.00000E+00 0.00000E+00 3.33333E-02
 -1        31 0.00000E+00 1.66667E-02 3.33333E-02
 -1        32 1.00000E+00 1.66667E-02 3.33333E-02
 -1        33 0.00000E+00 3.33333E-02 3.33333E-02
 -1        34 1.00000E+00 3.33333E-02 3.33333E-02
 -1        35 0.00000E+00 5.00000E-02 3.33333E-02
 -1        36 1.00000E+00 5.00000E-02 3.33333E-02
 -1        37 0.00000E+00 6.66667E-02 3.33333E-02
 -1        38 1.00000E+00 6.66667E-02 3.33333E-02
 -1        39 0.00000E+00 8.33333E-02 3.33333E-02
 -1        40 1.00000E+00 8.33333E-02 3.33333E-02
 -1        41 0.00000E+00 1.00000E-01 3.33333E-02
 -1        42 1.00000E+00 1.00000E-01 3.33333E-02
 -1        43 0.00000E+00 0.00000E+00 5.00000E-02
 -1        44 1.00000E+00 0.00000E+00 5.00000E-02
 -1        45 0.00000E+00 1.66667E-02 5.00000E-02
 -1        46 1.00000E+00 1.66667E-02 5.00000E-02
 -1        47 0.00000E+00 3.33333E-02 5.00000E-02
 -1        48 1.00000E+00 3.33333E-02 5.00000E-02
 -1        49 0.00000E+00 5.00000E-02 5.00000E-02
 -1        50 1.00000E+00 5.00000E-02 5.00000E-02
 -1        51 0.00000E+00 6.66667E-02 5.00000E-02
 -1        52 1.00000E+00 6.66667E-02 5.00000E-02
 -1        53 0.00000E+00 8.33333E-02 5.00000E-02
 -1        54 1.00000E+00 8.33333E-02 5.00000E-02
 -1        55 0.00000E+00 1.00000E-01 5.00000E-02
 -1        56 1.00000E+00 1.00000E-01 5.00000E-02
 -1        57 0.00000E+00 0.00000E+00 6.66667E-02
 -1        58 1.00000E+00 0.00000E+00 6.66667E-02
 -1        59 0.00000E+00 1.66667E-02 6.66667E-02
 -1        60 1.00000E+00 1.66667E-02 6.66667E-02
 -1        61 0.00000E+00 3.33333E-02 6.66667E-02
 -1        62 1.00000E+00 3.33333E-02 6.66667E-02
 -1        63 0.00000E+00 5.00000E-02 6.66667E-02
 -1        64 1.00000E+00 5.00000E-02 6.66667E-02
 -1        65 0.00000E+00 6.66667E-02 6.66667E-02
 -1        66 1.00000E+00 6.66667E-02 6.66667E-02
 -1        67 0.00000E+00 8.33333E-02 6.66667E-02
 -1        68 1.00000E+00 8.33333E-02 6.66667E-02
 -1        69 0.00000E+00 1.00000E-01 6.66667E-02
 -1        70 1.00000E+00 1.00000E-01 6.66667E-02
 -1        71 0.00000E+00 0.00000E+00 8.33333E-02
 -1        72 1.00000E+00 0.00000E+00 8.33333E-02
 -1        73 0.00000E+00 1.66667E-02 8.33333E-02
 -1        74 1.00000E+00 1.66667E-02 8.33333E-02
 -1        75 0.00000E+00 3.33333E-02 8.33333E-02
 -1        76 1.00000E+00 3.33333E-02 8.33333E-02
 -1        77 0.00000E+00 5.00000E-02 8.33333E-02
 -1        78 1.00000E+00 5.00000E-02 8.33333E-02
 -1        79 0.00000E+00 6.66667E-02 8.33333E-02
 -1        80 1.00000E+00 6.66667E-02 8.33333E-02
 -1        81 0.00000E+00 8.33333E-02 8.33333E-02
 -1        82 1.00000E+00 8.33333E-02 8.33333E-02
 -1        83 0.00000E+00 1.00000E-01 8.33333E-02
 -1        84 1.00000E+00 1.00000E-01 8.33333E-02
 -1        85 0.00000E+00 0.00000E+00 1.00000E-01
 -1        86 1.00000E+00 0.00000E+00 1.00000E-01
 -1        87 0.00000E+00 1.66667E-02 1.00000E-01
 -1        88 1.00000E+00 1.66667E-02 1.00000E-01
 -1        89 0.00000E+00 3.33333E-02 1.00000E-01
 -1        90 1.00000E+00 3.33333E-02 1.00000E-01
 -1        91 0.00000E+00 5.00000E-02 1.00000E-01
 -1        92 1.00000E+00 5.00000E-02 1.00000E-01
 -1        93 0.00000E+00 6.66667E-02 1.00000E-01
 -1        94 1.00000E+00 6.66667E-02 1.00000E-01
 -1        95 0.00000E+00 8.33333E-02 1.00000E-01
 -1        96 1.00000E+00 8.33333E-02 1.00000E-01
 -1        97 0.00000E+00 1.00000E-01 1.00000E-01
 -1        98 1.00000E+00 1.00000E-01 1.00000E-01
 -1        99 5.00000E-02 0.00000E+00 0.00000E+00
 -1       100 5.00000E-02 1.00000E-01 0.00000E+00
 -1       101 1.00000E-01 0.00000E+00 0.00000E+00
 -1       102 1.00000E-01 1.00000E-01 0.00000E+00
 -1       103 1.50000E-01 0.00000E+00 0.00000E+00
 -1       104 1.50000E-01 1.00000E-01 0.00000E+00
 -1       105 2.00000E-01 0.00000E+00 0.00000E+00
 -1       106 2.00000E-01 1.00000E-01 0.00000E+00
 -1       107 2.50000E-01 0.00000E+00 0.00000E+00
 -1       108 2.50000E-01 1.00000E-01 0.00000E+00
 -1       109 3.00000E-01 0.00000E+00 0.00000E+00
 -1       110 3.00000E-01 1.00000E-01 0.00000E+00
 -1       111 3.50000E-01 0.00000E+00 0.00000E+00
 -1       112 3.50000E-01 1.00000E-01 0.00000E+00
 -1       113 4.00000E-01 0.00000E+00 0.00000E+00
 -1       114 4.00000E-01 1.00000E-01 0.00000E+00
 -1       115 4.50000E-01 0.00000E+00 0.00000E+00
 -1       116 4.50000E-01 1.00000E-01 0.00000E+00
 -1       117 5.00000E-01 0.00000E+00 0.00000E+00
 -1       118 5.00000E-01 1.00000E-01 0.00000E+00
 -1       119 5.50000E-01 0.00000E+00 0.00000E+00
 -1       120 5.50000E-01 1.00000E-01 0.00000E+00
 -1       121 6.00000E-01 0.00000E+00 0.00000E+00
 -1       122 6.00000E-01 1.00000E-01 0.00000E+00
 -1       123 6.50000E-01 0.00000E+00 0.00000E+00
 -1       124 6.50000E-01 1.00000E-01 0.00000E+00
 -1       125 7.00000E-01 0.00000E+00 0.00000E+00
 -1       126 7.00000E-01 1.00000E-01 0.00000E+00
 -1       127 7.50000E-01 0.00000E+00 0.00000E+00
 -1       128 7.50000E-01 1.00000E-01 0.00000E+00
 -1       129 8.00000E-01 0.00000E+00 0.00000E+00
 -1       130 8.00000E-01 1.00000E-01 0.00000E+00
 -1       131 8.50000E-01 0.00000E+00 0.00000E+00
 -1       132 8.50000E-01 1.00000E-01 0.00000E+00
 -1       133 9.00000E-01 0.00000E+00 0.00000E+00
 -1       134 9.00000E-01 1.00000E-01 0.00000E+00
 -1       135 9.50000E-01 0.00000E+00 0.00000E+00
 -1       136 9.50000E-01 1.00000E-01 0.00000E+00
 -1       137 5.00000E-02 0.00000E+00 1.66667E-02
 -1       138 5.00000E-02 1.00000E-01 1.66667E-02
 -1       139 1.00000E-01 0.00000E+00 1.66667E-02
 -1       140 1.00000E-01 1.00000E-01 1.66667E-02
 -1       141 1.50000E-01 0.00000E+00 1.66667E-02
 -1       142 1.50000E-01 1.00000E-01 1.66667E-02
 -1       143 2.00000E-01 0.00000E+00 1.66667E-02
 -1       144 2.00000E-01 1.00000E-01 1.66667E-02
 -1       145 2.50000E-01 0.00000E+00 1.66667E-02
 -1       146 2.50000E-01 1.00000E-01 1.66667E-02
 -1       147 3.00000E-01 0.00000E+00 1.66667E-02
 -1       148 3.00000E-01 1.00000E-01 1.66667E-02
 -1       149 3.50000E-01 0.00000E+00 1.66667E-02
 -1       150 3.50000E-01 1.00000E-01 1.66667E-02
 -1       151 4.00000E-01 0.00000E+00 1.66667E-02
 -1       152 4.00000E-01 1.00000E-01 1.66667E-02
 -1       153 4.50000E-01 0.00000E+00 1.66667E-02
 -1       154 4.50000E-01 1.00000E-01 1.66667E-02
 -1       155 5.00000E-01 0.00000E+00 1.66667E-02
 -1       156 5.00000E-01 1.00000E-01 1.66667E-02
 -1       157 5.50000E-01 0.00000E+00 1.66667E-02
 -1       158 5.50000E-01 1.00000E-01 1.66667E-02
 -1       159 6.00000E-01 0.00000E+00 1.66667E-02
 -1       160 6.00000E-01 1.00000E-01 1.66667E-02
 -1       161 6.50000E-01 0.00000E+00 1.66667E-02
 -1       162 6.50000E-01 1.00000E-01 1.66667E-02
 -1       163 7.00000E-01 0.00000E+00 1.66667E-02
 -1       164 7.00000E-01 1.00000E-01 1.66667E-02
 -1       165 7.50000E-01 0.00000E+00 1.66667E-02
 -1       166 7.50000E-01 1.00000E-01 1.66667E-02
 -1       167 8.00000E-01 0.00000E+00 1.66667E-02
 -1       168 8.00000E-01 1.00000E-01 1.66667E-02
 -1       169 8.50000E-01 0.00000E+00 1.66667E-02
 -1       170 8.50000E-01 1.00000E-01 1.66667E-02
 -1       171 9.00000E-01 0.00000E+00 1.66667E-02
 -1       172 9.00000E-01 1.00000E-01 1.66667E-02
 -1       173 9.50000E-01 0.00000E+00 1.66667E-02
 -1       174 9.50000E-01 1.00000E-01 1.66667E-02
 -1       175 5.00000E-02 0.00000E+00 3.33333E-02
 -1       176 5.00000E-02 1.00000E-01 3.33333E-02
 -1       177 1.00000E-01 0.00000E+00 3.33333E-02
 -1       178 1.00000E-01 1.00000E-01 3.33333E-02
 -1       179 1.50000E-01 0.00000E+00 3.33333E-02
 -1       180 1.50000E-01 1.00000E-01 3.33333E-02
 -1       181 2.00000E-01 0.00000E+00 3.33333E-02
 -1       182 2.00000E-01 1.00000E-01 3.33333E-02
 -1       183 2.50000E-01 0.00000E+00 3.33333E-02
 -1       184 2.50000E-01 1.00000E-01 3.33333E-02
 -1       185 3.00000E-01 0.00000E+00 3.33333E-02
 -1       186 3.00000E-01 1.00000E-01 3.33333E-02
 -1       187 3.50000E-01 0.00000E+00 3.33333E-02
 -1       188 3.50000E-01 1.00000E-01 3.33333E-02
 -1       189 4.00000E-01 0.00000E+00 3.33333E-02
 -1       190 4.00000E-01 1.00000E-01 3.33333E-02
 -1       191 4.50000E-01 0.00000E+00 3.33333E-02
 -1       192 4.50000E-01 1.00000E-01 3.33333E-02
 -1       193 5.00000E-01 0.00000E+00 3.33333E-02
 -1       194 5.00000E-01 1.00000E-01 3.33333E-02
 -1       195 5.50000E-01 0.00000E+00 3.33333E-02
 -1       196 5.50000E-01 1.00000E-01 3.33333E-02
 -1       197 6.00000E-01 0.00000E+00 3.33333E-02
 -1       198 6.00000E-01 1.00000E-01 3.33333E-02
 -1       199 6.50000E-01 0.00000E+00 3.33333E-02
 -1       200 6.50000E-01 1.00000E-01 3.33333E-02
 -1       201 7.00000E-01 0.00000E+00 3.33333E-02
 -1       202 7.00000E-01 1.00000E-01 3.33333E-02
 -1       203 7.50000E-01 0.00000E+00 3.33333E-02
 -1       204 7.50000E-01 1.00000E-01 3.33333E-02
 -1       205 8.00000E-01 0.00000E+00 3.33333E-02
 -1       206 8.00000E-01 1.00000E-01 3.33333E-02
 -1       207 8.50000E-01 0.00000E+00 3.33333E-02
 -1       208 8.50000E-01 1.00000E-01 3.33333E-02
 -1       209 9.00000E-01 0.00000E+00 3.33333E-02
 -1       210 9.00000E-01 1.00000E-01 3.33333E-02
 -1       211 9.50000E-01 0.00000E+00 3.33333E-02
 -1       212 9.50000E-01 1.00000E-01 3.33333E-02
 -1       213 5.00000E-02 0.00000E+00 5.00000E-02
 -1       214 5.00000E-02 1.00000E-01 5.00000E-02
 -1       215 1.00000E-01 0.00000E+00 5.00000E-02
 -1       216 1.00000E-01 1.00000E-01 5.00000E-02
 -1       217 1.50000E-01 0.00000E+00 5.00000E-02
 -1       218 1.50000E-01 1.00000E-01 5.00000E-02
 -1       219 2.00000E-01 0.00000E+00 5.00000E-02
 -1       220 2.00000E-01 1.00000E-01 5.00000E-02
 -1       221 2.50000E-01 0.00000E+00 5.00000E-02
 -1       222 2.50000E-01 1.00000E-01 5.00000E-02
 -1       223 3.00000E-01 0.00000E+00 5.00000E-02
 -1       224 3.00000E-01 1.00000E-01 5.00000E-02
 -1       225 3.50000E-01 0.00000E+00 5.00000E-02
 -1       226 3.50000E-01 1.00000E-01 5.00000E-02
 -1       227 4.00000E-01 0.00000E+00 5.00000E-02
 -1       228 4.00000E-01 1.00000E-01 5.00000E-02
 -1       229 4.50000E-01 0.00000E+00 5.00000E-02
 -1       230 4.50000E-01 1.00000E-01 5.00000E-02
 -1       231 5.00000E-01 0.00000E+00 5.00000E-02
 -1       232 5.00000E-01 1.00000E-01 5.00000E-02
 -1       233 5.50000E-01 0.00000E+00 5.00000E-02
 -1       234 5.50000E-01 1.00000E-01 5.00000E-02
 -1       235 6.00000E-01 0.00000E+00 5.00000E-02
 -1       236 6.00000E-01 1.00000E-01 5.00000E-02
 -1       237 6.50000E-01 0.00000E+00 5.00000E-02
 -1       238 6.50000E-01 1.00000E-01 5.00000E-02
 -1       239 7.00000E-01 0.00000E+00 5.00000E-02
 -1       240 7.00000E-01 1.00000E-01 5.00000E-02
 -1       241 7.50000E-01 0.00000E+00 5.00000E-02
 -1       242 7.50000E-01 1.00000E-01 5.00000E-02
 -1       243 8.00000E-01 0.00000E+00 5.00000E-02
 -1       244 8.00000E-01 1.00000E-01 5.00000E-02
 -1       245 8.50000E-01 0.00000E+00 5.00000E-02
 -1       246 8.50000E-01 1.00000E-01 5.00000E-02
 -1       247 9.00000E-01 0.00000E+00 5.00000E-02
 -1       248 9.00000E-01 1.00000E-01 5.00000E-02
 -1       249 9.50000E-01 0.00000E+00 5.00000E-02
 -1       250 9.50000E-01 1.00000E-01 5.00000E-02
 -1       251 5.00000E-02 0.00000E+00 6.66667E-02
 -1       252 5.00000E-02 1.00000E-01 6.66667E-02
 -1       253 1.00000E-01 0.00000E+00 6.66667E-02
 -1       254 1.00000E-01 1.00000E-01 6.66667E-02
 -1       255 1.50000E-01 0.00000E+00 6.66667E-02
 -1       256 1.50000E-01 1.00000E-01 6.66667E-02
 -1       257 2.00000E-01 0.00000E+00 6.66667E-02
 -1       258 2.00000E-01 1.00000E-01 6.66667E-02
 -1       259 2.50000E-01 0.00000E+00 6.66667E-02
 -1       260 2.50000E-01 1.00000E-01 6.66667E-02
 -1       261 3.00000E-01 0.00000E+00 6.66667E-02
 -1       262 3.00000E-01 1.00000E-01 6.66667E-02
 -1       263 3.50000E-01 0.00000E+00 6.66667E-02
 -1       264 3.50000E-01 1.00000E-01 6.66667E-02
 -1       265 4.00000E-01 0.00000E+00 6.66667E-02
 -1       266 4.00000E-01 1.00000E-01 6.66667E-02
 -1       267 4.50000E-01 0.00000E+00 6.66667E-02
 -1       268 4.50000E-01 1.00000E-01 6.66667E-02
 -1       269 5.00000E-01 0.00000E+00 6.66667E-02
 -1       270 5.00000E-01 1.00000E-01 6.66667E-02
 -1       271 5.50000E-01 0.00000E+00 6.66667E-02
 -1       272 5.50000E-01 1.00000E-01 6.66667E-02
 -1       273 6.00000E-01 0.00000E+00 6.66667E-02
 -1       274 6.00000E-01 1.00000E-01 6.66667E-02
 -1       275 6.50000E-01 0.00000E+00 6.66667E-02
 -1       276 6.50000E-01 1.00000E-01 6.66667E-02
 -1       277 7.00000E-01 0.00000E+00 6.66667E-02
 -1       278 7.00000E-01 1.00000E-01 6.66667E-02
 -1       279 7.50000E-01 0.00000E+00 6.66667E-02
 -1       280 7.50000E-01 1.00000E-01 6.66667E-02
 -1       281 8.00000E-01 0.00000E+00 6.66667E-02
 -1       282 8.00000E-01 1.00000E-01 6.66667E-02
 -1       283 8.50000E-01 0.00000E+00 6.66667E-02
 -1       284 8.50000E-01 1.00000E-01 6.66667E-02
 -1       285 9.00000E-01 0.00000E+00 6.66667E-02
 -1       286 9.00000E-01 1.00000E-01 6.66667E-02
 -1       287 9.50000E-01 0.00000E+00 6.66667E-02
 -1       288 9.50000E-01 1.00000E-01 6.66667E-02
 -1       289 5.00000E-02 0.00000E+00 8.33333E-02
 -1       290 5.00000E-02 1.00000E-01 8.33333E-02
 -1       291 1.00000E-01 0.00000E+00 8.33333E-02
 -1       292 1.00000E-01 1.00000E-01 8.33333E-02
 -1       293 1.50000E-01 0.00000E+00 8.33333E-02
 -1       294 1.50000E-01 1.00000E-01 8.33333E-02
 -1       295 2.00000E-01 0.00000E+00 8.33333E-02
 -1       296 2.00000E-01 1.00000E-01 8.33333E-02
 -1       297 2.50000E-01 0.00000E+00 8.33333E-02
 -1       298 2.50000E-01 1.00000E-01 8.33333E-02
 -1       299 3.00000E-01 0.00000E+00 8.33333E-02
 -1       300 3.00000E-01 1.00000E-01 8.33333E-02
 -1       301 3.50000E-01 0.00000E+00 8.33333E-02
 -1       302 3.50000E-01 1.00000E-01 8.33333E-02
 -1       303 4.00000E-01 0.00000E+00 8.33333E-02
 -1       304 4.00000E-01 1.00000E-01 8.33333E-02
 -1       305 4.50000E-01 0.00000E+00 8.33333E-02
 -1       306 4.50000E-01 1.00000E-01 8.33333E-02
 -1       307 5.00000E-01 0.00000E+00 8.33333E-02
 -1       308 5.00000E-01 1.00000E-01 8.33333E-02
 -1       309 5.50000E-01 0.00000E+00 8.33333E-02
 -1       310 5.50000E-01 1.00000E-01 8.33333E-02
 -1       311 6.00000E-01 0.00000E+00 8.33333E-02
 -1       312 6.00000E-01 1.00000E-01 8.33333E-02
 -1       313 6.50000E-01 0.00000E+00 8.33333E-02
 -1       314 6.50000E-01 1.00000E-01 8.33333E-02
 -1       315 7.00000E-01 0.00000E+00 8.33333E-02
 -1       316 7.00000E-01 1.00000E-01 8.33333E-02
 -1       317 7.50000E-01 0.00000E+00 8.33333E-02
 -1       318 7.50000E-01 1.00000E-01 8.33333E-02
 -1       319 8.00000E-01 0.00000E+00 8.33333E-02
 -1       320 8.00000E-01 1.00000E-01 8.33333E-02
 -1       321 8.50000E-01 0.00000E+00 8.33333E-02
 -1       322 8.50000E-01 1.00000E-01 8.33333E-02
 -1       323 9.00000E-01 0.00000E+00 8.33333E-02
 -1       324 9.00000E-01 1.00000E-01 8.33333E-02
 -1       325 9.50000E-01 0.00000E+00 8.33333E-02
 -1       326 9.50000E-01 1.00000E-01 8.33333E-02
 -1       327 5.00000E-02 0.00000E+00 1.00000E-01
 -1       328 5.00000E-02 1.00000E-01 1.00000E-01
 -1       329 1.00000E-01 0.00000E+00 1.00000E-01
 -1       330 1.00000E-01 1.00000E-01 1.00000E-01
 -1       331 1.50000E-01 0.00000E+00 1.00000E-01
 -1       332 1.50000E-01 1.00000E-01 1.00000E-01
 -1       333 2.00000E-01 0.00000E+00 1.00000E-01
 -1       334 2.00000E-01 1.00000E-01 1.00000E-01
 -1       335 2.50000E-01 0.00000E+00 1.00000E-01
 -1       336 2.50000E-01 1.00000E-01 1.00000E-01
 -1       337 3.00000E-01 0.00000E+00 1.00000E-01
 -1       338 3.00000E-01 1.00000E-01 1.00000E-01
 -1       339 3.50000E-01 0.00000E+00 1.00000E-01
 -1       340 3.50000E-01 1.00000E-01 1.00000E-01
 -1       341 4.00000E-01 0.00000E+00 1.00000E-01
 -1       342 4.00000E-01 1.00000E-01 1.00000E-01
 -1       343 4.50000E-01 0.00000E+00 1.00000E-01
 -1       344 4.50000E-01 1.00000E-01 1.00000E-01
 -1       345 5.00000E-01 0.00000E+00 1.00000E-01
 -1       346 5.00000E-01 1.00000E-01 1.00000E-01
 -1       347 5.50000E-01 0.00000E+00 1.00000E-01
 -1       348 5.50000E-01 1.00000E-01 1.00000E-01
 -1       349 6.00000E-01 0.00000E+00 1.00000E-01
 -1       350 6.00000E-01 1.00000E-01 1.00000E-01
 -1       351 6.50000E-01 0.00000E+00 1.00000E-01
 -1       352 6.50000E-01 1.00000E-01 1.00000E-01
 -1       353 7.00000E-01 0.00000E+00 1.00000E-01
 -1       354 7.00000E-01 1.00000E-01 1.00000E-01
 -1       355 7.50000E-01 0.00000E+00 1.00000E-01
 -1       356 7.50000E-01 1.00000E-01 1.00000E-01
 -1       357 8.00000E-01 0.00000E+00 1.00000E-01
 -1       358 8.00000E-01 1.00000E-01 1.00000E-01
 -1       359 8.50000E-01 0.00000E+00 1.00000E-01
 -1       360 8.50000E-01 1.00000E-01 1.00000E-01
 -1       361 9.00000E-01 0.00000E+00 1.00000E-01
 -1       362 9.00000E-01 1.00000E-01 1.00000E-01
 -1       363 9.50000E-01 0.00000E+00 1.00000E-01
 -1       364 9.50000E-01 1.00000E-01 1.00000E-01
 -1       365 5.00000E-02 1.66667E-02 0.00000E+00
 -1       366 5.00000E-02 1.66667E-02 1.00000E-01
 -1       367 1.00000E-01 1.66667E-02 0.00000E+00
 -1       368 1.00000E-01 1.66667E-02 1.00000E-01
 -1       369 1.50000E-01 1.66667E-02 0.00000E+00
 -1       370 1.50000E-01 1.66667E-02 1.00000E-01
 -1       371 2.00000E-01 1.66667E-02 0.00000E+00
 -1       372 2.00000E-01 1.66667E-02 1.00000E-01
 -1       373 2.50000E-01 1.66667E-02 0.00000E+00
 -1       374 2.50000E-01 1.66667E-02 1.00000E-01
 -1       375 3.00000E-01 1.66667E-02 0.00000E+00
 -1       376 3.00000E-01 1.66667E-02 1.00000E-01
 -1       377 3.50000E-01 1.66667E-02 0.00000E+00
 -1       378 3.50000E-01 1.66667E-02 1.00000E-01
 -1       379 4.00000E-01 1.66667E-02 0.00000E+00
 -1       380 4.00000E-01 1.66667E-02 1.00000E-01
 -1       381 4.50000E-01 1.66667E-02 0.00000E+00
 -1       382 4.50000E-01 1.66667E-02 1.00000E-01
 -1       383 5.00000E-01 1.66667E-02 0.00000E+00
 -1       384 5.00000E-01 1.66667E-02 1.00000E-01
 -1       385 5.50000E-01 1.66667E-02 0.00000E+00
 -1       386 5.50000E-01 1.66667E-02 1.00000E-01
 -1       387 6.00000E-01 1.66667E-02 0.00000E+00
 -1       388 6.00000E-01 1.66667E-02 1.00000E-01
 -1       389 6.50000E-01 1.66667E-02 0.00000E+00
 -1       390 6.50000E-01 1.66667E-02 1.00000E-01
 -1       391 7.00000E-01 1.66667E-02 0.00000E+00
 -1       392 7.00000E-01 1.66667E-02 1.00000E-01
 -1       393 7.50000E-01 1.66667E-02 0.00000E+00
 -1       394 7.50000E-01 1.66667E-02 1.00000E-01
 -1       395 8.00000E-01 1.66667E-02 0.00000E+00
 -1       396 8.00000E-01 1.66667E-02 1.00000E-01
 -1       397 8.50000E-01 1.66667E-02 0.00000E+00
 -1       398 8.50000E-01 1.66667E-02 1.00000E-01
 -1       399 9.00000E-01 1.66667E-02 0.00000E+00
 -1       400 9.00000E-01 1.66667E-02 1.00000E-01
 -1       401 9.50000E-01 1.66667E-02 0.00000E+00
 -1       402 9.50000E-01 1.66667E-02 1.00000E-01
 -1       403 5.00000E-02 3.33333E-02 0.00000E+00
 -1       404 5.00000E-02 3.33333E-02 1.00000E-01
 -1       405 1.00000E-01 3.33333E-02 0.00000E+00
 -1       406 1.00000E-01 3.33333E-02 1.00000E-01
 -1       407 1.50000E-01 3.33333E-02 0.00000E+00
 -1       408 1.50000E-01 3.33333E-02 1.00000E-01
 -1       409 2.00000E-01 3.33333E-02 0.00000E+00
 -1       410 2.00000E-01 3.33333E-02 1.00000E-01
 -1       411 2.50000E-01 3.33333E-02 0.00000E+00
 -1       412 2.50000E-01 3.33333E-02 1.00000E-01
 -1       413 3.00000E-01 3.33333E-02 0.00000E+00
 -1       414 3.00000E-01 3.33333E-02 1.00000E-01
 -1       415 3.50000E-01 3.33333E-02 0.00000E+00
 -1       416 3.50000E-01 3.33333E-02 1.00000E-01
 -1       417 4.00000E-01 3.33333E-02 0.00000E+00
 -1       418 4.00000E-01 3.33333E-02 1.00000E-01
 -1       419 4.50000E-01 3.33333E-02 0.00000E+00
 -1       420 4.50000E-01 3.33333E-02 1.00000E-01
 -1       421 5.00000E-01 3.33333E-02 0.00000E+00
 -1       422 5.00000E-01 3.33333E-02 1.00000E-01
 -1       423 5.50000E-01 3.33333E-02 0.00000E+00
 -1       424 5.50000E-01 3.33333E-02 1.00000E-01
 -1       425 6.00000E-01 3.33333E-02 0.00000E+00
 -1       426 6.00000E-01 3.33333E-02 1.00000E-01
 -1       427 6.50000E-01 3.33333E-02 0.00000E+00
 -1       428 6.50000E-01 3.33333E-02 1.00000E-01
 -1       429 7.00000E-01 3.33333E-02 0.00000E+00
 -1       430 7.00000E-01 3.33333E-02 1.00000E-01
 -1       431 7.50000E-01 3.33333E-02 0.00000E+00
 -1       432 7.50000E-01 3.33333E-02 1.00000E-01
 -1       433 8.00000E-01 3.33333E-02 0.00000E+00
 -1       434 8.00000E-01 3.33333E-02 1.00000E-01
 -1       435 8.50000E-01 3.33333E-02 0.00000E+00
 -1       436 8.50000E-01 3.33333E-02 1.00000E-01
 -1       437 9.00000E-01 3.33333E-02 0.00000E+00
 -1       438 9.00000E-01 3.33333E-02 1.00000E-01
 -1       439 9.50000E-01 3.33333E-02 0.00000E+00
 -1       440 9.50000E-01 3.33333E-02 1.00000E-01
 -1       441 5.00000E-02 5.00000E-02 0.00000E+00
 -1       442 5.00000E-02 5.00000E-02 1.00000E-01
 -1       443 1.00000E-01 5.00000E-02 0.00000E+00
 -1       444 1.00000E-01 5.00000E-02 1.00000E-01
 -1       445 1.50000E-01 5.00000E-02 0.00000E+00
 -1       446 1.50000E-01 5.00000E-02 1.00000E-01
 -1       447 2.00000E-01 5.00000E-02 0.00000E+00
 -1       448 2.00000E-01 5.00000E-02 1.00000E-01
 -1       449 2.50000E-01 5.00000E-02 0.00000E+00
 -1       450 2.50000E-01 5.00000E-02 1.00000E-01
 -1       451 3.00000E-01 5.00000E-02 0.00000E+00
 -1       452 3.00000E-01 5.00000E-02 1.00000E-01
 -1       453 3.50000E-01 5.00000E-02 0.00000E+00
 -1       454 3.50000E-01 5.00000E-02 1.00000E-01
 -1       455 4.00000E-01 5.00000E-02 0.00000E+00
 -1       456 4.00000E-01 5.00000E-02 1.00000E-01
 -1       457 4.50000E-01 5.00000E-02 0.00000E+00
 -1       458 4.50000E-01 5.00000E-02 1.00000E-01
 -1       459 5.00000E-01 5.00000E-02 0.00000E+00
 -1       460 5.00000E-01 5.00000E-02 1.00000E-01
 -1       461 5.50000E-01 5.00000E-02 0.00000E+00
 -1       462 5.50000E-01 5.00000E-02 1.00000E-01
 -1       463 6.00000E-01 5.00000E-02 0.00000E+00
 -1       464 6.00000E-01 5.00000E-02 1.00000E-01
 -1       465 6.50000E-01 5.00000E-02 0.00000E+00
 -1       466 6.50000E-01 5.00000E-02 1.00000E-01
 -1       467 7.00000E-01 5.00000E-02 0.00000E+00
 -1       468 7.00000E-01 5.00000E-02 1.00000E-01
 -1       469 7.50000E-01 5.00000E-02 0.00000E+00
 -1       470 7.50000E-01 5.00000E-02 1.00000E-01
 -1       471 8.00000E-01 5.00000E-02 0.00000E+00
 -1       472 8.00000E-01 5.00000E-02 1.00000E-01
 -1       473 8.50000E-01 5.00000E-02 0.00000E+00
 -1       474 8.50000E-01 5.00000E-02 1.00000E-01
 -1       475 9.00000E-01 5.00000E-02 0.00000E+00
 -1       476 9.00000E-01 5.00000E-02 1.00000E-01
 -1       477 9.50000E-01 5.00000E-02 0.00000E+00
 -1       478 9.50000E-01 5.00000E-02 1.00000E-01
 -1       479 5.00000E-02 6.66667E-02 0.00000E+00
 -1       480 5.00000E-02 6.66667E-02 1.00000E-01
 -1       481 1.00000E-01 6.66667E-02 0.00000E+00
 -1       482 1.00000E-01 6.66667E-02 1.00000E-01
 -1       483 1.50000E-01 6.66667E-02 0.00000E+00
 -1       484 1.50000E-01 6.66667E-02 1.00000E-01
 -1       485 2.00000E-01 6.66667E-02 0.00000E+00
 -1       486 2.00000E-01 6.66667E-02 1.00000E-01
 -1       487 2.50000E-01 6.66667E-02 0.00000E+00
 -1       488 2.50000E-01 6.66667E-02 1.00000E-01
 -1       489 3.00000E-01 6.66667E-02 0.00000E+00
 -1       490 3.00000E-01 6.66667E-02 1.00000E-01
 -1       491 3.50000E-01 6.66667E-02 0.00000E+00
 -1       492 3.50000E-01 6.66667E-02 1.00000E-01
 -1       493 4.00000E-01 6.66667E-02 0.00000E+00
 -1       494 4.00000E-01 6.66667E-02 1.00000E-01
 -1       495 4.50000E-01 6.66667E-02 0.00000E+00
 -1       496 4.50000E-01 6.66667E-02 1.00000E-01
 -1       497 5.00000E-01 6.66667E-02 0.00000E+00
 -1       498 5.00000E-01 6.66667E-02 1.00000E-01
 -1       499 5.50000E-01 6.66667E-02 0.00000E+00
 -1       500 5.50000E-01 6.66667E-02 1.00000E-01
 -1       501 6.00000E-01 6.66667E-02 0.00000E+00
 -1       502 6.00000E-01 6.66667E-02 1.00000E-01
 -1       503 6.50000E-01 6.66667E-02 0.00000E+00
 -1       504 6.50000E-01 6.66667E-02 1.00000E-01
 -1       505 7.00000E-01 6.66667E-02 0.00000E+00
 -1       506 7.00000E-01 6.66667E-02 1.00000E-01
 -1       507 7.50000E-01 6.66667E-02 0.00000E+00
 -1       508 7.50000E-01 6.66667E-02 1.00000E-01
 -1       509 8.00000E-01 6.66667E-02 0.00000E+00
 -1       510 8.00000E-01 6.66667E-02 1.00000E-01
 -1       511 8.50000E-01 6.66667E-02 0.00000E+00
 -1       512 8.50000E-01 6.66667E-02 1.00000E-01
 -1       513 9.00000E-01 6.66667E-02 0.00000E+00
 -1       514 9.00000E-01 6.66667E-02 1.00000E-01
 -1       515 9.50000E-01 6.66667E-02 0.00000E+00
 -1       516 9.50000E-01 6.66667E-02 1.00000E-01
 -1       517 5.00000E-02 8.33333E-02 0.00000E+00
 -1       518 5.00000E-02 8.33333E-02 1.00000E-01
 -1       519 1.00000E-01 8.33333E-02 0.00000E+00
 -1       520 1.00000E-01 8.33333E-02 1.00000E-01
 -1       521 1.50000E-01 8.33333E-02 0.00000E+00
 -1       522 1.50000E-01 8.33333E-02 1.00000E-01
 -1       523 2.00000E-01 8.33333E-02 0.00000E+00
 -1       524 2.00000E-01 8.33333E-02 1.00000E-01
 -1       525 2.50000E-01 8.33333E-02 0.00000E+00
 -1       526 2.50000E-01 8.33333E-02 1.00000E-01
 -1       527 3.00000E-01 8.33333E-02 0.00000E+00
 -1       528 3.00000E-01 8.33333E-02 1.00000E-01
 -1       529 3.50000E-01 8.33333E-02 0.00000E+00
 -1       530 3.50000E-01 8.33333E-02 1.00000E-01
 -1       531 4.00000E-01 8.33333E-02 0.00000E+00
 -1       532 4.00000E-01 8.33333E-02 1.00000E-01
 -1       533 4.50000E-01 8.33333E-02 0.00000E+00
 -1       534 4.50000E-01 8.33333E-02 1.00000E-01
 -1       535 5.00000E-01 8.33333E-02 0.00000E+00
 -1       536 5.00000E-01 8.33333E-02 1.00000E-01
 -1       537 5.50000E-01 8.33333E-02 0.00000E+00
 -1       538 5.50000E-01 8.33333E-02 1.00000E-01
 -1       539 6.00000E-01 8.33333E-02 0.00000E+00
 -1       540 6.00000E-01 8.33333E-02 1.00000E-01
 -1       541 6.50000E-01 8.33333E-02 0.00000E+00
 -1       542 6.50000E-01 8.33333E-02 1.00000E-01
 -1       543 7.00000E-01 8.33333E-02 0.00000E+00
 -1       544 7.00000E-01 8.33333E-02 1.00000E-01
 -1       545 7.50000E-01 8.33333E-02 0.00000E+00
 -1       546 7.50000E-01 8.33333E-02 1.00000E-01
 -1       547 8.00000E-01 8.33333E-02 0.00000E+00
 -1       548 8.00000E-01 8.33333E-02 1.00000E-01
 -1       549 8.50000E-01 8.33333E-02 0.00000E+00
 -1       550 8.50000E-01 8.33333E-02 1.00000E-01
 -1       551 9.00000E-01 8.33333E-02 0.00000E+00
 -1       552 9.00000E-01 8.33333E-02 1.00000E-01
 -1       553 9.50000E-01 8.33333E-02 0.00000E+00
 -1       554 9.50000E-01 8.33333E-02 1.00000E-01
 -1       555 5.00000E-02 1.66667E-02 1.66667E-02
 -1       556 1.00000E-01 1.66667E-02 1.66667E-02
 -1       557 1.50000E-01 1.66667E-02 1.66667E-02
 -1       558 2.00000E-01 1.66667E-02 1.66667E-02
 -1       559 2.50000E-01 1.66667E-02 1.66667E-02
 -1       560 3.00000E-01 1.66667E-02 1.66667E-02
 -1       561 3.50000E-01 1.66667E-02 1.66667E-02
 -1       562 4.00000E-01 1.66667E-02 1.66667E-02
 -1       563 4.50000E-01 1.66667E-02 1.66667E-02
 -1       564 5.00000E-01 1.66667E-02 1.66667E-02
 -1       565 5.50000E-01 1.66667E-02 1.66667E-02
 -1       566 6.00000E-01 1.66667E-02 1.66667E-02
 -1       567 6.50000E-01 1.66667E-02 1.66667E-02
 -1       568 7.00000E-01 1.66667E-02 1.66667E-02
 -1       569 7.50000E-01 1.66667E-02 1.66667E-02
 -1       570 8.00000E-01 1.66667E-02 1.66667E-02
 -1       571 8.50000E-01 1.66667E-02 1.66667E-02
 -1       572 9.00000E-01 1.66667E-02 1.66667E-02
 -1       573 9.50000E-01 1.66667E-02 1.66667E-02
 -1       574 5.00000E-02 3.33333E-02 1.66667E-02
 -1       575 1.00000E-01 3.33333E-02 1.66667E-02
 -1       576 1.50000E-01 3.33333E-02 1.66667E-02
 -1       577 2.00000E-01 3.33333E-02 1.66667E-02
 -1       578 2.50000E-01 3.33333E-02 1.66667E-02
 -1       579 3.00000E-01 3.33333E-02 1.66667E-02
 -1       580 3.50000E-01 3.33333E-02 1.66667E-02
 -1       581 4.00000E-01 3.33333E-02 1.66667E-02
 -1       582 4.50000E-01 3.33333E-02 1.66667E-02
 -1       583 5.00000E-01 3.33333E-02 1.66667E-02
 -1       584 5.50000E-01 3.33333E-02 1.66667E-02
 -1       585 6.00000E-01 3.33333E-02 1.66667E-02
 -1       586 6.50000E-01 3.33333E-02 1.66667E-02
 -1       587 7.00000E-01 3.33333E-02 1.66667E-02
 -1       588 7.50000E-01 3.33333E-02 1.66667E-02
 -1       589 8.00000E-01 3.33333E-02 1.66667E-02
 -1       590 8.50000E-01 3.33333E-02 1.66667E-02
 -1       591 9.00000E-01 3.33333E-02 1.66667E-02
 -1       592 9.50000E-01 3.33333E-02 1.66667E-02
 -1       593 5.00000E-02 5.00000E-02 1.66667E-02
 -1       594 1.00000E-01 5.00000E-02 1.66667E-02
 -1       595 1.50000E-01 5.00000E-02 1.66667E-02
 -1       596 2.00000E-01 5.00000E-02 1.66667E-02
 -1       597 2.50000E-01 5.00000E-02 1.66667E-02
 -1       598 3.00000E-01 5.00000E-02 1.66667E-02
 -1       599 3.50000E-01 5.00000E-02 1.66667E-02
 -1       600 4.00000E-01 5.00000E-02 1.66667E-02
 -1       601 4.50000E-01 5.00000E-02 1.66667E-02
 -1       602 5.00000E-01 5.00000E-02 1.66667E-02
 -1       603 5.50000E-01 5.00000E-02 1.66667E-02
 -1       604 6.00000E-01 5.00000E-02 1.66667E-02
 -1       605 6.50000E-01 5.00000E-02 1.66667E-02
 -1       606 7.00000E-01 5.00000E-02 1.66667E-02
 -1       607 7.50000E-01 5.00000E-02 1.66667E-02
 -1       608 8.00000E-01 5.00000E-02 1.66667E-02
 -1       609 8.50000E-01 5.00000E-02 1.66667E-02
 -1       610 9.00000E-01 5.00000E-02 1.66667E-02
 -1       611 9.50000E-01 5.00000E-02 1.66667E-02
 -1       612 5.00000E-02 6.66667E-02 1.66667E-02
 -1       613 1.00000E-01 6.66667E-02 1.66667E-02
 -1       614 1.50000E-01 6.66667E-02 1.66667E-02
 -1       615 2.00000E-01 6.66667E-02 1.66667E-02
 -1       616 2.50000E-01 6.66667E-02 1.66667E-02
 -1       617 3.00000E-01 6.66667E-02 1.66667E-02
 -1       618 3.50000E-01 6.66667E-02 1.66667E-02
 -1       619 4.00000E-01 6.66667E-02 1.66667E-02
 -1       620 4.50000E-01 6.66667E-02 1.66667E-02
 -1       621 5.00000E-01 6.66667E-02 1.66667E-02
 -1       622 5.50000E-01 6.66667E-02 1.66667E-02
 -1       623 6.00000E-01 6.66667E-02 1.66667E-02
 -1       624 6.50000E-01 6.66667E-02 1.66667E-02
 -1       625 7.00000E-01 6.66667E-02 1.66667E-02
 -1       626 7.50000E-01 6.66667E-02 1.66667E-02
 -1       627 8.00000E-01 6.66667E-02 1.66667E-02
 -1       628 8.50000E-01 6.66667E-02 1.66667E-02
 -1       629 9.00000E-01 6.66667E-02 1.66667E-02
 -1       630 9.50000E-01 6.66667E-02 1.66667E-02
 -1       631 5.00000E-02 8.33333E-02 1.66667E-02
 -1       632 1.00000E-01 8.33333E-02 1.66667E-02
 -1       633 1.50000E-01 8.33333E-02 1.66667E-02
 -1       634 2.00000E-01 8.33333E-02 1.66667E-02
 -1       635 2.50000E-01 8.33333E-02 1.66667E-02
 -1       636 3.00000E-01 8.33333E-02 1.66667E-02
 -1       637 3.50000E-01 8.33333E-02 1.66667E-02
 -1       638 4.00000E-01 8.33333E-02 1.66667E-02
 -1       639 4.50000E-01 8.33333E-02 1.66667E-02
 -1       640 5.00000E-01 8.33333E-02 1.66667E-02
 -1       641 5.50000E-01 8.33333E-02 1.66667E-02
 -1       642 6.00000E-01 8.33333E-02 1.66667E-02
 -1       643 6.50000E-01 8.33333E-02 1.66667E-02
 -1       644 7.00000E-01 8.33333E-02 1.66667E-02
 -1       645 7.50000E-01 8.33333E-02 1.66667E-02
 -1       646 8.00000E-01 8.33333E-02 1.66667E-02
 -1       647 8.50000E-01 8.33333E-02 1.66667E-02
 -1       648 9.00000E-01 8.33333E-02 1.66667E-02
 -1       649 9.50000E-01 8.33333E-02 1.66667E-02
 -1       650 5.00000E-02 1.66667E-02 3.33333E-02
 -1       651 1.00000E-01 1.66667E-02 3.33333E-02
 -1       652 1.50000E-01 1.66667E-02 3.33333E-02
 -1       653 2.00000E-01 1.66667E-02 3.33333E-02
 -1       654 2.50000E-01 1.66667E-02 3.33333E-02
 -1       655 3.00000E-01 1.66667E-02 3.33333E-02
 -1       656 3.50000E-01 1.66667E-02 3.33333E-02
 -1       657 4.00000E-01 1.66667E-02 3.33333E-02
 -1       658 4.50000E-01 1.66667E-02 3.33333E-02
 -1       659 5.00000E-01 1.66667E-02 3.33333E-02
 -1       660 5.50000E-01 1.66667E-02 3.33333E-02
 -1       661 6.00000E-01 1.66667E-02 3.33333E-02
 -1       662 6.50000E-01 1.66667E-02 3.33333E-02
 -1       663 7.00000E-01 1.66667E-02 3.33333E-02
 -1       664 7.50000E-01 1.66667E-02 3.33333E-02
 -1       665 8.00000E-01 1.66667E-02 3.33333E-02
 -1       666 8.50000E-01 1.66667E-02 3.33333E-02
 -1       667 9.00000E-01 1.66667E-02 3.33333E-02
 -1       668 9.50000E-01 1.66667E-02 3.33333E-02
 -1       669 5.00000E-02 3.33333E-02 3.33333E-02
 -1       670 1.00000E-01 3.33333E-02 3.33333E-02
 -1       671 1.50000E-01 3.33333E-02 3.33333E-02
 -1       672 2.00000E-01 3.33333E-02 3.33333E-02
 -1       673 2.50000E-01 3.33333E-02 3.33333E-02
 -1       674 3.00000E-01 3.33333E-02 3.33333E-02
 -1       675 3.50000E-01 3.33333E-02 3.33333E-02
 -1       676 4.00000E-01 3.33333E-02 3.33333E-02
 -1       677 4.50000E-01 3.33333E-02 3.33333E-02
 -1       678 5.00000E-01 3.33333E-02 3.33333E-02
 -1       679 5.50000E-01 3.33333E-02 3.33333E-02
 -1       680 6.00000E-01 3.33333E-02 3.33333E-02
 -1       681 6.50000E-01 3.33333E-02 3.33333E-02
 -1       682 7.00000E-01 3.33333E-02 3.33333E-02
 -1       683 7.50000E-01 3.33333E-02 3.33333E-02
 -1       684 8.00000E-01 3.33333E-02 3.33333E-02
 -1       685 8.50000E-01 3.33333E-02 3.33333E-02
 -1       686 9.00000E-01 3.33333E-02 3.33333E-02
 -1       687 9.50000E-01 3.33333E-02 3.33333E-02
 -1       688 5.00000E-02 5.00000E-02 3.33333E-02
 -1       689 1.00000E-01 5.00000E-02 3.33333E-02
 -1       690 1.50000E-01 5.00000E-02 3.33333E-02
 -1       691 2.00000E-01 5.00000E-02 3.33333E-02
 -1       692 2.50000E-01 5.00000E-02 3.33333E-02
 -1       693 3.00000E-01 5.00000E-02 3.33333E-02
 -1       694 3.50000E-01 5.00000E-02 3.33333E-02
 -1       695 4.00000E-01 5.00000E-02 3.33333E-02
 -1       696 4.50000E-01 5.00000E-02 3.33333E-02
 -1       697 5.00000E-01 5.00000E-02 3.33333E-02
 -1       698 5.50000E-01 5.00000E-02 3.33333E-02
 -1       699 6.00000E-01 5.00000E-02 3.33333E-02
 -1       700 6.50000E-01 5.00000E-02 3.33333E-02
 -1       701 7.00000E-01 5.00000E-02 3.33333E-02
 -1       702 7.50000E-01 5.00000E-02 3.33333E-02
 -1       703 8.00000E-01 5.00000E-02 3.33333E-02
 -1       704 8.50000E-01 5.00000E-02 3.33333E-02
 -1       705 9.00000E-01 5.00000E-02 3.33333E-02
 -1       706 9.50000E-01 5.00000E-02 3.33333E-02
 -1       707 5.00000E-02 6.66667E-02 3.33333E-02
 -1       708 1.00000E-01 6.66667E-02 3.33333E-02
 -1       709 1.50000E-01 6.66667E-02 3.33333E-02
 -1       710 2.00000E-01 6.66667E-02 3.33333E-02
 -1       711 2.50000E-01 6.66667E-02 3.33333E-02
 -1       712 3.00000E-01 6.66667E-02 3.33333E-02
 -1       713 3.50000E-01 6.66667E-02 3.33333E-02
 -1       714 4.00000E-01 6.66667E-02 3.33333E-02
 -1       715 4.50000E-01 6.66667E-02 3.33333E-02
 -1       716 5.00000E-01 6.66667E-02 3.33333E-02
 -1       717 5.50000E-01 6.66667E-02 3.33333E-02
 -1       718 6.00000E-01 6.66667E-02 3.33333E-02
 -1       719 6.50000E-01 6.66667E-02 3.33333E-02
 -1       720 7.00000E-01 6.66667E-02 3.33333E-02
 -1       721 7.50000E-01 6.66667E-02 3.33333E-02
 -1       722 8.00000E-01 6.66667E-02 3.33333E-02
 -1       723 8.50000E-01 6.66667E-02 3.33333E-02
 -1       724 9.00000E-01 6.66667E-02 3.33333E-02
 -1       725 9.50000E-01 6.66667E-02 3.33333E-02
 -1       726 5.00000E-02 8.33333E-02 3.33333E-02
 -1       727 1.00000E-01 8.33333E-02 3.33333E-02
 -1       728 1.50000E-01 8.33333E-02 3.33333E-02
 -1       729 2.00000E-01 8.33333E-02 3.33333E-02
 -1       730 2.50000E-01 8.33333E-02 3.33333E-02
 -1       731 3.00000E-01 8.33333E-02 3.33333E-02
 -1       732 3.50000E-01 8.33333E-02 3.33333E-02
 -1       733 4.00000E-01 8.33333E-02 3.33333E-02
 -1       734 4.50000E-01 8.33333E-02 3.33333E-02
 -1       735 5.00000E-01 8.33333E-02 3.33333E-02
 -1       736 5.50000E-01 8.33333E-02 3.33333E-02
 -1       737 6.00000E-01 8.33333E-02 3.33333E-02
 -1       738 6.50000E-01 8.33333E-02 3.33333E-02
 -1       739 7.00000E-01 8.33333E-02 3.33333E-02
 -1       740 7.50000E-01 8.33333E-02 3.33333E-02
 -1       741 8.00000E-01 8.33333E-02 3.33333E-02
 -1       742 8.50000E-01 8.33333E-02 3.33333E-02
 -1       743 9.00000E-01 8.33333E-02 3.33333E-02
 -1       744 9.50000E-01 8.33333E-02 3.33333E-02
 -1       745 5.00000E-02 1.66667E-02 5.00000E-02
 -1       746 1.00000E-01 1.66667E-02 5.00000E-02
 -1       747 1.50000E-01 1.66667E-02 5.00000E-02
 -1       748 2.00000E-01 1.66667E-02 5.00000E-02
 -1       749 2.50000E-01 1.66667E-02 5.00000E-02
 -1       750 3.00000E-01 1.66667E-02 5.00000E-02
 -1       751 3.50000E-01 1.66667E-02 5.00000E-02
 -1       752 4.00000E-01 1.66667E-02 5.00000E-02
 -1       753 4.50000E-01 1.66667E-02 5.00000E-02
 -1       754 5.00000E-01 1.66667E-02 5.00000E-02
 -1       755 5.50000E-01 1.66667E-02 5.00000E-02
 -1       756 6.00000E-01 1.66667E-02 5.00000E-02
 -1       757 6.50000E-01 1.66667E-02 5.00000E-02
 -1       758 7.00000E-01 1.66667E-02 5.00000E-02
 -1       759 7.50000E-01 1.66667E-02 5.00000E-02
 -1       760 8.00000E-01 1.66667E-02 5.00000E-02
 -1       761 8.50000E-01 1.66667E-02 5.00000E-02
 -1       762 9.00000E-01 1.66667E-02 5.00000E-02
 -1       763 9.50000E-01 1.66667E-02 5.00000E-02
 -1       764 5.00000E-02 3.33333E-02 5.00000E-02
 -1       765 1.00000E-01 3.33333E-02 5.00000E-02
 -1       766 1.50000E-01 3.33333E-02 5.00000E-02
 -1       767 2.00000E-01 3.33333E-02 5.00000E-02
 -1       768 2.50000E-01 3.33333E-02 5.00000E-02
 -1       769 3.00000E-01 3.33333E-02 5.00000E-02
 -1       770 3.50000E-01 3.33333E-02 5.00000E-02
 -1       771 4.00000E-01 3.33333E-02 5.00000E-02
 -1       772 4.50000E-01 3.33333E-02 5.00000E-02
 -1       773 5.00000E-01 3.33333E-02 5.00000E-02
 -1       774 5.50000E-01 3.33333E-02 5.00000E-02
 -1       775 6.00000E-01 3.33333E-02 5.00000E-02
 -1       776 6.50000E-01 3.33333E-02 5.00000E-02
 -1       777 7.00000E-01 3.33333E-02 5.00000E-02
 -1       778 7.50000E-01 3.33333E-02 5.00000E-02
 -1       779 8.00000E-01 3.33333E-02 5.00000E-02
 -1       780 8.50000E-01 3.33333E-02 5.00000E-02
 -1       781 9.00000E-01 3.33333E-02 5.00000E-02
 -1       782 9.50000E-01 3.33333E-02 5.00000E-02
 -1       783 5.00000E-02 5.00000E-02 5.00000E-02
 -1       784 1.00000E-01 5.00000E-02 5.00000E-02
 -1       785 1.50000E-01 5.00000E-02 5.00000E-02
 -1       786 2.00000E-01 5.00000E-02 5.00000E-02
 -1       787 2.50000E-01 5.00000E-02 5.00000E-02
 -1       788 3.00000E-01 5.00000E-02 5.00000E-02
 -1       789 3.50000E-01 5.00000E-02 5.00000E-02
 -1       790 4.00000E-01 5.00000E-02 5.00000E-02
 -1       791 4.50000E-01 5.00000E-02 5.00000E-02
 -1       792 5.00000E-01 5.00000E-02 5.00000E-02
 -1       793 5.50000E-01 5.00000E-02 5.00000E-02
 -1       794 6.00000E-01 5.00000E-02 5.00000E-02
 -1       795 6.50000E-01 5.00000E-02 5.00000E-02
 -1       796 7.00000E-01 5.00000E-02 5.00000E-02
 -1       797 7.50000E-01 5.00000E-02 5.00000E-02
 -1       798 8.00000E-01 5.00000E-02 5.00000E-02
 -1       799 8.50000E-01 5.00000E-02 5.00000E-02
 -1       800 9.00000E-01 5.00000E-02 5.00000E-02
 -1       801 9.50000E-01 5.00000E-02 5.00000E-02
 -1       802 5.00000E-02 6.66667E-02 5.00000E-02
 -1       803 1.00000E-01 6.66667E-02 5.00000E-02
 -1       804 1.50000E-01 6.66667E-02 5.00000E-02
 -1       805 2.00000E-01 6.66667E-02 5.00000E-02
 -1       806 2.50000E-01 6.66667E-02 5.00000E-02
 -1       807 3.00000E-01 6.66667E-02 5.00000E-02
 -1       808 3.50000E-01 6.66667E-02 5.00000E-02
 -1       809 4.00000E-01 6.66667E-02 5.00000E-02
 -1       810 4.50000E-01 6.66667E-02 5.00000E-02
 -1       811 5.00000E-01 6.66667E-02 5.00000E-02
 -1       812 5.50000E-01 6.66667E-02 5.00000E-02
 -1       813 6.00000E-01 6.66667E-02 5.00000E-02
 -1       814 6.50000E-01 6.66667E-02 5.00000E-02
 -1       815 7.00000E-01 6.66667E-02 5.00000E-02
 -1       816 7.50000E-01 6.66667E-02 5.00000E-02
 -1       817 8.00000E-01 6.66667E-02 5.00000E-02
 -1       818 8.50000E-01 6.66667E-02 5.00000E-02
 -1       819 9.00000E-01 6.66667E-02 5.00000E-02
 -1       820 9.50000E-01 6.66667E-02 5.00000E-02
 -1       821 5.00000E-02 8.33333E-02 5.00000E-02
 -1       822 1.00000E-01 8.33333E-02 5.00000E-02
 -1       823 1.50000E-01 8.33333E-02 5.00000E-02
 -1       824 2.00000E-01 8.33333E-02 5.00000E-02
 -1       825 2.50000E-01 8.33333E-02 5.00000E-02
 -1       826 3.00000E-01 8.33333E-02 5.00000E-02
 -1       827 3.50000E-01 8.33333E-02 5.00000E-02
 -1       828 4.00000E-01 8.33333E-02 5.00000E-02
 -1       829 4.50000E-01 8.33333E-02 5.00000E-02
 -1       830 5.00000E-01 8.33333E-02 5.00000E-02
 -1       831 5.50000E-01 8.33333E-02 5.00000E-02
 -1       832 6.00000E-01 8.33333E-02 5.00000E-02
 -1       833 6.50000E-01 8.33333E-02 5.00000E-02
 -1       834 7.00000E-01 8.33333E-02 5.00000E-02
 -1       835 7.50000E-01 8.33333E-02 5.00000E-02
 -1       836 8.00000E-01 8.33333E-02 5.00000E-02
 -1       837 8.50000E-01 8.33333E-02 5.00000E-02
 -1       838 9.00000E-01 8.33333E-02 5.00000E-02
 -1       839 9.50000E-01 8.33333E-02 5.00000E-02
 -1       840 5.00000E-02 1.66667E-02 6.66667E-02
 -1       841 1.00000E-01 1.66667E-02 6.66667E-02
 -1       842 1.50000E-01 1.66667E-02 6.66667E-02
 -1       843 2.00000E-01 1.66667E-02 6.66667E-02
 -1       844 2.50000E-01 1.66667E-02 6.66667E-02
 -1       845 3.00000E-01 1.66667E-02 6.66667E-02
 -1       846 3.50000E-01 1.66667E-02 6.66667E-02
 -1       847 4.00000E-01 1.66667E-02 6.66667E-02
 -1       848 4.50000E-01 1.66667E-02 6.66667E-02
 -1       849 5.00000E-01 1.66667E-02 6.66667E-02
 -1       850 5.50000E-01 1.66667E-02 6.66667E-02
 -1       851 6.00000E-01 1.66667E-02 6.66667E-02
 -1       852 6.50000E-01 1.66667E-02 6.66667E-02
 -1       853 7.00000E-01 1.66667E-02 6.66667E-02
 -1       854 7.50000E-01 1.66667E-02 6.66667E-02
 -1       855 8.00000E-01 1.66667E-02 6.66667E-02
 -1       856 8.50000E-01 1.66667E-02 6.66667E-02
 -1       857 9.00000E-01 1.66667E-02 6.66667E-02
 -1       858 9.50000E-01 1.66667E-02 6.66667E-02
 -1       859 5.00000E-02 3.33333E-02 6.66667E-02
 -1       860 1.00000E-01 3.33333E-02 6.66667E-02
 -1       861 1.50000E-01 3.33333E-02 6.66667E-02
 -1       862 2.00000E-01 3.33333E-02 6.66667E-02
 -1       863 2.50000E-01 3.33333E-02 6.66667E-02
 -1       864 3.00000E-01 3.33333E-02 6.66667E-02
 -1       865 3.50000E-01 3.33333E-02 6.66667E-02
 -1       866 4.00000E-01 3.33333E-02 6.66667E-02
 -1       867 4.50000E-01 3.33333E-02 6.66667E-02
 -1       868 5.00000E-01 3.33333E-02 6.66667E-02
 -1       869 5.50000E-01 3.33333E-02 6.66667E-02
 -1       870 6.00000E-01 3.33333E-02 6.66667E-02
 -1       871 6.50000E-01 3.33333E-02 6.66667E-02
 -1       872 7.00000E-01 3.33333E-02 6.66667E-02
 -1       873 7.50000E-01 3.33333E-02 6.66667E-02
 -1       874 8.00000E-01 3.33333E-02 6.66667E-02
 -1       875 8.50000E-01 3.33333E-02 6.66667E-02
 -1       876 9.00000E-01 3.33333E-02 6.66667E-02
 -1       877 9.50000E-01 3.33333E-02 6.66667E-02
 -1       878 5.00000E-02 5.00000E-02 6.66667E-02
 -1       879 1.00000E-01 5.00000E-02 6.66667E-02
 -1       880 1.50000E-01 5.00000E-02 6.66667E-02
 -1       881 2.00000E-01 5.00000E-02 6.66667E-02
 -1       882 2.50000E-01 5.00000E-02 6.66667E-02
 -1       883 3.00000E-01 5.00000E-02 6.66667E-02
 -1       884 3.50000E-01 5.00000E-02 6.66667E-02
 -1       885 4.00000E-01 5.00000E-02 6.66667E-02
 -1       886 4.50000E-01 5.00000E-02 6.66667E-02
 -1       887 5.00000E-01 5.00000E-02 6.66667E-02
 -1       888 5.50000E-01 5.00000E-02 6.66667E-02
 -1       889 6.00000E-01 5.00000E-02 6.66667E-02
 -1       890 6.50000E-01 5.00000E-02 6.66667E-02
 -1       891 7.00000E-01 5.00000E-02 6.66667E-02
 -1       892 7.50000E-01 5.00000E-02 6.66667E-02
 -1       893 8.00000E-01 5.00000E-02 6.66667E-02
 -1       894 8.50000E-01 5.00000E-02 6.66667E-02
 -1       895 9.00000E-01 5.00000E-02 6.66667E-02
 -1       896 9.50000E-01 5.00000E-02 6.66667E-02
 -1       897 5.00000E-02 6.66667E-02 6.66667E-02
 -1       898 1.00000E-01 6.66667E-02 6.66667E-02
 -1       899 1.50000E-01 6.66667E-02 6.66667E-02
 -1       900 2.00000E-01 6.66667E-02 6.66667E-02
 -1       901 2.50000E-01 6.66667E-02 6.66667E-02
 -1       902 3.00000E-01 6.66667E-02 6.66667E-02
 -1       903 3.50000E-01 6.66667E-02 6.66667E-02
 -1       904 4.00000E-01 6.66667E-02 6.66667E-02
 -1       905 4.50000E-01 6.66667E-02 6.66667E-02
 -1       906 5.00000E-01 6.66667E-02 6.66667E-02
 -1       907 5.50000E-01 6.66667E-02 6.66667E-02
 -1       908 6.00000E-01 6.66667E-02 6.66667E-02
 -1       909 6.50000E-01 6.66667E-02 6.66667E-02
 -1       910 7.00000E-01 6.66667E-02 6.66667E-02
 -1       911 7.50000E-01 6.66667E-02 6.66667E-02
 -1       912 8.00000E-01 6.66667E-02 6.66667E-02
 -1       913 8.50000E-01 6.66667E-02 6.66667E-02
 -1       914 9.00000E-01 6.66667E-02 6.66667E-02
 -1       915 9.50000E-01 6.66667E-02 6.66667E-02
 -1       916 5.00000E-02 8.33333E-02 6.66667E-02
 -1       917 1.00000E-01 8.33333E-02 6.66667E-02
 -1       918 1.50000E-01 8.33333E-02 6.66667E-02
 -1       919 2.00000E-01 8.33333E-02 6.66667E-02
 -1       920 2.50000E-01 8.33333E-02 6.66667E-02
 -1       921 3.00000E-01 8.33333E-02 6.66667E-02
 -1       922 3.50000E-01 8.33333E-02 6.66667E-02
 -1       923 4.00000E-01 8.33333E-02 6.66667E-02
 -1       924 4.50000E-01 8.33333E-02 6.66667E-02
 -1       925 5.00000E-01 8.33333E-02 6.66667E-02
 -1       926 5.50000E-01 8.33333E-02 6.66667E-02
 -1       927 6.00000E-01 8.33333E-02 6.66667E-02
 -1       928 6.50000E-01 8.33333E-02 6.66667E-02
 -1       929 7.00000E-01 8.33333E-02 6.66667E-02
 -1       930 7.50000E-01 8.33333E-02 6.66667E-02
 -1       931 8.00000E-01 8.33333E-02 6.66667E-02
 -1       932 8.50000E-01 8.33333E-02 6.66667E-02
 -1       933 9.00000E-01 8.33333E-02 6.66667E-02
 -1       934 9.50000E-01 8.33333E-02 6.66667E-02
 -1       935 5.00000E-02 1.66667E-02 8.33333E-02
 -1       936 1.00000E-01 1.66667E-02 8.33333E-02
 -1       937 1.50000E-01 1.66667E-02 8.33333E-02
 -1       938 2.00000E-01 1.66667E-02 8.33333E-02
 -1       939 2.50000E-01 1.66667E-02 8.33333E-02
 -1       940 3.00000E-01 1.66667E-02 8.33333E-02
 -1       941 3.50000E-01 1.66667E-02 8.33333E-02
 -1       942 4.00000E-01 1.66667E-02 8.33333E-02
 -1       943 4.50000E-01 1.66667E-02 8.33333E-02
 -1       944 5.00000E-01 1.66667E-02 8.33333E-02
 -1       945 5.50000E-01 1.66667E-02 8.33333E-02
 -1       946 6.00000E-01 1.66667E-02 8.33333E-02
 -1       947 6.50000E-01 1.66667E-02 8.33333E-02
 -1       948 7.00000E-01 1.66667E-02 8.33333E-02
 -1       949 7.50000E-01 1.66667E-02 8.33333E-02
 -1       950 8.00000E-01 1.66667E-02 8.33333E-02
 -1       951 8.50000E-01 1.66667E-02 8.33333E-02
 -1       952 9.00000E-01 1.66667E-02 8.33333E-02
 -1       953 9.50000E-01 1.66667E-02 8.33333E-02
 -1       954 5.00000E-02 3.33333E-02 8.33333E-02
 -1       955 1.00000E-01 3.33333E-02 8.33333E-02
 -1       956 1.50000E-01 3.33333E-02 8.33333E-02
 -1       957 2.00000E-01 3.33333E-02 8.33333E-02
 -1       958 2.50000E-01 3.33333E-02 8.33333E-02
 -1       959 3.00000E-01 3.33333E-02 8.33333E-02
 -1       960 3.50000E-01 3.33333E-02 8.33333E-02
 -1       961 4.00000E-01 3.33333E-02 8.33333E-02
 -1       962 4.50000E-01 3.33333E-02 8.33333E-02
 -1       963 5.00000E-01 3.33333E-02 8.33333E-02
 -1       964 5.50000E-01 3.33333E-02 8.33333E-02
 -1       965 6.00000E-01 3.33333E-02 8.33333E-02
 -1       966 6.50000E-01 3.33333E-02 8.33333E-02
 -1       967 7.00000E-01 3.33333E-02 8.33333E-02
 -1       968 7.50000E-01 3.33333E-02 8.33333E-02
 -1       969 8.00000E-01 3.33333E-02 8.33333E-02
 -1       970 8.50000E-01 3.33333E-02 8.33333E-02
 -1       971 9.00000E-01 3.33333E-02 8.33333E-02
 -1       972 9.50000E-01 3.33333E-02 8.33333E-02
 -1       973 5.00000E-02 5.00000E-02 8.33333E-02
 -1       974 1.00000E-01 5.00000E-02 8.33333E-02
 -1       975 1.50000E-01 5.00000E-02 8.33333E-02
 -1       976 2.00000E-01 5.00000E-02 8.33333E-02
 -1       977 2.50000E-01 5.00000E-02 8.33333E-02
 -1       978 3.00000E-01 5.00000E-02 8.33333E-02
 -1       979 3.50000E-01 5.00000E-02 8.33333E-02
 -1       980 4.00000E-01 5.00000E-02 8.33333E-02
 -1       981 4.50000E-01 5.00000E-02 8.33333E-02
 -1       982 5.00000E-01 5.00000E-02 8.33333E-02
 -1       983 5.50000E-01 5.00000E-02 8.33333E-02
 -1       984 6.00000E-01 5.00000E-02 8.33333E-02
 -1       985 6.50000E-01 5.00000E-02 8.33333E-02
 -1       986 7.00000E-01 5.00000E-02 8.33333E-02
 -1       987 7.50000E-01 5.00000E-02 8.33333E-02
 -1       988 8.00000E-01 5.00000E-02 8.33333E-02
 -1       989 8.50000E-01 5.00000E-02 8.33333E-02
 -1       990 9.00000E-01 5.00000E-02 8.33333E-02
 -1       991 9.50000E-01 5.00000E-02 8.33333E-02
 -1       992 5.00000E-02 6.66667E-02 8.33333E-02
 -1       993 1.00000E-01 6.66667E-02 8.33333E-02
 -1       994 1.50000E-01 6.66667E-02 8.33333E-02
 -1       995 2.00000E-01 6.66667E-02 8.33333E-02
 -1       996 2.50000E-01 6.66667E-02 8.33333E-02
 -1       997 3.00000E-01 6.66667E-02 8.33333E-02
 -1       998 3.50000E-01 6.66667E-02 8.33333E-02
 -1       999 4.00000E-01 6.66667E-02 8.33333E-02
 -1      1000 4.50000E-01 6.66667E-02 8.33333E-02
 -1      1001 5.00000E-01 6.66667E-02 8.33333E-02
 -1      1002 5.50000E-01 6.66667E-02 8.33333E-02
 -1      1003 6.00000E-01 6.66667E-02 8.33333E-02
 -1      1004 6.50000E-01 6.66667E-02 8.33333E-02
 -1      1005 7.00000E-01 6.66667E-02 8.33333E-02
 -1      1006 7.50000E-01 6.66667E-02 8.33333E-02
 -1      1007 8.00000E-01 6.66667E-02 8.33333E-02
 -1      1008 8.50000E-01 6.66667E-02 8.33333E-02
 -1      1009 9.00000E-01 6.66667E-02 8.33333E-02
 -1      1010 9.50000E-01 6.66667E-02 8.33333E-02
 -1      1011 5.00000E-02 8.33333E-02 8.33333E-02
 -1      1012 1.00000E-01 8.33333E-02 8.33333E-02
 -1      1013 1.50000E-01 8.33333E-02 8.33333E-02
 -1      1014 2.00000E-01 8.33333E-02 8.33333E-02
 -1      1015 2.50000E-01 8.33333E-02 8.33333E-02
 -1      1016 3.00000E-01 8.33333E-02 8.33333E-02
 -1      1017 3.50000E-01 8.33333E-02 8.33333E-02
 -1      1018 4.00000E-01 8.33333E-02 8.33333E-02
 -1      1019 4.50000E-01 8.33333E-02 8.33333E-02
 -1      1020 5.00000E-01 8.33333E-02 8.33333E-02
 -1      1021 5.50000E-01 8.33333E-02 8.33333E-02
 -1      1022 6.00000E-01 8.33333E-02 8.33333E-02
 -1      1023 6.50000E-01 8.33333E-02 8.33333E-02
 -1      1024 7.00000E-01 8.33333E-02 8.33333E-02
 -1      1025 7.50000E-01 8.33333E-02 8.33333E-02
 -1      1026 8.00000E-01 8.33333E-02 8.33333E-02
 -1      1027 8.50000E-01 8.33333E-02 8.33333E-02
 -1      1028 9.00000E-01 8.33333E-02 8.33333E-02
 -1      1029 9.50000E-01 8.33333E-02 8.33333E-02
 -1      1030 0.00000E+00-5.00000E-02-1.00000E-01
 -1      1031 1.20000E+00-5.00000E-02-1.00000E-01
 -1      1032 0.00000E+00-3.33333E-02-1.00000E-01
 -1      1033 1.20000E+00-3.33333E-02-1.00000E-01
 -1      1034 0.00000E+00-1.66667E-02-1.00000E-01
 -1      1035 1.20000E+00-1.66667E-02-1.00000E-01
 -1      1036 0.00000E+00 2.08167E-17-1.00000E-01
 -1      1037 1.20000E+00 2.08167E-17-1.00000E-01
 -1      1038 0.00000E+00 1.66667E-02-1.00000E-01
 -1      1039 1.20000E+00 1.66667E-02-1.00000E-01
 -1      1040 0.00000E+00 3.33333E-02-1.00000E-01
 -1      1041 1.20000E+00 3.33333E-02-1.00000E-01
 -1      1042 0.00000E+00 5.00000E-02-1.00000E-01
 -1      1043 1.20000E+00 5.00000E-02-1.00000E-01
 -1      1044 0.00000E+00 6.66667E-02-1.00000E-01
 -1      1045 1.20000E+00 6.66667E-02-1.00000E-01
 -1      1046 0.00000E+00 8.33333E-02-1.00000E-01
 -1      1047 1.20000E+00 8.33333E-02-1.00000E-01
 -1      1048 0.00000E+00 1.00000E-01-1.00000E-01
 -1      1049 1.20000E+00 1.00000E-01-1.00000E-01
 -1      1050 0.00000E+00 1.16667E-01-1.00000E-01
 -1      1051 1.20000E+00 1.16667E-01-1.00000E-01
 -1      1052 0.00000E+00 1.33333E-01-1.00000E-01
 -1      1053 1.20000E+00 1.33333E-01-1.00000E-01
 -1      1054 0.00000E+00 1.50000E-01-1.00000E-01
 -1      1055 1.20000E+00 1.50000E-01-1.00000E-01
 -1      1056 0.00000E+00-5.00000E-02-8.33333E-02
 -1      1057 1.20000E+00-5.00000E-02-8.33333E-02
 -1      1058 0.00000E+00-3.33333E-02-8.33333E-02
 -1      1059 1.20000E+00-3.33333E-02-8.33333E-02
 -1      1060 0.00000E+00-1.66667E-02-8.33333E-02
 -1      1061 1.20000E+00-1.66667E-02-8.33333E-02
 -1      1062 0.00000E+00 2.08167E-17-8.33333E-02
 -1      1063 1.20000E+00 2.08167E-17-8.33333E-02
 -1      1064 0.00000E+00 1.66667E-02-8.33333E-02
 -1      1065 1.20000E+00 1.66667E-02-8.33333E-02
 -1      1066 0.00000E+00 3.33333E-02-8.33333E-02
 -1      1067 1.20000E+00 3.33333E-02-8.33333E-02
 -1      1068 0.00000E+00 5.00000E-02-8.33333E-02
 -1      1069 1.20000E+00 5.00000E-02-8.33333E-02
 -1      1070 0.00000E+00 6.66667E-02-8.33333E-02
 -1      1071 1.20000E+00 6.66667E-02-8.33333E-02
 -1      1072 0.00000E+00 8.33333E-02-8.33333E-02
 -1      1073 1.20000E+00 8.33333E-02-8.33333E-02
 -1      1074 0.00000E+00 1.00000E-01-8.33333E-02
 -1      1075 1.20000E+00 1.00000E-01-8.33333E-02
 -1      1076 0.00000E+00 1.16667E-01-8.33333E-02
 -1      1077 1.20000E+00 1.16667E-01-8.33333E-02
 -1      1078 0.00000E+00 1.33333E-01-8.33333E-02
 -1      1079 1.20000E+00 1.33333E-01-8.33333E-02
 -1      1080 0.00000E+00 1.50000E-01-8.33333E-02
 -1      1081 1.20000E+00 1.50000E-01-8.33333E-02
 -1      1082 0.00000E+00-5.00000E-02-6.66667E-02
 -1      1083 1.20000E+00-5.00000E-02-6.66667E-02
 -1      1084 0.00000E+00-3.33333E-02-6.66667E-02
 -1      1085 1.20000E+00-3.33333E-02-6.66667E-02
 -1      1086 0.00000E+00-1.66667E-02-6.66667E-02
 -1      1087 1.20000E+00-1.66667E-02-6.66667E-02
 -1      1088 0.00000E+00 2.08167E-17-6.66667E-02
 -1      1089 1.20000E+00 2.08167E-17-6.66667E-02
 -1      1090 0.00000E+00 1.66667E-02-6.66667E-02
 -1      1091 1.20000E+00 1.66667E-02-6.66667E-02
 -1      1092 0.00000E+00 3.33333E-02-6.66667E-02
 -1      1093 1.20000E+00 3.33333E-02-6.66667E-02
 -1      1094 0.00000E+00 5.00000E-02-6.66667E-02
 -1      1095 1.20000E+00 5.00000E-02-6.66667E-02
 -1      1096 0.00000E+00 6.66667E-02-6.66667E-02
 -1      1097 1.20000E+00 6.66667E-02-6.66667E-02
 -1      1098 0.00000E+00 8.33333E-02-6.66667E-02
 -1      1099 1.20000E+00 8.33333E-02-6.66667E-02
 -1      1100 0.00000E+00 1.00000E-01-6.66667E-02
 -1      1101 1.20000E+00 1.00000E-01-6.66667E-02
 -1      1102 0.00000E+00 1.16667E-01-6.66667E-02
 -1      1103 1.20000E+00 1.16667E-01-6.66667E-02
 -1      1104 0.00000E+00 1.33333E-01-6.66667E-02
 -1      1105 1.20000E+00 1.33333E-01-6.66667E-02
 -1      1106 0.00000E+00 1.50000E-01-6.66667E-02
 -1      1107 1.20000E+00 1.50000E-01-6.66667E-02
 -1      1108 0.00000E+00-5.00000E-02-5.00000E-02
 -1      1109 1.20000E+00-5.00000E-02-5.00000E-02
 -1      1110 0.00000E+00-3.33333E-02-5.00000E-02
 -1      1111 1.20000E+00-3.33333E-02-5.00000E-02
 -1      1112 0.00000E+00-1.66667E-02-5.00000E-02
 -1      1113 1.20000E+00-1.66667E-02-5.00000E-02
 -1      1114 0.00000E+00 2.08167E-17-5.00000E-02
 -1      1115 1.20000E+00 2.08167E-17-5.00000E-02
 -1      1116 0.00000E+00 1.66667E-02-5.00000E-02
 -1      1117 1.20000E+00 1.66667E-02-5.00000E-02
 -1      1118 0.00000E+00 3.33333E-02-5.00000E-02
 -1      1119 1.20000E+00 3.33333E-02-5.00000E-02
 -1      1120 0.00000E+00 5.00000E-02-5.00000E-02
 -1      1121 1.20000E+00 5.00000E-02-5.00000E-02
 -1      1122 0.00000E+00 6.66667E-02-5.00000E-02
 -1      1123 1.20000E+00 6.66667E-02-5.00000E-02
 -1      1124 0.00000E+00 8.33333E-02-5.00000E-02
 -1      1125 1.20000E+00 8.33333E-02-5.00000E-02
 -1      1126 0.00000E+00 1.00000E-01-5.00000E-02
 -1      1127 1.20000E+00 1.00000E-01-5.00000E-02
 -1      1128 0.00000E+00 1.16667E-01-5.00000E-02
 -1      1129 1.20000E+00 1.16667E-01-5.00000E-02
 -1      1130 0.00000E+00 1.33333E-01-5.00000E-02
 -1      1131 1.20000E+00 1.33333E-01-5.00000E-02
 -1      1132 0.00000E+00 1.50000E-01-5.00000E-02
 -1      1133 1.20000E+00 1.50000E-01-5.00000E-02
 -1      1134 0.00000E+00-5.00000E-02-3.33333E-02
 -1      1135 1.20000E+00-5.00000E-02-3.33333E-02
 -1      1136 0.00000E+00-3.33333E-02-3.33333E-02
 -1      1137 1.20000E+00-3.33333E-02-3.33333E-02
 -1      1138 0.00000E+00-1.66667E-02-3.33333E-02
 -1      1139 1.20000E+00-1.66667E-02-3.33333E-02
 -1      1140 0.00000E+00 2.08167E-17-3.33333E-02
 -1      1141 1.20000E+00 2.08167E-17-3.33333E-02
 -1      1142 0.00000E+00 1.66667E-02-3.33333E-02
 -1      1143 1.20000E+00 1.66667E-02-3.33333E-02
 -1      1144 0.00000E+00 3.33333E-02-3.33333E-02
 -1      1145 1.20000E+00 3.33333E-02-3.33333E-02
 -1      1146 0.00000E+00 5.00000E-02-3.33333E-02
 -1      1147 1.20000E+00 5.00000E-02-3.33333E-02
 -1      1148 0.00000E+00 6.66667E-02-3.33333E-02
 -1      1149 1.20000E+00 6.66667E-02-3.33333E-02
 -1      1150 0.00000E+00 8.33333E-02-3.33333E-02
 -1      1151 1.20000E+00 8.33333E-02-3.33333E-02
 -1      1152 0.00000E+00 1.00000E-01-3.33333E-02
 -1      1153 1.20000E+00 1.00000E-01-3.33333E-02
 -1      1154 0.00000E+00 1.16667E-01-3.33333E-02
 -1      1155 1.20000E+00 1.16667E-01-3.33333E-02
 -1      1156 0.00000E+00 1.33333E-01-3.33333E-02
 -1      1157 1.20000E+00 1.33333E-01-3.33333E-02
 -1      1158 0.00000E+00 1.50000E-01-3.33333E-02
 -1      1159 1.20000E+00 1.50000E-01-3.33333E-02
 -1      1160 0.00000E+00-5.00000E-02-1.66667E-02
 -1      1161 1.20000E+00-5.00000E-02-1.66667E-02
 -1      1162 0.00000E+00-3.33333E-02-1.66667E-02
 -1      1163 1.20000E+00-3.33333E-02-1.66667E-02
 -1      1164 0.00000E+00-1.66667E-02-1.66667E-02
 -1      1165 1.20000E+00-1.66667E-02-1.66667E-02
 -1      1166 0.00000E+00 2.08167E-17-1.66667E-02
 -1      1167 1.20000E+00 2.08167E-17-1.66667E-02
 -1      1168 0.00000E+00 1.66667E-02-1.66667E-02
 -1      1169 1.20000E+00 1.66667E-02-1.66667E-02
 -1      1170 0.00000E+00 3.33333E-02-1.66667E-02
 -1      1171 1.20000E+00 3.33333E-02-1.66667E-02
 -1      1172 0.00000E+00 5.00000E-02-1.66667E-02
 -1      1173 1.20000E+00 5.00000E-02-1.66667E-02
 -1      1174 0.00000E+00 6.66667E-02-1.66667E-02
 -1      1175 1.20000E+00 6.66667E-02-1.66667E-02
 -1      1176 0.00000E+00 8.33333E-02-1.66667E-02
 -1      1177 1.20000E+00 8.33333E-02-1.66667E-02
 -1      1178 0.00000E+00 1.00000E-01-1.66667E-02
 -1      1179 1.20000E+00 1.00000E-01-1.66667E-02
 -1      1180 0.00000E+00 1.16667E-01-1.66667E-02
 -1      1181 1.20000E+00 1.16667E-01-1.66667E-02
 -1      1182 0.00000E+00 1.33333E-01-1.66667E-02
 -1      1183 1.20000E+00 1.33333E-01-1.66667E-02
 -1      1184 0.00000E+00 1.50000E-01-1.66667E-02
 -1      1185 1.20000E+00 1.50000E-01-1.66667E-02
 -1      1186 0.00000E+00-5.00000E-02 0.00000E+00
 -1      1187 1.20000E+00-5.00000E-02 0.00000E+00
 -1      1188 0.00000E+00-3.33333E-02 0.00000E+00
 -1      1189 1.20000E+00-3.33333E-02 0.00000E+00
 -1      1190 0.00000E+00-1.66667E-02 0.00000E+00
 -1      1191 1.20000E+00-1.66667E-02 0.00000E+00
 -1      1192 0.00000E+00 2.08167E-17 0.00000E+00
 -1      1193 1.20000E+00 2.08167E-17 0.00000E+00
 -1      1194 0.00000E+00 1.66667E-02 0.00000E+00
 -1      1195 1.20000E+00 1.66667E-02 0.00000E+00
 -1      1196 0.00000E+00 3.33333E-02 0.00000E+00
 -1      1197 1.20000E+00 3.33333E-02 0.00000E+00
 -1      1198 0.00000E+00 5.00000E-02 0.00000E+00
 -1      1199 1.20000E+00 5.00000E-02 0.00000E+00
 -1      1200 0.00000E+00 6.66667E-02 0.00000E+00
 -1      1201 1.20000E+00 6.66667E-02 0.00000E+00
 -1      1202 0.00000E+00 8.33333E-02 0.00000E+00
 -1      1203 1.20000E+00 8.33333E-02 0.00000E+00
 -1      1204 0.00000E+00 1.00000E-01 0.00000E+00
 -1      1205 1.20000E+00 1.00000E-01 0.00000E+00
 -1      1206 0.00000E+00 1.16667E-01 0.00000E+00
 -1      1207 1.20000E+00 1.16667E-01 0.00000E+00
 -1      1208 0.00000E+00 1.33333E-01 0.00000E+00
 -1      1209 1.20000E+00 1.33333E-01 0.00000E+00
 -1      1210 0.00000E+00 1.50000E-01 0.00000E+00
 -1      1211 1.20000E+00 1.50000E-01 0.00000E+00
 -1      1212 5.00000E-02-5.00000E-02-1.00000E-01
 -1      1213 5.00000E-02 1.50000E-01-1.00000E-01
 -1      1214 1.00000E-01-5.00000E-02-1.00000E-01
 -1      1215 1.00000E-01 1.50000E-01-1.00000E-01
 -1      1216 1.50000E-01-5.00000E-02-1.00000E-01
 -1      1217 1.50000E-01 1.50000E-01-1.00000E-01
 -1      1218 2.00000E-01-5.00000E-02-1.00000E-01
 -1      1219 2.00000E-01 1.50000E-01-1.00000E-01
 -1      1220 2.50000E-01-5.00000E-02-1.00000E-01
 -1      1221 2.50000E-01 1.50000E-01-1.00000E-01
 -1      1222 3.00000E-01-5.00000E-02-1.00000E-01
 -1      1223 3.00000E-01 1.50000E-01-1.00000E-01
 -1      1224 3.50000E-01-5.00000E-02-1.00000E-01
 -1      1225 3.50000E-01 1.50000E-01-1.00000E-01
 -1      1226 4.00000E-01-5.00000E-02-1.00000E-01
 -1      1227 4.00000E-01 1.50000E-01-1.00000E-01
 -1      1228 4.50000E-01-5.00000E-02-1.00000E-01
 -1      1229 4.50000E-01 1.50000E-01-1.00000E-01
 -1      1230 5.00000E-01-5.00000E-02-1.00000E-01
 -1      1231 5.00000E-01 1.50000E-01-1.00000E-01
 -1      1232 5.50000E-01-5.00000E-02-1.00000E-01
 -1      1233 5.50000E-01 1.50000E-01-1.00000E-01
 -1      1234 6.00000E-01-5.00000E-02-1.00000E-01
 -1      1235 6.00000E-01 1.50000E-01-1.00000E-01
 -1      1236 6.50000E-01-5.00000E-02-1.00000E-01
 -1      1237 6.50000E-01 1.50000E-01-1.00000E-01
 -1      1238 7.00000E-01-5.00000E-02-1.00000E-01
 -1      1239 7.00000E-01 1.50000E-01-1.00000E-01
 -1      1240 7.50000E-01-5.00000E-02-1.00000E-01
 -1      1241 7.50000E-01 1.50000E-01-1.00000E-01
 -1      1242 8.00000E-01-5.00000E-02-1.00000E-01
 -1      1243 8.00000E-01 1.50000E-01-1.00000E-01
 -1      1244 8.50000E-01-5.00000E-02-1.00000E-01
 -1      1245 8.50000E-01 1.50000E-01-1.00000E-01
 -1      1246 9.00000E-01-5.00000E-02-1.00000E-01
 -1      1247 9.00000E-01 1.50000E-01-1.00000E-01
 -1      1248 9.50000E-01-5.00000E-02-1.00000E-01
 -1      1249 9.50000E-01 1.50000E-01-1.00000E-01
 -1      1250 1.00000E+00-5.00000E-02-1.00000E-01
 -1      1251 1.00000E+00 1.50000E-01-1.00000E-01
 -1      1252 1.05000E+00-5.00000E-02-1.00000E-01
 -1      1253 1.05000E+00 1.50000E-01-1.00000E-01
 -1      1254 1.10000E+00-5.00000E-02-1.00000E-01
 -1      1255 1.10000E+00 1.50000E-01-1.00000E-01
 -1      1256 1.15000E+00-5.00000E-02-1.00000E-01
 -1      1257 1.15000E+00 1.50000E-01-1.00000E-01
 -1      1258 5.00000E-02-5.00000E-02-8.33333E-02
 -1      1259 5.00000E-02 1.50000E-01-8.33333E-02
 -1      1260 1.00000E-01-5.00000E-02-8.33333E-02
 -1      1261 1.00000E-01 1.50000E-01-8.33333E-02
 -1      1262 1.50000E-01-5.00000E-02-8.33333E-02
 -1      1263 1.50000E-01 1.50000E-01-8.33333E-02
 -1      1264 2.00000E-01-5.00000E-02-8.33333E-02
 -1      1265 2.00000E-01 1.50000E-01-8.33333E-02
 -1      1266 2.50000E-01-5.00000E-02-8.33333E-02
 -1      1267 2.50000E-01 1.50000E-01-8.33333E-02
 -1      1268 3.00000E-01-5.00000E-02-8.33333E-02
 -1      1269 3.00000E-01 1.50000E-01-8.33333E-02
 -1      1270 3.50000E-01-5.00000E-02-8.33333E-02
 -1      1271 3.50000E-01 1.50000E-01-8.33333E-02
 -1      1272 4.00000E-01-5.00000E-02-8.33333E-02
 -1      1273 4.00000E-01 1.50000E-01-8.33333E-02
 -1      1274 4.50000E-01-5.00000E-02-8.33333E-02
 -1      1275 4.50000E-01 1.50000E-01-8.33333E-02
 -1      1276 5.00000E-01-5.00000E-02-8.33333E-02
 -1      1277 5.00000E-01 1.50000E-01-8.33333E-02
 -1      1278 5.50000E-01-5.00000E-02-8.33333E-02
 -1      1279 5.50000E-01 1.50000E-01-8.33333E-02
 -1      1280 6.00000E-01-5.00000E-02-8.33333E-02
 -1      1281 6.00000E-01 1.50000E-01-8.33333E-02
 -1      1282 6.50000E-01-5.00000E-02-8.33333E-02
 -1      1283 6.50000E-01 1.50000E-01-8.33333E-02
 -1      1284 7.00000E-01-5.00000E-02-8.33333E-02
 -1      1285 7.00000E-01 1.50000E-01-8.33333E-02
 -1      1286 7.50000E-01-5.00000E-02-8.33333E-02
 -1      1287 7.50000E-01 1.50000E-01-8.33333E-02
 -1      1288 8.00000E-01-5.00000E-02-8.33333E-02
 -1      1289 8.00000E-01 1.50000E-01-8.33333E-02
 -1      1290 8.50000E-01-5.00000E-02-8.33333E-02
 -1      1291 8.50000E-01 1.50000E-01-8.33333E-02
 -1      1292 9.00000E-01-5.00000E-02-8.33333E-02
 -1      1293 9.00000E-01 1.50000E-01-8.33333E-02
 -1      1294 9.50000E-01-5.00000E-02-8.33333E-02
 -1      1295 9.50000E-01 1.50000E-01-8.33333E-02
 -1      1296 1.00000E+00-5.00000E-02-8.33333E-02
 -1      1297 1.00000E+00 1.50000E-01-8.33333E-02
 -1      1298 1.05000E+00-5.00000E-02-8.33333E-02
 -1      1299 1.05000E+00 1.50000E-01-8.33333E-02
 -1      1300 1.10000E+00-5.00000E-02-8.33333E-02
 -1      1301 1.10000E+00 1.50000E-01-8.33333E-02
 -1      1302 1.15000E+00-5.00000E-02-8.33333E-02
 -1      1303 1.15000E+00 1.50000E-01-8.33333E-02
 -1      1304 5.00000E-02-5.00000E-02-6.66667E-02
 -1      1305 5.00000E-02 1.50000E-01-6.66667E-02
 -1      1306 1.00000E-01-5.00000E-02-6.66667E-02
 -1      1307 1.00000E-01 1.50000E-01-6.66667E-02
 -1      1308 1.50000E-01-5.00000E-02-6.66667E-02
 -1      1309 1.50000E-01 1.50000E-01-6.66667E-02
 -1      1310 2.00000E-01-5.00000E-02-6.66667E-02
 -1      1311 2.00000E-01 1.50000E-01-6.66667E-02
 -1      1312 2.50000E-01-5.00000E-02-6.66667E-02
 -1      1313 2.50000E-01 1.50000E-01-6.66667E-02
 -1      1314 3.00000E-01-5.00000E-02-6.66667E-02
 -1      1315 3.00000E-01 1.50000E-01-6.66667E-02
 -1      1316 3.50000E-01-5.00000E-02-6.66667E-02
 -1      1317 3.50000E-01 1.50000E-01-6.66667E-02
 -1      1318 4.00000E-01-5.00000E-02-6.66667E-02
 -1      1319 4.00000E-01 1.50000E-01-6.66667E-02
 -1      1320 4.50000E-01-5.00000E-02-6.66667E-02
 -1      1321 4.50000E-01 1.50000E-01-6.66667E-02
 -1      1322 5.00000E-01-5.00000E-02-6.66667E-02
 -1      1323 5.00000E-01 1.50000E-01-6.66667E-02
 -1      1324 5.50000E-01-5.00000E-02-6.66667E-02
 -1      1325 5.50000E-01 1.50000E-01-6.66667E-02
 -1      1326 6.00000E-01-5.00000E-02-6.66667E-02
 -1      1327 6.00000E-01 1.50000E-01-6.66667E-02
 -1      1328 6.50000E-01-5.00000E-02-6.66667E-02
 -1      1329 6.50000E-01 1.50000E-01-6.66667E-02
 -1      1330 7.00000E-01-5.00000E-02-6.66667E-02
 -1      1331 7.00000E-01 1.50000E-01-6.66667E-02
 -1      1332 7.50000E-01-5.00000E-02-6.66667E-02
 -1      1333 7.50000E-01 1.50000E-01-6.66667E-02
 -1      1334 8.00000E-01-5.00000E-02-6.66667E-02
 -1      1335 8.00000E-01 1.50000E-01-6.66667E-02
 -1      1336 8.50000E-01-5.00000E-02-6.66667E-02
 -1      1337 8.50000E-01 1.50000E-01-6.66667E-02
 -1      1338 9.00000E-01-5.00000E-02-6.66667E-02
 -1      1339 9.00000E-01 1.50000E-01-6.66667E-02
 -1      1340 9.50000E-01-5.00000E-02-6.66667E-02
 -1      1341 9.50000E-01 1.50000E-01-6.66667E-02
 -1      1342 1.00000E+00-5.00000E-02-6.66667E-02
 -1      1343 1.00000E+00 1.50000E-01-6.66667E-02
 -1      1344 1.05000E+00-5.00000E-02-6.66667E-02
 -1      1345 1.05000E+00 1.50000E-01-6.66667E-02
 -1      1346 1.10000E+00-5.00000E-02-6.66667E-02
 -1      1347 1.10000E+00 1.50000E-01-6.66667E-02
 -1      1348 1.15000E+00-5.00000E-02-6.66667E-02
 -1      1349 1.15000E+00 1.50000E-01-6.66667E-02
 -1      1350 5.00000E-02-5.00000E-02-5.00000E-02
 -1      1351 5.00000E-02 1.50000E-01-5.00000E-02
 -1      1352 1.00000E-01-5.00000E-02-5.00000E-02
 -1      1353 1.00000E-01 1.50000E-01-5.00000E-02
 -1      1354 1.50000E-01-5.00000E-02-5.00000E-02
 -1      1355 1.50000E-01 1.50000E-01-5.00000E-02
 -1      1356 2.00000E-01-5.00000E-02-5.00000E-02
 -1      1357 2.00000E-01 1.50000E-01-5.00000E-02
 -1      1358 2.50000E-01-5.00000E-02-5.00000E-02
 -1      1359 2.50000E-01 1.50000E-01-5.00000E-02
 -1      1360 3.00000E-01-5.00000E-02-5.00000E-02
 -1      1361 3.00000E-01 1.50000E-01-5.00000E-02
 -1      1362 3.50000E-01-5.00000E-02-5.00000E-02
 -1      1363 3.50000E-01 1.50000E-01-5.00000E-02
 -1      1364 4.00000E-01-5.00000E-02-5.00000E-02
 -1      1365 4.00000E-01 1.50000E-01-5.00000E-02
 -1      1366 4.50000E-01-5.00000E-02-5.00000E-02
 -1      1367 4.50000E-01 1.50000E-01-5.00000E-02
 -1      1368 5.00000E-01-5.00000E-02-5.00000E-02
 -1      1369 5.00000E-01 1.50000E-01-5.00000E-02
 -1      1370 5.50000E-01-5.00000E-02-5.00000E-02
 -1      1371 5.50000E-01 1.50000E-01-5.00000E-02
 -1      1372 6.00000E-01-5.00000E-02-5.00000E-02
 -1      1373 6.00000E-01 1.50000E-01-5.00000E-02
 -1      1374 6.50000E-01-5.00000E-02-5.00000E-02
 -1      1375 6.50000E-01 1.50000E-01-5.00000E-02
 -1      1376 7.00000E-01-5.00000E-02-5.00000E-02
 -1      1377 7.00000E-01 1.50000E-01-5.00000E-02
 -1      1378 7.50000E-01-5.00000E-02-5.00000E-02
 -1      1379 7.50000E-01 1.50000E-01-5.00000E-02
 -1      1380 8.00000E-01-5.00000E-02-5.00000E-02
 -1      1381 8.00000E-01 1.50000E-01-5.00000E-02
 -1      1382 8.50000E-01-5.00000E-02-5.00000E-02
 -1      1383 8.50000E-01 1.50000E-01-5.00000E-02
 -1      1384 9.00000E-01-5.00000E-02-5.00000E-02
 -1      1385 9.00000E-01 1.50000E-01-5.00000E-02
 -1      1386 9.50000E-01-5.00000E-02-5.00000E-02
 -1      1387 9.50000E-01 1.50000E-01-5.00000E-02
 -1      1388 1.00000E+00-5.00000E-02-5.00000E-02
 -1      1389 1.00000E+00 1.50000E-01-5.00000E-02
 -1      1390 1.05000E+00-5.00000E-02-5.00000E-02
 -1      1391 1.05000E+00 1.50000E-01-5.00000E-02
 -1      1392 1.10000E+00-5.00000E-02-5.00000E-02
 -1      1393 1.10000E+00 1.50000E-01-5.00000E-02
 -1      1394 1.15000E+00-5.00000E-02-5.00000E-02
 -1      1395 1.15000E+00 1.50000E-01-5.00000E-02
 -1      1396 5.00000E-02-5.00000E-02-3.33333E-02
 -1      1397 5.00000E-02 1.50000E-01-3.33333E-02
 -1      1398 1.00000E-01-5.00000E-02-3.33333E-02
 -1      1399 1.00000E-01 1.50000E-01-3.33333E-02
 -1      1400 1.50000E-01-5.00000E-02-3.33333E-02
 -1      1401 1.50000E-01 1.50000E-01-3.33333E-02
 -1      1402 2.00000E-01-5.00000E-02-3.33333E-02
 -1      1403 2.00000E-01 1.50000E-01-3.33333E-02
 -1      1404 2.50000E-01-5.00000E-02-3.33333E-02
 -1      1405 2.50000E-01 1.50000E-01-3.33333E-02
 -1      1406 3.00000E-01-5.00000E-02-3.33333E-02
 -1      1407 3.00000E-01 1.50000E-01-3.33333E-02
 -1      1408 3.50000E-01-5.00000E-02-3.33333E-02
 -1      1409 3.50000E-01 1.50000E-01-3.33333E-02
 -1      1410 4.00000E-01-5.00000E-02-3.33333E-02
 -1      1411 4.00000E-01 1.50000E-01-3.33333E-02
 -1      1412 4.50000E-01-5.00000E-02-3.33333E-02
 -1      1413 4.50000E-01 1.50000E-01-3.33333E-02
 -1      1414 5.00000E-01-5.00000E-02-3.33333E-02
 -1      1415 5.00000E-01 1.50000E-01-3.33333E-02
 -1      1416 5.50000E-01-5.00000E-02-3.33333E-02
 -1      1417 5.50000E-01 1.50000E-01-3.33333E-02
 -1      1418 6.00000E-01-5.00000E-02-3.33333E-02
 -1      1419 6.00000E-01 1.50000E-01-3.33333E-02
 -1      1420 6.50000E-01-5.00000E-02-3.33333E-02
 -1      1421 6.50000E-01 1.50000E-01-3.33333E-02
 -1      1422 7.00000E-01-5.00000E-02-3.33333E-02
 -1      1423 7.00000E-01 1.50000E-01-3.33333E-02
 -1      1424 7.50000E-01-5.00000E-02-3.33333E-02
 -1      1425 7.50000E-01 1.50000E-01-3.33333E-02
 -1      1426 8.00000E-01-5.00000E-02-3.33333E-02
 -1      1427 8.00000E-01 1.50000E-01-3.33333E-02
 -1      1428 8.50000E-01-5.00000E-02-3.33333E-02
 -1      1429 8.50000E-01 1.50000E-01-3.33333E-02
 -1      1430 9.00000E-01-5.00000E-02-3.33333E-02
 -1      1431 9.00000E-01 1.50000E-01-3.33333E-02
 -1      1432 9.50000E-01-5.00000E-02-3.33333E-02
 -1      1433 9.50000E-01 1.50000E-01-3.33333E-02
 -1      1434 1.00000E+00-5.00000E-02-3.33333E-02
 -1      1435 1.00000E+00 1.50000E-01-3.33333E-02
 -1      1436 1.05000E+00-5.00000E-02-3.33333E-02
 -1      1437 1.05000E+00 1.50000E-01-3.33333E-02
 -1      1438 1.10000E+00-5.00000E-02-3.33333E-02
 -1      1439 1.10000E+00 1.50000E-01-3.33333E-02
 -1      1440 1.15000E+00-5.00000E-02-3.33333E-02
 -1      1441 1.15000E+00 1.50000E-01-3.33333E-02
 -1      1442 5.00000E-02-5.00000E-02-1.66667E-02
 -1      1443 5.00000E-02 1.50000E-01-1.66667E-02
 -1      1444 1.00000E-01-5.00000E-02-1.66667E-02
 -1      1445 1.00000E-01 1.50000E-01-1.66667E-02
 -1      1446 1.50000E-01-5.00000E-02-1.66667E-02
 -1      1447 1.50000E-01 1.50000E-01-1.66667E-02
 -1      1448 2.00000E-01-5.00000E-02-1.66667E-02
 -1      1449 2.00000E-01 1.50000E-01-1.66667E-02
 -1      1450 2.50000E-01-5.00000E-02-1.66667E-02
 -1      1451 2.50000E-01 1.50000E-01-1.66667E-02
 -1      1452 3.00000E-01-5.00000E-02-1.66667E-02
 -1      1453 3.00000E-01 1.50000E-01-1.66667E-02
 -1      1454 3.50000E-01-5.00000E-02-1.66667E-02
 -1      1455 3.50000E-01 1.50000E-01-1.66667E-02
 -1      1456 4.00000E-01-5.00000E-02-1.66667E-02
 -1      1457 4.00000E-01 1.50000E-01-1.66667E-02
 -1      1458 4.50000E-01-5.00000E-02-1.66667E-02
 -1      1459 4.50000E-01 1.50000E-01-1.66667E-02
 -1      1460 5.00000E-01-5.00000E-02-1.66667E-02
 -1      1461 5.00000E-01 1.50000E-01-1.66667E-02
 -1      1462 5.50000E-01-5.00000E-02-1.66667E-02
 -1      1463 5.50000E-01 1.50000E-01-1.66667E-02
 -1      1464 6.00000E-01-5.00000E-02-1.66667E-02
 -1      1465 6.00000E-01 1.50000E-01-1.66667E-02
 -1      1466 6.50000E-01-5.00000E-02-1.66667E-02
 -1      1467 6.50000E-01 1.50000E-01-1.66667E-02
 -1      1468 7.00000E-01-5.00000E-02-1.66667E-02
 -1      1469 7.00000E-01 1.50000E-01-1.66667E-02
 -1      1470 7.50000E-01-5.00000E-02-1.66667E-02
 -1      1471 7.50000E-01 1.50000E-01-1.66667E-02
 -1      1472 8.00000E-01-5.00000E-02-1.66667E-02
 -1      1473 8.00000E-01 1.50000E-01-1.66667E-02
 -1      1474 8.50000E-01-5.00000E-02-1.66667E-02
 -1      1475 8.50000E-01 1.50000E-01-1.66667E-02
 -1      1476 9.00000E-01-5.00000E-02-1.66667E-02
 -1      1477 9.00000E-01 1.50000E-01-1.66667E-02
 -1      1478 9.50000E-01-5.00000E-02-1.66667E-02
 -1      1479 9.50000E-01 1.50000E-01-1.66667E-02
 -1      1480 1.00000E+00-5.00000E-02-1.66667E-02
 -1      1481 1.00000E+00 1.50000E-01-1.66667E-02
 -1      1482 1.05000E+00-5.00000E-02-1.66667E-02
 -1      1483 1.05000E+00 1.50000E-01-1.66667E-02
 -1      1484 1.10000E+00-5.00000E-02-1.66667E-02
 -1      1485 1.10000E+00 1.50000E-01-1.66667E-02
 -1      1486 1.15000E+00-5.00000E-02-1.66667E-02
 -1      1487 1.15000E+00 1.50000E-01-1.66667E-02
 -1      1488 5.00000E-02-5.00000E-02 0.00000E+00
 -1      1489 5.00000E-02 1.50000E-01 0.00000E+00
 -1      1490 1.00000E-01-5.00000E-02 0.00000E+00
 -1      1491 1.00000E-01 1.50000E-01 0.00000E+00
 -1      1492 1.50000E-01-5.00000E-02 0.00000E+00
 -1      1493 1.50000E-01 1.50000E-01 0.00000E+00
 -1      1494 2.00000E-01-5.00000E-02 0.00000E+00
 -1      1495 2.00000E-01 1.50000E-01 0.00000E+00
 -1      1496 2.50000E-01-5.00000E-02 0.00000E+00
 -1      1497 2.50000E-01 1.50000E-01 0.00000E+00
 -1      1498 3.00000E-01-5.00000E-02 0.00000E+00
 -1      1499 3.00000E-01 1.50000E-01 0.00000E+00
 -1      1500 3.50000E-01-5.00000E-02 0.00000E+00
 -1      1501 3.50000E-01 1.50000E-01 0.00000E+00
 -1      1502 4.00000E-01-5.00000E-02 0.00000E+00
 -1      1503 4.00000E-01 1.50000E-01 0.00000E+00
 -1      1504 4.50000E-01-5.00000E-02 0.00000E+00
 -1      1505 4.50000E-01 1.50000E-01 0.00000E+00
 -1      1506 5.00000E-01-5.00000E-02 0.00000E+00
 -1      1507 5.00000E-01 1.50000E-01 0.00000E+00
 -1      1508 5.50000E-01-5.00000E-02 0.00000E+00
 -1      1509 5.50000E-01 1.50000E-01 0.00000E+00
 -1      1510 6.00000E-01-5.00000E-02 0.00000E+00
 -1      1511 6.00000E-01 1.50000E-01 0.00000E+00
 -1      1512 6.50000E-01-5.00000E-02 0.00000E+00
 -1      1513 6.50000E-01 1.50000E-01 0.00000E+00
 -1      1514 7.00000E-01-5.00000E-02 0.00000E+00
 -1      1515 7.00000E-01 1.50000E-01 0.00000E+00
 -1      1516 7.50000E-01-5.00000E-02 0.00000E+00
 -1      1517 7.50000E-01 1.50000E-01 0.00000E+00
 -1      1518 8.00000E-01-5.00000E-02 0.00000E+00
 -1      1519 8.00000E-01 1.50000E-01 0.00000E+00
 -1      1520 8.50000E-01-5.00000E-02 0.00000E+00
 -1      1521 8.50000E-01 1.50000E-01 0.00000E+00
 -1      1522 9.00000E-01-5.00000E-02 0.00000E+00
 -1      1523 9.00000E-01 1.50000E-01 0.00000E+00
 -1      1524 9.50000E-01-5.00000E-02 0.00000E+00
 -1      1525 9.50000E-01 1.50000E-01 0.00000E+00
 -1      1526 1.00000E+00-5.00000E-02 0.00000E+00
 -1      1527 1.00000E+00 1.50000E-01 0.00000E+00
 -1      1528 1.05000E+00-5.00000E-02 0.00000E+00
 -1      1529 1.05000E+00 1.50000E-01 0.00000E+00
 -1      1530 1.10000E+00-5.00000E-02 0.00000E+00
 -1      1531 1.10000E+00 1.50000E-01 0.00000E+00
 -1      1532 1.15000E+00-5.00000E-02 0.00000E+00
 -1      1533 1.15000E+00 1.50000E-01 0.00000E+00
 -1      1534 5.00000E-02-3.33333E-02-1.00000E-01
 -1      1535 5.00000E-02-3.33333E-02 0.00000E+00
 -1      1536 1.00000E-01-3.33333E-02-1.00000E-01
 -1      1537 1.00000E-01-3.33333E-02 0.00000E+00
 -1      1538 1.50000E-01-3.33333E-02-1.00000E-01
 -1      1539 1.50000E-01-3.33333E-02 0.00000E+00
 -1      1540 2.00000E-01-3.33333E-02-1.00000E-01
 -1      1541 2.00000E-01-3.33333E-02 0.00000E+00
 -1      1542 2.50000E-01-3.33333E-02-1.00000E-01
 -1      1543 2.50000E-01-3.33333E-02 0.00000E+00
 -1      1544 3.00000E-01-3.33333E-02-1.00000E-01
 -1      1545 3.00000E-01-3.33333E-02 0.00000E+00
 -1      1546 3.50000E-01-3.33333E-02-1.00000E-01
 -1      1547 3.50000E-01-3.33333E-02 0.00000E+00
 -1      1548 4.00000E-01-3.33333E-02-1.00000E-01
 -1      1549 4.00000E-01-3.33333E-02 0.00000E+00
 -1      1550 4.50000E-01-3.33333E-02-1.00000E-01
 -1      1551 4.50000E-01-3.33333E-02 0.00000E+00
 -1      1552 5.00000E-01-3.33333E-02-1.00000E-01
 -1      1553 5.00000E-01-3.33333E-02 0.00000E+00
 -1      1554 5.50000E-01-3.33333E-02-1.00000E-01
 -1      1555 5.50000E-01-3.33333E-02 0.00000E+00
 -1      1556 6.00000E-01-3.33333E-02-1.00000E-01
 -1      1557 6.00000E-01-3.33333E-02 0.00000E+00
 -1      1558 6.50000E-01-3.33333E-02-1.00000E-01
 -1      1559 6.50000E-01-3.33333E-02 0.00000E+00
 -1      1560 7.00000E-01-3.33333E-02-1.00000E-01
 -1      1561 7.00000E-01-3.33333E-02 0.00000E+00
 -1      1562 7.50000E-01-3.33333E-02-1.00000E-01
 -1      1563 7.50000E-01-3.33333E-02 0.00000E+00
 -1      1564 8.00000E-01-3.33333E-02-1.00000E-01
 -1      1565 8.00000E-01-3.33333E-02 0.00000E+00
 -1      1566 8.50000E-01-3.33333E-02-1.00000E-01
 -1      1567 8.50000E-01-3.33333E-02 0.00000E+00
 -1      1568 9.00000E-01-3.33333E-02-1.00000E-01
 -1      1569 9.00000E-01-3.33333E-02 0.00000E+00
 -1      1570 9.50000E-01-3.33333E-02-1.00000E-01
 -1      1571 9.50000E-01-3.33333E-02 0.00000E+00
 -1      1572 1.00000E+00-3.33333E-02-1.00000E-01
 -1      1573 1.00000E+00-3.33333E-02 0.00000E+00
 -1      1574 1.05000E+00-3.33333E-02-1.00000E-01
 -1      1575 1.05000E+00-3.33333E-02 0.00000E+00
 -1      1576 1.10000E+00-3.33333E-02-1.00000E-01
 -1      1577 1.10000E+00-3.33333E-02 0.00000E+00
 -1      1578 1.15000E+00-3.33333E-02-1.00000E-01
 -1      1579 1.15000E+00-3.33333E-02 0.00000E+00
 -1      1580 5.00000E-02-1.66667E-02-1.00000E-01
 -1      1581 5.00000E-02-1.66667E-02 0.00000E+00
 -1      1582 1.00000E-01-1.66667E-02-1.00000E-01
 -1      1583 1.00000E-01-1.66667E-02 0.00000E+00
 -1      1584 1.50000E-01-1.66667E-02-1.00000E-01
 -1      1585 1.50000E-01-1.66667E-02 0.00000E+00
 -1      1586 2.00000E-01-1.66667E-02-1.00000E-01
 -1      1587 2.00000E-01-1.66667E-02 0.00000E+00
 -1      1588 2.50000E-01-1.66667E-02-1.00000E-01
 -1      1589 2.50000E-01-1.66667E-02 0.00000E+00
 -1      1590 3.00000E-01-1.66667E-02-1.00000E-01
 -1      1591 3.00000E-01-1.66667E-02 0.00000E+00
 -1      1592 3.50000E-01-1.66667E-02-1.00000E-01
 -1      1593 3.50000E-01-1.66667E-02 0.00000E+00
 -1      1594 4.00000E-01-1.66667E-02-1.00000E-01
 -1      1595 4.00000E-01-1.66667E-02 0.00000E+00
 -1      1596 4.50000E-01-1.66667E-02-1.00000E-01
 -1      1597 4.50000E-01-1.66667E-02 0.00000E+00
 -1      1598 5.00000E-01-1.66667E-02-1.00000E-01
 -1      1599 5.00000E-01-1.66667E-02 0.00000E+00
 -1      1600 5.50000E-01-1.66667E-02-1.00000E-01
 -1      1601 5.50000E-01-1.66667E-02 0.00000E+00
 -1      1602 6.00000E-01-1.66667E-02-1.00000E-01
 -1      1603 6.00000E-01-1.66667E-02 0.00000E+00
 -1      1604 6.50000E-01-1.66667E-02-1.00000E-01
 -1      1605 6.50000E-01-1.66667E-02 0.00000E+00
 -1      1606 7.00000E-01-1.66667E-02-1.00000E-01
 -1      1607 7.00000E-01-1.66667E-02 0.00000E+00
 -1      1608 7.50000E-01-1.66667E-02-1.00000E-01
 -1      1609 7.50000E-01-1.66667E-02 0.00000E+00
 -1      1610 8.00000E-01-1.66667E-02-1.00000E-01
 -1      1611 8.00000E-01-1.66667E-02 0.00000E+00
 -1      1612 8.50000E-01-1.66667E-02-1.00000E-01
 -1      1613 8.50000E-01-1.66667E-02 0.00000E+00
 -1      1614 9.00000E-01-1.66667E-02-1.00000E-01
 -1      1615 9.00000E-01-1.66667E-02 0.00000E+00
 -1      1616 9.50000E-01-1.66667E-02-1.00000E-01
 -1      1617 9.50000E-01-1.66667E-02 0.00000E+00
 -1      1618 1.00000E+00-1.66667E-02-1.00000E-01
 -1      1619 1.00000E+00-1.66667E-02 0.00000E+00
 -1      1620 1.05000E+00-1.66667E-02-1.00000E-01
 -1      1621 1.05000E+00-1.66667E-02 0.00000E+00
 -1      1622 1.10000E+00-1.66667E-02-1.00000E-01
 -1      1623 1.10000E+00-1.66667E-02 0.00000E+00
 -1      1624 1.15000E+00-1.66667E-02-1.00000E-01
 -1      1625 1.15000E+00-1.66667E-02 0.00000E+00
 -1      1626 5.00000E-02 2.08167E-17-1.00000E-01
 -1      1627 5.00000E-02 2.08167E-17 0.00000E+00
 -1      1628 1.00000E-01 2.08167E-17-1.00000E-01
 -1      1629 1.00000E-01 2.08167E-17 0.00000E+00
 -1      1630 1.50000E-01 2.08167E-17-1.00000E-01
 -1      1631 1.50000E-01 2.08167E-17 0.00000E+00
 -1      1632 2.00000E-01 2.08167E-17-1.00000E-01
 -1      1633 2.00000E-01 2.08167E-17 0.00000E+00
 -1      1634 2.50000E-01 2.08167E-17-1.00000E-01
 -1      1635 2.50000E-01 2.08167E-17 0.00000E+00
 -1      1636 3.00000E-01 2.08167E-17-1.00000E-01
 -1      1637 3.00000E-01 2.08167E-17 0.00000E+00
 -1      1638 3.50000E-01 2.08167E-17-1.00000E-01
 -1      1639 3.50000E-01 2.08167E-17 0.00000E+00
 -1      1640 4.00000E-01 2.08167E-17-1.00000E-01
 -1      1641 4.00000E-01 2.08167E-17 0.00000E+00
 -1      1642 4.50000E-01 2.08167E-17-1.00000E-01
 -1      1643 4.50000E-01 2.08167E-17 0.00000E+00
 -1      1644 5.00000E-01 2.08167E-17-1.00000E-01
 -1      1645 5.00000E-01 2.08167E-17 0.00000E+00
 -1      1646 5.50000E-01 2.08167E-17-1.00000E-01
 -1      1647 5.50000E-01 2.08167E-17 0.00000E+00
 -1      1648 6.00000E-01 2.08167E-17-1.00000E-01
 -1      1649 6.00000E-01 2.08167E-17 0.00000E+00
 -1      1650 6.50000E-01 2.08167E-17-1.00000E-01
 -1      1651 6.50000E-01 2.08167E-17 0.00000E+00
 -1      1652 7.00000E-01 2.08167E-17-1.00000E-01
 -1      1653 7.00000E-01 2.08167E-17 0.00000E+00
 -1      1654 7.50000E-01 2.08167E-17-1.00000E-01
 -1      1655 7.50000E-01 2.08167E-17 0.00000E+00
 -1      1656 8.00000E-01 2.08167E-17-1.00000E-01
 -1      1657 8.00000E-01 2.08167E-17 0.00000E+00
 -1      1658 8.50000E-01 2.08167E-17-1.00000E-01
 -1      1659 8.50000E-01 2.08167E-17 0.00000E+00
 -1      1660 9.00000E-01 2.08167E-17-1.00000E-01
 -1      1661 9.00000E-01 2.08167E-17 0.00000E+00
 -1      1662 9.50000E-01 2.08167E-17-1.00000E-01
 -1      1663 9.50000E-01 2.08167E-17 0.00000E+00
 -1      1664 1.00000E+00 2.08167E-17-1.00000E-01
 -1      1665 1.00000E+00 2.08167E-17 0.00000E+00
 -1      1666 1.05000E+00 2.08167E-17-1.00000E-01
 -1      1667 1.05000E+00 2.08167E-17 0.00000E+00
 -1      1668 1.10000E+00 2.08167E-17-1.00000E-01
 -1      1669 1.10000E+00 2.08167E-17 0.00000E+00
 -1      1670 1.15000E+00 2.08167E-17-1.00000E-01
 -1      1671 1.15000E+00 2.08167E-17 0.00000E+00
 -1      1672 5.00000E-02 1.66667E-02-1.00000E-01
 -1      1673 5.00000E-02 1.66667E-02 0.00000E+00
 -1      1674 1.00000E-01 1.66667E-02-1.00000E-01
 -1      1675 1.00000E-01 1.66667E-02 0.00000E+00
 -1      1676 1.50000E-01 1.66667E-02-1.00000E-01
 -1      1677 1.50000E-01 1.66667E-02 0.00000E+00
 -1      1678 2.00000E-01 1.66667E-02-1.00000E-01
 -1      1679 2.00000E-01 1.66667E-02 0.00000E+00
 -1      1680 2.50000E-01 1.66667E-02-1.00000E-01
 -1      1681 2.50000E-01 1.66667E-02 0.00000E+00
 -1      1682 3.00000E-01 1.66667E-02-1.00000E-01
 -1      1683 3.00000E-01 1.66667E-02 0.00000E+00
 -1      1684 3.50000E-01 1.66667E-02-1.00000E-01
 -1      1685 3.50000E-01 1.66667E-02 0.00000E+00
 -1      1686 4.00000E-01 1.66667E-02-1.00000E-01
 -1      1687 4.00000E-01 1.66667E-02 0.00000E+00
 -1      1688 4.50000E-01 1.66667E-02-1.00000E-01
 -1      1689 4.50000E-01 1.66667E-02 0.00000E+00
 -1      1690 5.00000E-01 1.66667E-02-1.00000E-01
 -1      1691 5.00000E-01 1.66667E-02 0.00000E+00
 -1      1692 5.50000E-01 1.66667E-02-1.00000E-01
 -1      1693 5.50000E-01 1.66667E-02 0.00000E+00
 -1      1694 6.00000E-01 1.66667E-02-1.00000E-01
 -1      1695 6.00000E-01 1.66667E-02 0.00000E+00
 -1      1696 6.50000E-01 1.66667E-02-1.00000E-01
 -1      1697 6.50000E-01 1.66667E-02 0.00000E+00
 -1      1698 7.00000E-01 1.66667E-02-1.00000E-01
 -1      1699 7.00000E-01 1.66667E-02 0.00000E+00
 -1      1700 7.50000E-01 1.66667E-02-1.00000E-01
 -1      1701 7.50000E-01 1.66667E-02 0.00000E+00
 -1      1702 8.00000E-01 1.66667E-02-1.00000E-01
 -1      1703 8.00000E-01 1.66667E-02 0.00000E+00
 -1      1704 8.50000E-01 1.66667E-02-1.00000E-01
 -1      1705 8.50000E-01 1.66667E-02 0.00000E+00
 -1      1706 9.00000E-01 1.66667E-02-1.00000E-01
 -1      1707 9.00000E-01 1.66667E-02 0.00000E+00
 -1      1708 9.50000E-01 1.66667E-02-1.00000E-01
 -1      1709 9.50000E-01 1.66667E-02 0.00000E+00
 -1      1710 1.00000E+00 1.66667E-02-1.00000E-01
 -1      1711 1.00000E+00 1.66667E-02 0.00000E+00
 -1      1712 1.05000E+00 1.66667E-02-1.00000E-01
 -1      1713 1.05000E+00 1.66667E-02 0.00000E+00
 -1      1714 1.10000E+00 1.66667E-02-1.00000E-01
 -1      1715 1.10000E+00 1.66667E-02 0.00000E+00
 -1      1716 1.15000E+00 1.66667E-02-1.00000E-01
 -1      1717 1.15000E+00 1.66667E-02 0.00000E+00
 -1      1718 5.00000E-02 3.33333E-02-1.00000E-01
 -1      1719 5.00000E-02 3.33333E-02 0.00000E+00
 -1      1720 1.00000E-01 3.33333E-02-1.00000E-01
 -1      1721 1.00000E-01 3.33333E-02 0.00000E+00
 -1      1722 1.50000E-01 3.33333E-02-1.00000E-01
 -1      1723 1.50000E-01 3.33333E-02 0.00000E+00
 -1      1724 2.00000E-01 3.33333E-02-1.00000E-01
 -1      1725 2.00000E-01 3.33333E-02 0.00000E+00
 -1      1726 2.50000E-01 3.33333E-02-1.00000E-01
 -1      1727 2.50000E-01 3.33333E-02 0.00000E+00
 -1      1728 3.00000E-01 3.33333E-02-1.00000E-01
 -1      1729 3.00000E-01 3.33333E-02 0.00000E+00
 -1      1730 3.50000E-01 3.33333E-02-1.00000E-01
 -1      1731 3.50000E-01 3.33333E-02 0.00000E+00
 -1      1732 4.00000E-01 3.33333E-02-1.00000E-01
 -1      1733 4.00000E-01 3.33333E-02 0.00000E+00
 -1      1734 4.50000E-01 3.33333E-02-1.00000E-01
 -1      1735 4.50000E-01 3.33333E-02 0.00000E+00
 -1      1736 5.00000E-01 3.33333E-02-1.00000E-01
 -1      1737 5.00000E-01 3.33333E-02 0.00000E+00
 -1      1738 5.50000E-01 3.33333E-02-1.00000E-01
 -1      1739 5.50000E-01 3.33333E-02 0.00000E+00
 -1      1740 6.00000E-01 3.33333E-02-1.00000E-01
 -1      1741 6.00000E-01 3.33333E-02 0.00000E+00
 -1      1742 6.50000E-01 3.33333E-02-1.00000E-01
 -1      1743 6.50000E-01 3.33333E-02 0.00000E+00
 -1      1744 7.00000E-01 3.33333E-02-1.00000E-01
 -1      1745 7.00000E-01 3.33333E-02 0.00000E+00
 -1      1746 7.50000E-01 3.33333E-02-1.00000E-01
 -1      1747 7.50000E-01 3.33333E-02 0.00000E+00
 -1      1748 8.00000E-01 3.33333E-02-1.00000E-01
 -1      1749 8.00000E-01 3.33333E-02 0.00000E+00
 -1      1750 8.50000E-01 3.33333E-02-1.00000E-01
 -1      1751 8.50000E-01 3.33333E-02 0.00000E+00
 -1      1752 9.00000E-01 3.33333E-02-1.00000E-01
 -1      1753 9.00000E-01 3.33333E-02 0.00000E+00
 -1      1754 9.50000E-01 3.33333E-02-1.00000E-01
 -1      1755 9.50000E-01 3.33333E-02 0.00000E+00
 -1      1756 1.00000E+00 3.33333E-02-1.00000E-01
 -1      1757 1.00000E+00 3.33333E-02 0.00000E+00
 -1      1758 1.05000E+00 3.33333E-02-1.00000E-01
 -1      1759 1.05000E+00 3.33333E-02 0.00000E+00
 -1      1760 1.10000E+00 3.33333E-02-1.00000E-01
 -1      1761 1.10000E+00 3.33333E-02 0.00000E+00
 -1      1762 1.15000E+00 3.33333E-02-1.00000E-01
 -1      1763 1.15000E+00 3.33333E-02 0.00000E+00
 -1      1764 5.00000E-02 5.00000E-02-1.00000E-01
 -1      1765 5.00000E-02 5.00000E-02 0.00000E+00
 -1      1766 1.00000E-01 5.00000E-02-1.00000E-01
 -1      1767 1.00000E-01 5.00000E-02 0.00000E+00
 -1      1768 1.50000E-01 5.00000E-02-1.00000E-01
 -1      1769 1.50000E-01 5.00000E-02 0.00000E+00
 -1      1770 2.00000E-01 5.00000E-02-1.00000E-01
 -1      1771 2.00000E-01 5.00000E-02 0.00000E+00
 -1      1772 2.50000E-01 5.00000E-02-1.00000E-01
 -1      1773 2.50000E-01 5.00000E-02 0.00000E+00
 -1      1774 3.00000E-01 5.00000E-02-1.00000E-01
 -1      1775 3.00000E-01 5.00000E-02 0.00000E+00
 -1      1776 3.50000E-01 5.00000E-02-1.00000E-01
 -1      1777 3.50000E-01 5.00000E-02 0.00000E+00
 -1      1778 4.00000E-01 5.00000E-02-1.00000E-01
 -1      1779 4.00000E-01 5.00000E-02 0.00000E+00
 -1      1780 4.50000E-01 5.00000E-02-1.00000E-01
 -1      1781 4.50000E-01 5.00000E-02 0.00000E+00
 -1      1782 5.00000E-01 5.00000E-02-1.00000E-01
 -1      1783 5.00000E-01 5.00000E-02 0.00000E+00
 -1      1784 5.50000E-01 5.00000E-02-1.00000E-01
 -1      1785 5.50000E-01 5.00000E-02 0.00000E+00
 -1      1786 6.00000E-01 5.00000E-02-1.00000E-01
 -1      1787 6.00000E-01 5.00000E-02 0.00000E+00
 -1      1788 6.50000E-01 5.00000E-02-1.00000E-01
 -1      1789 6.50000E-01 5.00000E-02 0.00000E+00
 -1      1790 7.00000E-01 5.00000E-02-1.00000E-01
 -1      1791 7.00000E-01 5.00000E-02 0.00000E+00
 -1      1792 7.50000E-01 5.00000E-02-1.00000E-01
 -1      1793 7.50000E-01 5.00000E-02 0.00000E+00
 -1      1794 8.00000E-01 5.00000E-02-1.00000E-01
 -1      1795 8.00000E-01 5.00000E-02 0.00000E+00
 -1      1796 8.50000E-01 5.00000E-02-1.00000E-01
 -1      1797 8.50000E-01 5.00000E-02 0.00000E+00
 -1      1798 9.00000E-01 5.00000E-02-1.00000E-01
 -1      1799 9.00000E-01 5.00000E-02 0.00000E+00
 -1      1800 9.50000E-01 5.00000E-02-1.00000E-01
 -1      1801 9.50000E-01 5.00000E-02 0.00000E+00
 -1      1802 1.00000E+00 5.00000E-02-1.00000E-01
 -1      1803 1.00000E+00 5.00000E-02 0.00000E+00
 -1      1804 1.05000E+00 5.00000E-02-1.00000E-01
 -1      1805 1.05000E+00 5.00000E-02 0.00000E+00
 -1      1806 1.10000E+00 5.00000E-02-1.00000E-01
 -1      1807 1.10000E+00 5.00000E-02 0.00000E+00
 -1      1808 1.15000E+00 5.00000E-02-1.00000E-01
 -1      1809 1.15000E+00 5.00000E-02 0.00000E+00
 -1      1810 5.00000E-02 6.66667E-02-1.00000E-01
 -1      1811 5.00000E-02 6.66667E-02 0.00000E+00
 -1      1812 1.00000E-01 6.66667E-02-1.00000E-01
 -1      1813 1.00000E-01 6.66667E-02 0.00000E+00
 -1      1814 1.50000E-01 6.66667E-02-1.00000E-01
 -1      1815 1.50000E-01 6.66667E-02 0.00000E+00
 -1      1816 2.00000E-01 6.66667E-02-1.00000E-01
 -1      1817 2.00000E-01 6.66667E-02 0.00000E+00
 -1      1818 2.50000E-01 6.66667E-02-1.00000E-01
 -1      1819 2.50000E-01 6.66667E-02 0.00000E+00
 -1      1820 3.00000E-01 6.66667E-02-1.00000E-01
 -1      1821 3.00000E-01 6.66667E-02 0.00000E+00
 -1      1822 3.50000E-01 6.66667E-02-1.00000E-01
 -1      1823 3.50000E-01 6.66667E-02 0.00000E+00
 -1      1824 4.00000E-01 6.66667E-02-1.00000E-01
 -1      1825 4.00000E-01 6.66667E-02 0.00000E+00
 -1      1826 4.50000E-01 6.66667E-02-1.00000E-01
 -1      1827 4.50000E-01 6.66667E-02 0.00000E+00
 -1      1828 5.00000E-01 6.66667E-02-1.00000E-01
 -1      1829 5.00000E-01 6.66667E-02 0.00000E+00
 -1      1830 5.50000E-01 6.66667E-02-1.00000E-01
 -1      1831 5.50000E-01 6.66667E-02 0.00000E+00
 -1      1832 6.00000E-01 6.66667E-02-1.00000E-01
 -1      1833 6.00000E-01 6.66667E-02 0.00000E+00
 -1      1834 6.50000E-01 6.66667E-02-1.00000E-01
 -1      1835 6.50000E-01 6.66667E-02 0.00000E+00
 -1      1836 7.00000E-01 6.66667E-02-1.00000E-01
 -1      1837 7.00000E-01 6.66667E-02 0.00000E+00
 -1      1838 7.50000E-01 6.66667E-02-1.00000E-01
 -1      1839 7.50000E-01 6.66667E-02 0.00000E+00
 -1      1840 8.00000E-01 6.66667E-02-1.00000E-01
 -1      1841 8.00000E-01 6.66667E-02 0.00000E+00
 -1      1842 8.50000E-01 6.66667E-02-1.00000E-01
 -1      1843 8.50000E-01 6.66667E-02 0.00000E+00
 -1      1844 9.00000E-01 6.66667E-02-1.00000E-01
 -1      1845 9.00000E-01 6.66667E-02 0.00000E+00
 -1      1846 9.50000E-01 6.66667E-02-1.00000E-01
 -1      1847 9.50000E-01 6.66667E-02 0.00000E+00
 -1      1848 1.00000E+00 6.66667E-02-1.00000E-01
 -1      1849 1.00000E+00 6.66667E-02 0.00000E+00
 -1      1850 1.05000E+00 6.66667E-02-1.00000E-01
 -1      1851 1.05000E+00 6.66667E-02 0.00000E+00
 -1      1852 1.10000E+00 6.66667E-02-1.00000E-01
 -1      1853 1.10000E+00 6.66667E-02 0.00000E+00
 -1      1854 1.15000E+00 6.66667E-02-1.00000E-01
 -1      1855 1.15000E+00 6.66667E-02 0.00000E+00
 -1      1856 5.00000E-02 8.33333E-02-1.00000E-01
 -1      1857 5.00000E-02 8.33333E-02 0.00000E+00
 -1      1858 1.00000E-01 8.33333E-02-1.00000E-01
 -1      1859 1.00000E-01 8.33333E-02 0.00000E+00
 -1      1860 1.50000E-01 8.33333E-02-1.00000E-01
 -1      1861 1.50000E-01 8.33333E-02 0.00000E+00
 -1      1862 2.00000E-01 8.33333E-02-1.00000E-01
 -1      1863 2.00000E-01 8.33333E-02 0.00000E+00
 -1      1864 2.50000E-01 8.33333E-02-1.00000E-01
 -1      1865 2.50000E-01 8.33333E-02 0.00000E+00
 -1      1866 3.00000E-01 8.33333E-02-1.00000E-01
 -1      1867 3.00000E-01 8.33333E-02 0.00000E+00
 -1      1868 3.50000E-01 8.33333E-02-1.00000E-01
 -1      1869 3.50000E-01 8.33333E-02 0.00000E+00
 -1      1870 4.00000E-01 8.33333E-02-1.00000E-01
 -1      1871 4.00000E-01 8.33333E-02 0.00000E+00
 -1      1872 4.50000E-01 8.33333E-02-1.00000E-01
 -1      1873 4.50000E-01 8.33333E-02 0.00000E+00
 -1      1874 5.00000E-01 8.33333E-02-1.00000E-01
 -1      1875 5.00000E-01 8.33333E-02 0.00000E+00
 -1      1876 5.50000E-01 8.33333E-02-1.00000E-01
 -1      1877 5.50000E-01 8.33333E-02 0.00000E+00
 -1      1878 6.00000E-01 8.33333E-02-1.00000E-01
 -1      1879 6.00000E-01 8.33333E-02 0.00000E+00
 -1      1880 6.50000E-01 8.33333E-02-1.00000E-01
 -1      1881 6.50000E-01 8.33333E-02 0.00000E+00
 -1      1882 7.00000E-01 8.33333E-02-1.00000E-01
 -1      1883 7.00000E-01 8.33333E-02 0.00000E+00
 -1      1884 7.50000E-01 8.33333E-02-1.00000E-01
 -1      1885 7.50000E-01 8.33333E-02 0.00000E+00
 -1      1886 8.00000E-01 8.33333E-02-1.00000E-01
 -1      1887 8.00000E-01 8.33333E-02 0.00000E+00
 -1      1888 8.50000E-01 8.33333E-02-1.00000E-01
 -1      1889 8.50000E-01 8.33333E-02 0.00000E+00
 -1      1890 9.00000E-01 8.33333E-02-1.00000E-01
 -1      1891 9.00000E-01 8.33333E-02 0.00000E+00
 -1      1892 9.50000E-01 8.33333E-02-1.00000E-01
 -1      1893 9.50000E-01 8.33333E-02 0.00000E+00
 -1      1894 1.00000E+00 8.33333E-02-1.00000E-01
 -1      1895 1.00000E+00 8.33333E-02 0.00000E+00
 -1      1896 1.05000E+00 8.33333E-02-1.00000E-01
 -1      1897 1.05000E+00 8.33333E-02 0.00000E+00
 -1      1898 1.10000E+00 8.33333E-02-1.00000E-01
 -1      1899 1.10000E+00 8.33333E-02 0.00000E+00
 -1      1900 1.15000E+00 8.33333E-02-1.00000E-01
 -1      1901 1.15000E+00 8.33333E-02 0.00000E+00
 -1      1902 5.00000E-02 1.00000E-01-1.00000E-01
 -1      1903 5.00000E-02 1.00000E-01 0.00000E+00
 -1      1904 1.00000E-01 1.00000E-01-1.00000E-01
 -1      1905 1.00000E-01 1.00000E-01 0.00000E+00
 -1      1906 1.50000E-01 1.00000E-01-1.00000E-01
 -1      1907 1.50000E-01 1.00000E-01 0.00000E+00
 -1      1908 2.00000E-01 1.00000E-01-1.00000E-01
 -1      1909 2.00000E-01 1.00000E-01 0.00000E+00
 -1      1910 2.50000E-01 1.00000E-01-1.00000E-01
 -1      1911 2.50000E-01 1.00000E-01 0.00000E+00
 -1      1912 3.00000E-01 1.00000E-01-1.00000E-01
 -1      1913 3.00000E-01 1.00000E-01 0.00000E+00
 -1      1914 3.50000E-01 1.00000E-01-1.00000E-01
 -1      1915 3.50000E-01 1.00000E-01 0.00000E+00
 -1      1916 4.00000E-01 1.00000E-01-1.00000E-01
 -1      1917 4.00000E-01 1.00000E-01 0.00000E+00
 -1      1918 4.50000E-01 1.00000E-01-1.00000E-01
 -1      1919 4.50000E-01 1.00000E-01 0.00000E+00
 -1      1920 5.00000E-01 1.00000E-01-1.00000E-01
 -1      1921 5.00000E-01 1.00000E-01 0.00000E+00
 -1      1922 5.50000E-01 1.00000E-01-1.00000E-01
 -1      1923 5.50000E-01 1.00000E-01 0.00000E+00
 -1      1924 6.00000E-01 1.00000E-01-1.00000E-01
 -1      1925 6.00000E-01 1.00000E-01 0.00000E+00
 -1      1926 6.50000E-01 1.00000E-01-1.00000E-01
 -1      1927 6.50000E-01 1.00000E-01 0.00000E+00
 -1      1928 7.00000E-01 1.00000E-01-1.00000E-01
 -1      1929 7.00000E-01 1.00000E-01 0.00000E+00
 -1      1930 7.50000E-01 1.00000E-01-1.00000E-01
 -1      1931 7.50000E-01 1.00000E-01 0.00000E+00
 -1      1932 8.00000E-01 1.00000E-01-1.00000E-01
 -1      1933 8.00000E-01 1.00000E-01 0.00000E+00
 -1      1934 8.50000E-01 1.00000E-01-1.00000E-01
 -1      1935 8.50000E-01 1.00000E-01 0.00000E+00
 -1      1936 9.00000E-01 1.00000E-01-1.00000E-01
 -1      1937 9.00000E-01 1.00000E-01 0.00000E+00
 -1      1938 9.50000E-01 1.00000E-01-1.00000E-01
 -1      1939 9.50000E-01 1.00000E-01 0.00000E+00
 -1      1940 1.00000E+00 1.00000E-01-1.00000E-01
 -1      1941 1.00000E+00 1.00000E-01 0.00000E+00
 -1      1942 1.05000E+00 1.00000E-01-1.00000E-01
 -1      1943 1.05000E+00 1.00000E-01 0.00000E+00
 -1      1944 1.10000E+00 1.00000E-01-1.00000E-01
 -1      1945 1.10000E+00 1.00000E-01 0.00000E+00
 -1      1946 1.15000E+00 1.00000E-01-1.00000E-01
 -1      1947 1.15000E+00 1.00000E-01 0.00000E+00
 -1      1948 5.00000E-02 1.16667E-01-1.00000E-01
 -1      1949 5.00000E-02 1.16667E-01 0.00000E+00
 -1      1950 1.00000E-01 1.16667E-01-1.00000E-01
 -1      1951 1.00000E-01 1.16667E-01 0.00000E+00
 -1      1952 1.50000E-01 1.16667E-01-1.00000E-01
 -1      1953 1.50000E-01 1.16667E-01 0.00000E+00
 -1      1954 2.00000E-01 1.16667E-01-1.00000E-01
 -1      1955 2.00000E-01 1.16667E-01 0.00000E+00
 -1      1956 2.50000E-01 1.16667E-01-1.00000E-01
 -1      1957 2.50000E-01 1.16667E-01 0.00000E+00
 -1      1958 3.00000E-01 1.16667E-01-1.00000E-01
 -1      1959 3.00000E-01 1.16667E-01 0.00000E+00
 -1      1960 3.50000E-01 1.16667E-01-1.00000E-01
 -1      1961 3.50000E-01 1.16667E-01 0.00000E+00
 -1      1962 4.00000E-01 1.16667E-01-1.00000E-01
 -1      1963 4.00000E-01 1.16667E-01 0.00000E+00
 -1      1964 4.50000E-01 1.16667E-01-1.00000E-01
 -1      1965 4.50000E-01 1.16667E-01 0.00000E+00
 -1      1966 5.00000E-01 1.16667E-01-1.00000E-01
 -1      1967 5.00000E-01 1.16667E-01 0.00000E+00
 -1      1968 5.50000E-01 1.16667E-01-1.00000E-01
 -1      1969 5.50000E-01 1.16667E-01 0.00000E+00
 -1      1970 6.00000E-01 1.16667E-01-1.00000E-01
 -1      1971 6.00000E-01 1.16667E-01 0.00000E+00
 -1      1972 6.50000E-01 1.16667E-01-1.00000E-01
 -1      1973 6.50000E-01 1.16667E-01 0.00000E+00
 -1      1974 7.00000E-01 1.16667E-01-1.00000E-01
 -1      1975 7.00000E-01 1.16667E-01 0.00000E+00
 -1      1976 7.50000E-01 1.16667E-01-1.00000E-01
 -1      1977 7.50000E-01 1.16667E-01 0.00000E+00
 -1      1978 8.00000E-01 1.16667E-01-1.00000E-01
 -1      1979 8.00000E-01 1.16667E-01 0.00000E+00
 -1      1980 8.50000E-01 1.16667E-01-1.00000E-01
 -1      1981 8.50000E-01 1.16667E-01 0.00000E+00
 -1      1982 9.00000E-01 1.16667E-01-1.00000E-01
 -1      1983 9.00000E-01 1.16667E-01 0.00000E+00
 -1      1984 9.50000E-01 1.16667E-01-1.00000E-01
 -1      1985 9.50000E-01 1.16667E-01 0.00000E+00
 -1      1986 1.00000E+00 1.16667E-01-1.00000E-01
 -1      1987 1.00000E+00 1.16667E-01 0.00000E+00
 -1      1988 1.05000E+00 1.16667E-01-1.00000E-01
 -1      1989 1.05000E+00 1.16667E-01 0.00000E+00
 -1      1990 1.10000E+00 1.16667E-01-1.00000E-01
 -1      1991 1.10000E+00 1.16667E-01 0.00000E+00
 -1      1992 1.15000E+00 1.16667E-01-1.00000E-01
 -1      1993 1.15000E+00 1.16667E-01 0.00000E+00
 -1      1994 5.00000E-02 1.33333E-01-1.00000E-01
 -1      1995 5.00000E-02 1.33333E-01 0.00000E+00
 -1      1996 1.00000E-01 1.33333E-01-1.00000E-01
 -1      1997 1.00000E-01 1.33333E-01 0.00000E+00
 -1      1998 1.50000E-01 1.33333E-01-1.00000E-01
 -1      1999 1.50000E-01 1.33333E-01 0.00000E+00
 -1      2000 2.00000E-01 1.33333E-01-1.00000E-01
 -1      2001 2.00000E-01 1.33333E-01 0.00000E+00
 -1      2002 2.50000E-01 1.33333E-01-1.00000E-01
 -1      2003 2.50000E-01 1.33333E-01 0.00000E+00
 -1      2004 3.00000E-01 1.33333E-01-1.00000E-01
 -1      2005 3.00000E-01 1.33333E-01 0.00000E+00
 -1      2006 3.50000E-01 1.33333E-01-1.00000E-01
 -1      2007 3.50000E-01 1.33333E-01 0.00000E+00
 -1      2008 4.00000E-01 1.33333E-01-1.00000E-01
 -1      2009 4.00000E-01 1.33333E-01 0.00000E+00
 -1      2010 4.50000E-01 1.33333E-01-1.00000E-01
 -1      2011 4.50000E-01 1.33333E-01 0.00000E+00
 -1      2012 5.00000E-01 1.33333E-01-1.00000E-01
 -1      2013 5.00000E-01 1.33333E-01 0.00000E+00
 -1      2014 5.50000E-01 1.33333E-01-1.00000E-01
 -1      2015 5.50000E-01 1.33333E-01 0.00000E+00
 -1      2016 6.00000E-01 1.33333E-01-1.00000E-01
 -1      2017 6.00000E-01 1.33333E-01 0.00000E+00
 -1      2018 6.50000E-01 1.33333E-01-1.00000E-01
 -1      2019 6.50000E-01 1.33333E-01 0.00000E+00
 -1      2020 7.00000E-01 1.33333E-01-1.00000E-01
 -1      2021 7.00000E-01 1.33333E-01 0.00000E+00
 -1      2022 7.50000E-01 1.33333E-01-1.00000E-01
 -1      2023 7.50000E-01 1.33333E-01 0.00000E+00
 -1      2024 8.00000E-01 1.33333E-01-1.00000E-01
 -1      2025 8.00000E-01 1.33333E-01 0.00000E+00
 -1      2026 8.50000E-01 1.33333E-01-1.00000E-01
 -1      2027 8.50000E-01 1.33333E-01 0.00000E+00
 -1      2028 9.00000E-01 1.33333E-01-1.00000E-01
 -1      2029 9.00000E-01 1.33333E-01 0.00000E+00
 -1      2030 9.50000E-01 1.33333E-01-1.00000E-01
 -1      2031 9.50000E-01 1.33333E-01 0.00000E+00
 -1      2032 1.00000E+00 1.33333E-01-1.00000E-01
 -1      2033 1.00000E+00 1.33333E-01 0.00000E+00
 -1      2034 1.05000E+00 1.33333E-01-1.00000E-01
 -1      2035 1.05000E+00 1.33333E-01 0.00000E+00
 -1      2036 1.10000E+00 1.33333E-01-1.00000E-01
 -1      2037 1.10000E+00 1.33333E-01 0.00000E+00
 -1      2038 1.15000E+00 1.33333E-01-1.00000E-01
 -1      2039 1.15000E+00 1.33333E-01 0.00000E+00
 -1      2040 5.00000E-02-3.33333E-02-8.33333E-02
 -1      2041 1.00000E-01-3.33333E-02-8.33333E-02
 -1      2042 1.50000E-01-3.33333E-02-8.33333E-02
 -1      2043 2.00000E-01-3.33333E-02-8.33333E-02
 -1      2044 2.50000E-01-3.33333E-02-8.33333E-02
 -1      2045 3.00000E-01-3.33333E-02-8.33333E-02
 -1      2046 3.50000E-01-3.33333E-02-8.33333E-02
 -1      2047 4.00000E-01-3.33333E-02-8.33333E-02
 -1      2048 4.50000E-01-3.33333E-02-8.33333E-02
 -1      2049 5.00000E-01-3.33333E-02-8.33333E-02
 -1      2050 5.50000E-01-3.33333E-02-8.33333E-02
 -1      2051 6.00000E-01-3.33333E-02-8.33333E-02
 -1      2052 6.50000E-01-3.33333E-02-8.33333E-02
 -1      2053 7.00000E-01-3.33333E-02-8.33333E-02
 -1      2054 7.50000E-01-3.33333E-02-8.33333E-02
 -1      2055 8.00000E-01-3.33333E-02-8.33333E-02
 -1      2056 8.50000E-01-3.33333E-02-8.33333E-02
 -1      2057 9.00000E-01-3.33333E-02-8.33333E-02
 -1      2058 9.50000E-01-3.33333E-02-8.33333E-02
 -1      2059 1.00000E+00-3.33333E-02-8.33333E-02
 -1      2060 1.05000E+00-3.33333E-02-8.33333E-02
 -1      2061 1.10000E+00-3.33333E-02-8.33333E-02
 -1      2062 1.15000E+00-3.33333E-02-8.33333E-02
 -1      2063 5.00000E-02-1.66667E-02-8.33333E-02
 -1      2064 1.00000E-01-1.66667E-02-8.33333E-02
 -1      2065 1.50000E-01-1.66667E-02-8.33333E-02
 -1      2066 2.00000E-01-1.66667E-02-8.33333E-02
 -1      2067 2.50000E-01-1.66667E-02-8.33333E-02
 -1      2068 3.00000E-01-1.66667E-02-8.33333E-02
 -1      2069 3.50000E-01-1.66667E-02-8.33333E-02
 -1      2070 4.00000E-01-1.66667E-02-8.33333E-02
 -1      2071 4.50000E-01-1.66667E-02-8.33333E-02
 -1      2072 5.00000E-01-1.66667E-02-8.33333E-02
 -1      2073 5.50000E-01-1.66667E-02-8.33333E-02
 -1      2074 6.00000E-01-1.66667E-02-8.33333E-02
 -1      2075 6.50000E-01-1.66667E-02-8.33333E-02
 -1      2076 7.00000E-01-1.66667E-02-8.33333E-02
 -1      2077 7.50000E-01-1.66667E-02-8.33333E-02
 -1      2078 8.00000E-01-1.66667E-02-8.33333E-02
 -1      2079 8.50000E-01-1.66667E-02-8.33333E-02
 -1      2080 9.00000E-01-1.66667E-02-8.33333E-02
 -1      2081 9.50000E-01-1.66667E-02-8.33333E-02
 -1      2082 1.00000E+00-1.66667E-02-8.33333E-02
 -1      2083 1.05000E+00-1.66667E-02-8.33333E-02
 -1      2084 1.10000E+00-1.66667E-02-8.33333E-02
 -1      2085 1.15000E+00-1.66667E-02-8.33333E-02
 -1      2086 5.00000E-02 2.08167E-17-8.33333E-02
 -1      2087 1.00000E-01 2.08167E-17-8.33333E-02
 -1      2088 1.50000E-01 2.08167E-17-8.33333E-02
 -1      2089 2.00000E-01 2.08167E-17-8.33333E-02
 -1      2090 2.50000E-01 2.08167E-17-8.33333E-02
 -1      2091 3.00000E-01 2.08167E-17-8.33333E-02
 -1      2092 3.50000E-01 2.08167E-17-8.33333E-02
 -1      2093 4.00000E-01 2.08167E-17-8.33333E-02
 -1      2094 4.50000E-01 2.08167E-17-8.33333E-02
 -1      2095 5.00000E-01 2.08167E-17-8.33333E-02
 -1      2096 5.50000E-01 2.08167E-17-8.33333E-02
 -1      2097 6.00000E-01 2.08167E-17-8.33333E-02
 -1      2098 6.50000E-01 2.08167E-17-8.33333E-02
 -1      2099 7.00000E-01 2.08167E-17-8.33333E-02
 -1      2100 7.50000E-01 2.08167E-17-8.33333E-02
 -1      2101 8.00000E-01 2.08167E-17-8.33333E-02
 -1      2102 8.50000E-01 2.08167E-17-8.33333E-02
 -1      2103 9.00000E-01 2.08167E-17-8.33333E-02
 -1      2104 9.50000E-01 2.08167E-17-8.33333E-02
 -1      2105 1.00000E+00 2.08167E-17-8.33333E-02
 -1      2106 1.05000E+00 2.08167E-17-8.33333E-02
 -1      2107 1.10000E+00 2.08167E-17-8.33333E-02
 -1      2108 1.15000E+00 2.08167E-17-8.33333E-02
 -1      2109 5.00000E-02 1.66667E-02-8.33333E-02
 -1      2110 1.00000E-01 1.66667E-02-8.33333E-02
 -1      2111 1.50000E-01 1.66667E-02-8.33333E-02
 -1      2112 2.00000E-01 1.66667E-02-8.33333E-02
 -1      2113 2.50000E-01 1.66667E-02-8.33333E-02
 -1      2114 3.00000E-01 1.66667E-02-8.33333E-02
 -1      2115 3.50000E-01 1.66667E-02-8.33333E-02
 -1      2116 4.00000E-01 1.66667E-02-8.33333E-02
 -1      2117 4.50000E-01 1.66667E-02-8.33333E-02
 -1      2118 5.00000E-01 1.66667E-02-8.33333E-02
 -1      2119 5.50000E-01 1.66667E-02-8.33333E-02
 -1      2120 6.00000E-01 1.66667E-02-8.33333E-02
 -1      2121 6.50000E-01 1.66667E-02-8.33333E-02
 -1      2122 7.00000E-01 1.66667E-02-8.33333E-02
 -1      2123 7.50000E-01 1.66667E-02-8.33333E-02
 -1      2124 8.00000E-01 1.66667E-02-8.33333E-02
 -1      2125 8.50000E-01 1.66667E-02-8.33333E-02
 -1      2126 9.00000E-01 1.66667E-02-8.33333E-02
 -1      2127 9.50000E-01 1.66667E-02-8.33333E-02
 -1      2128 1.00000E+00 1.66667E-02-8.33333E-02
 -1      2129 1.05000E+00 1.66667E-02-8.33333E-02
 -1      2130 1.10000E+00 1.66667E-02-8.33333E-02
 -1      2131 1.15000E+00 1.66667E-02-8.33333E-02
 -1      2132 5.00000E-02 3.33333E-02-8.33333E-02
 -1      2133 1.00000E-01 3.33333E-02-8.33333E-02
 -1      2134 1.50000E-01 3.33333E-02-8.33333E-02
 -1      2135 2.00000E-01 3.33333E-02-8.33333E-02
 -1      2136 2.50000E-01 3.33333E-02-8.33333E-02
 -1      2137 3.00000E-01 3.33333E-02-8.33333E-02
 -1      2138 3.50000E-01 3.33333E-02-8.33333E-02
 -1      2139 4.00000E-01 3.33333E-02-8.33333E-02
 -1      2140 4.50000E-01 3.33333E-02-8.33333E-02
 -1      2141 5.00000E-01 3.33333E-02-8.33333E-02
 -1      2142 5.50000E-01 3.33333E-02-8.33333E-02
 -1      2143 6.00000E-01 3.33333E-02-8.33333E-02
 -1      2144 6.50000E-01 3.33333E-02-8.33333E-02
 -1      2145 7.00000E-01 3.33333E-02-8.33333E-02
 -1      2146 7.50000E-01 3.33333E-02-8.33333E-02
 -1      2147 8.00000E-01 3.33333E-02-8.33333E-02
 -1      2148 8.50000E-01 3.33333E-02-8.33333E-02
 -1      2149 9.00000E-01 3.33333E-02-8.33333E-02
 -1      2150 9.50000E-01 3.33333E-02-8.33333E-02
 -1      2151 1.00000E+00 3.33333E-02-8.33333E-02
 -1      2152 1.05000E+00 3.33333E-02-8.33333E-02
 -1      2153 1.10000E+00 3.33333E-02-8.33333E-02
 -1      2154 1.15000E+00 3.33333E-02-8.33333E-02
 -1      2155 5.00000E-02 5.00000E-02-8.33333E-02
 -1      2156 1.00000E-01 5.00000E-02-8.33333E-02
 -1      2157 1.50000E-01 5.00000E-02-8.33333E-02
 -1      2158 2.00000E-01 5.00000E-02-8.33333E-02
 -1      2159 2.50000E-01 5.00000E-02-8.33333E-02
 -1      2160 3.00000E-01 5.00000E-02-8.33333E-02
 -1      2161 3.50000E-01 5.00000E-02-8.33333E-02
 -1      2162 4.00000E-01 5.00000E-02-8.33333E-02
 -1      2163 4.50000E-01 5.00000E-02-8.33333E-02
 -1      2164 5.00000E-01 5.00000E-02-8.33333E-02
 -1      2165 5.50000E-01 5.00000E-02-8.33333E-02
 -1      2166 6.00000E-01 5.00000E-02-8.33333E-02
 -1      2167 6.50000E-01 5.00000E-02-8.33333E-02
 -1      2168 7.00000E-01 5.00000E-02-8.33333E-02
 -1      2169 7.50000E-01 5.00000E-02-8.33333E-02
 -1      2170 8.00000E-01 5.00000E-02-8.33333E-02
 -1      2171 8.50000E-01 5.00000E-02-8.33333E-02
 -1      2172 9.00000E-01 5.00000E-02-8.33333E-02
 -1      2173 9.50000E-01 5.00000E-02-8.33333E-02
 -1      2174 1.00000E+00 5.00000E-02-8.33333E-02
 -1      2175 1.05000E+00 5.00000E-02-8.33333E-02
 -1      2176 1.10000E+00 5.00000E-02-8.33333E-02
 -1      2177 1.15000E+00 5.00000E-02-8.33333E-02
 -1      2178 5.00000E-02 6.66667E-02-8.33333E-02
 -1      2179 1.00000E-01 6.66667E-02-8.33333E-02
 -1      2180 1.50000E-01 6.66667E-02-8.33333E-02
 -1      2181 2.00000E-01 6.66667E-02-8.33333E-02
 -1      2182 2.50000E-01 6.66667E-02-8.33333E-02
 -1      2183 3.00000E-01 6.66667E-02-8.33333E-02
 -1      2184 3.50000E-01 6.66667E-02-8.33333E-02
 -1      2185 4.00000E-01 6.66667E-02-8.33333E-02
 -1      2186 4.50000E-01 6.66667E-02-8.33333E-02
 -1      2187 5.00000E-01 6.66667E-02-8.33333E-02
 -1      2188 5.50000E-01 6.66667E-02-8.33333E-02
 -1      2189 6.00000E-01 6.66667E-02-8.33333E-02
 -1      2190 6.50000E-01 6.66667E-02-8.33333E-02
 -1      2191 7.00000E-01 6.66667E-02-8.33333E-02
 -1      2192 7.50000E-01 6.66667E-02-8.33333E-02
 -1      2193 8.00000E-01 6.66667E-02-8.33333E-02
 -1      2194 8.50000E-01 6.66667E-02-8.33333E-02
 -1      2195 9.00000E-01 6.66667E-02-8.33333E-02
 -1      2196 9.50000E-01 6.66667E-02-8.33333E-02
 -1      2197 1.00000E+00 6.66667E-02-8.33333E-02
 -1      2198 1.05000E+00 6.66667E-02-8.33333E-02
 -1      2199 1.10000E+00 6.66667E-02-8.33333E-02
 -1      2200 1.15000E+00 6.66667E-02-8.33333E-02
 -1      2201 5.00000E-02 8.33333E-02-8.33333E-02
 -1      2202 1.00000E-01 8.33333E-02-8.33333E-02
 -1      2203 1.50000E-01 8.33333E-02-8.33333E-02
 -1      2204 2.00000E-01 8.33333E-02-8.33333E-02
 -1      2205 2.50000E-01 8.33333E-02-8.33333E-02
 -1      2206 3.00000E-01 8.33333E-02-8.33333E-02
 -1      2207 3.50000E-01 8.33333E-02-8.33333E-02
 -1      2208 4.00000E-01 8.33333E-02-8.33333E-02
 -1      2209 4.50000E-01 8.33333E-02-8.33333E-02
 -1      2210 5.00000E-01 8.33333E-02-8.33333E-02
 -1      2211 5.50000E-01 8.33333E-02-8.33333E-02
 -1      2212 6.00000E-01 8.33333E-02-8.33333E-02
 -1      2213 6.50000E-01 8.33333E-02-8.33333E-02
 -1      2214 7.00000E-01 8.33333E-02-8.33333E-02
 -1      2215 7.50000E-01 8.33333E-02-8.33333E-02
 -1      2216 8.00000E-01 8.33333E-02-8.33333E-02
 -1      2217 8.50000E-01 8.33333E-02-8.33333E-02
 -1      2218 9.00000E-01 8.33333E-02-8.33333E-02
 -1      2219 9.50000E-01 8.33333E-02-8.33333E-02
 -1      2220 1.00000E+00 8.33333E-02-8.33333E-02
 -1      2221 1.05000E+00 8.33333E-02-8.33333E-02
 -1      2222 1.10000E+00 8.33333E-02-8.33333E-02
 -1      2223 1.15000E+00 8.33333E-02-8.33333E-02
 -1      2224 5.00000E-02 1.00000E-01-8.33333E-02
 -1      2225 1.00000E-01 1.00000E-01-8.33333E-02
 -1      2226 1.50000E-01 1.00000E-01-8.33333E-02
 -1      2227 2.00000E-01 1.00000E-01-8.33333E-02
 -1      2228 2.50000E-01 1.00000E-01-8.33333E-02
 -1      2229 3.00000E-01 1.00000E-01-8.33333E-02
 -1      2230 3.50000E-01 1.00000E-01-8.33333E-02
 -1      2231 4.00000E-01 1.00000E-01-8.33333E-02
 -1      2232 4.50000E-01 1.00000E-01-8.33333E-02
 -1      2233 5.00000E-01 1.00000E-01-8.33333E-02
 -1      2234 5.50000E-01 1.00000E-01-8.33333E-02
 -1      2235 6.00000E-01 1.00000E-01-8.33333E-02
 -1      2236 6.50000E-01 1.00000E-01-8.33333E-02
 -1      2237 7.00000E-01 1.00000E-01-8.33333E-02
 -1      2238 7.50000E-01 1.00000E-01-8.33333E-02
 -1      2239 8.00000E-01 1.00000E-01-8.33333E-02
 -1      2240 8.50000E-01 1.00000E-01-8.33333E-02
 -1      2241 9.00000E-01 1.00000E-01-8.33333E-02
 -1      2242 9.50000E-01 1.00000E-01-8.33333E-02
 -1      2243 1.00000E+00 1.00000E-01-8.33333E-02
 -1      2244 1.05000E+00 1.00000E-01-8.33333E-02
 -1      2245 1.10000E+00 1.00000E-01-8.33333E-02
 -1      2246 1.15000E+00 1.00000E-01-8.33333E-02
 -1      2247 5.00000E-02 1.16667E-01-8.33333E-02
 -1      2248 1.00000E-01 1.16667E-01-8.33333E-02
 -1      2249 1.50000E-01 1.16667E-01-8.33333E-02
 -1      2250 2.00000E-01 1.16667E-01-8.33333E-02
 -1      2251 2.50000E-01 1.16667E-01-8.33333E-02
 -1      2252 3.00000E-01 1.16667E-01-8.33333E-02
 -1      2253 3.50000E-01 1.16667E-01-8.33333E-02
 -1      2254 4.00000E-01 1.16667E-01-8.33333E-02
 -1      2255 4.50000E-01 1.16667E-01-8.33333E-02
 -1      2256 5.00000E-01 1.16667E-01-8.33333E-02
 -1      2257 5.50000E-01 1.16667E-01-8.33333E-02
 -1      2258 6.00000E-01 1.16667E-01-8.33333E-02
 -1      2259 6.50000E-01 1.16667E-01-8.33333E-02
 -1      2260 7.00000E-01 1.16667E-01-8.33333E-02
 -1      2261 7.50000E-01 1.16667E-01-8.33333E-02
 -1      2262 8.00000E-01 1.16667E-01-8.33333E-02
 -1      2263 8.50000E-01 1.16667E-01-8.33333E-02
 -1      2264 9.00000E-01 1.16667E-01-8.33333E-02
 -1      2265 9.50000E-01 1.16667E-01-8.33333E-02
 -1      2266 1.00000E+00 1.16667E-01-8.33333E-02
 -1      2267 1.05000E+00 1.16667E-01-8.33333E-02
 -1      2268 1.10000E+00 1.16667E-01-8.33333E-02
 -1      2269 1.15000E+00 1.16667E-01-8.33333E-02
 -1      2270 5.00000E-02 1.33333E-01-8.33333E-02
 -1      2271 1.00000E-01 1.33333E-01-8.33333E-02
 -1      2272 1.50000E-01 1.33333E-01-8.33333E-02
 -1      2273 2.00000E-01 1.33333E-01-8.33333E-02
 -1      2274 2.50000E-01 1.33333E-01-8.33333E-02
 -1      2275 3.00000E-01 1.33333E-01-8.33333E-02
 -1      2276 3.50000E-01 1.33333E-01-8.33333E-02
 -1      2277 4.00000E-01 1.33333E-01-8.33333E-02
 -1      2278 4.50000E-01 1.33333E-01-8.33333E-02
 -1      2279 5.00000E-01 1.33333E-01-8.33333E-02
 -1      2280 5.50000E-01 1.33333E-01-8.33333E-02
 -1      2281 6.00000E-01 1.33333E-01-8.33333E-02
 -1      2282 6.50000E-01 1.33333E-01-8.33333E-02
 -1      2283 7.00000E-01 1.33333E-01-8.33333E-02
 -1      2284 7.50000E-01 1.33333E-01-8.33333E-02
 -1      2285 8.00000E-01 1.33333E-01-8.33333E-02
 -1      2286 8.50000E-01 1.33333E-01-8.33333E-02
 -1      2287 9.00000E-01 1.33333E-01-8.33333E-02
 -1      2288 9.50000E-01 1.33333E-01-8.33333E-02
 -1      2289 1.00000E+00 1.33333E-01-8.33333E-02
 -1      2290 1.05000E+00 1.33333E-01-8.33333E-02
 -1      2291 1.10000E+00 1.33333E-01-8.33333E-02
 -1      2292 1.15000E+00 1.33333E-01-8.33333E-02
 -1      2293 5.00000E-02-3.33333E-02-6.66667E-02
 -1      2294 1.00000E-01-3.33333E-02-6.66667E-02
 -1      2295 1.50000E-01-3.33333E-02-6.66667E-02
 -1      2296 2.00000E-01-3.33333E-02-6.66667E-02
 -1      2297 2.50000E-01-3.33333E-02-6.66667E-02
 -1      2298 3.00000E-01-3.33333E-02-6.66667E-02
 -1      2299 3.50000E-01-3.33333E-02-6.66667E-02
 -1      2300 4.00000E-01-3.33333E-02-6.66667E-02
 -1      2301 4.50000E-01-3.33333E-02-6.66667E-02
 -1      2302 5.00000E-01-3.33333E-02-6.66667E-02
 -1      2303 5.50000E-01-3.33333E-02-6.66667E-02
 -1      2304 6.00000E-01-3.33333E-02-6.66667E-02
 -1      2305 6.50000E-01-3.33333E-02-6.66667E-02
 -1      2306 7.00000E-01-3.33333E-02-6.66667E-02
 -1      2307 7.50000E-01-3.33333E-02-6.66667E-02
 -1      2308 8.00000E-01-3.33333E-02-6.66667E-02
 -1      2309 8.50000E-01-3.33333E-02-6.66667E-02
 -1      2310 9.00000E-01-3.33333E-02-6.66667E-02
 -1      2311 9.50000E-01-3.33333E-02-6.66667E-02
 -1      2312 1.00000E+00-3.33333E-02-6.66667E-02
 -1      2313 1.05000E+00-3.33333E-02-6.66667E-02
 -1      2314 1.10000E+00-3.33333E-02-6.66667E-02
 -1      2315 1.15000E+00-3.33333E-02-6.66667E-02
 -1      2316 5.00000E-02-1.66667E-02-6.66667E-02
 -1      2317 1.00000E-01-1.66667E-02-6.66667E-02
 -1      2318 1.50000E-01-1.66667E-02-6.66667E-02
 -1      2319 2.00000E-01-1.66667E-02-6.66667E-02
 -1      2320 2.50000E-01-1.66667E-02-6.66667E-02
 -1      2321 3.00000E-01-1.66667E-02-6.66667E-02
 -1      2322 3.50000E-01-1.66667E-02-6.66667E-02
 -1      2323 4.00000E-01-1.66667E-02-6.66667E-02
 -1      2324 4.50000E-01-1.66667E-02-6.66667E-02
 -1      2325 5.00000E-01-1.66667E-02-6.66667E-02
 -1      2326 5.50000E-01-1.66667E-02-6.66667E-02
 -1      2327 6.00000E-01-1.66667E-02-6.66667E-02
 -1      2328 6.50000E-01-1.66667E-02-6.66667E-02
 -1      2329 7.00000E-01-1.66667E-02-6.66667E-02
 -1      2330 7.50000E-01-1.66667E-02-6.66667E-02
 -1      2331 8.00000E-01-1.66667E-02-6.66667E-02
 -1      2332 8.50000E-01-1.66667E-02-6.66667E-02
 -1      2333 9.00000E-01-1.66667E-02-6.66667E-02
 -1      2334 9.50000E-01-1.66667E-02-6.66667E-02
 -1      2335 1.00000E+00-1.66667E-02-6.66667E-02
 -1      2336 1.05000E+00-1.66667E-02-6.66667E-02
 -1      2337 1.10000E+00-1.66667E-02-6.66667E-02
 -1      2338 1.15000E+00-1.66667E-02-6.66667E-02
 -1      2339 5.00000E-02 2.08167E-17-6.66667E-02
 -1      2340 1.00000E-01 2.08167E-17-6.66667E-02
 -1      2341 1.50000E-01 2.08167E-17-6.66667E-02
 -1      2342 2.00000E-01 2.08167E-17-6.66667E-02
 -1      2343 2.50000E-01 2.08167E-17-6.66667E-02
 -1      2344 3.00000E-01 2.08167E-17-6.66667E-02
 -1      2345 3.50000E-01 2.08167E-17-6.66667E-02
 -1      2346 4.00000E-01 2.08167E-17-6.66667E-02
 -1      2347 4.50000E-01 2.08167E-17-6.66667E-02
 -1      2348 5.00000E-01 2.08167E-17-6.66667E-02
 -1      2349 5.50000E-01 2.08167E-17-6.66667E-02
 -1      2350 6.00000E-01 2.08167E-17-6.66667E-02
 -1      2351 6.50000E-01 2.08167E-17-6.66667E-02
 -1      2352 7.00000E-01 2.08167E-17-6.66667E-02
 -1      2353 7.50000E-01 2.08167E-17-6.66667E-02
 -1      2354 8.00000E-01 2.08167E-17-6.66667E-02
 -1      2355 8.50000E-01 2.08167E-17-6.66667E-02
 -1      2356 9.00000E-01 2.08167E-17-6.66667E-02
 -1      2357 9.50000E-01 2.08167E-17-6.66667E-02
 -1      2358 1.00000E+00 2.08167E-17-6.66667E-02
 -1      2359 1.05000E+00 2.08167E-17-6.66667E-02
 -1      2360 1.10000E+00 2.08167E-17-6.66667E-02
 -1      2361 1.15000E+00 2.08167E-17-6.66667E-02
 -1      2362 5.00000E-02 1.66667E-02-6.66667E-02
 -1      2363 1.00000E-01 1.66667E-02-6.66667E-02
 -1      2364 1.50000E-01 1.66667E-02-6.66667E-02
 -1      2365 2.00000E-01 1.66667E-02-6.66667E-02
 -1      2366 2.50000E-01 1.66667E-02-6.66667E-02
 -1      2367 3.00000E-01 1.66667E-02-6.66667E-02
 -1      2368 3.50000E-01 1.66667E-02-6.66667E-02
 -1      2369 4.00000E-01 1.66667E-02-6.66667E-02
 -1      2370 4.50000E-01 1.66667E-02-6.66667E-02
 -1      2371 5.00000E-01 1.66667E-02-6.66667E-02
 -1      2372 5.50000E-01 1.66667E-02-6.66667E-02
 -1      2373 6.00000E-01 1.66667E-02-6.66667E-02
 -1      2374 6.50000E-01 1.66667E-02-6.66667E-02
 -1      2375 7.00000E-01 1.66667E-02-6.66667E-02
 -1      2376 7.50000E-01 1.66667E-02-6.66667E-02
 -1      2377 8.00000E-01 1.66667E-02-6.66667E-02
 -1      2378 8.50000E-01 1.66667E-02-6.66667E-02
 -1      2379 9.00000E-01 1.66667E-02-6.66667E-02
 -1      2380 9.50000E-01 1.66667E-02-6.66667E-02
 -1      2381 1.00000E+00 1.66667E-02-6.66667E-02
 -1      2382 1.05000E+00 1.66667E-02-6.66667E-02
 -1      2383 1.10000E+00 1.66667E-02-6.66667E-02
 -1      2384 1.15000E+00 1.66667E-02-6.66667E-02
 -1      2385 5.00000E-02 3.33333E-02-6.66667E-02
 -1      2386 1.00000E-01 3.33333E-02-6.66667E-02
 -1      2387 1.50000E-01 3.33333E-02-6.66667E-02
 -1      2388 2.00000E-01 3.33333E-02-6.66667E-02
 -1      2389 2.50000E-01 3.33333E-02-6.66667E-02
 -1      2390 3.00000E-01 3.33333E-02-6.66667E-02
 -1      2391 3.50000E-01 3.33333E-02-6.66667E-02
 -1      2392 4.00000E-01 3.33333E-02-6.66667E-02
 -1      2393 4.50000E-01 3.33333E-02-6.66667E-02
 -1      2394 5.00000E-01 3.33333E-02-6.66667E-02
 -1      2395 5.50000E-01 3.33333E-02-6.66667E-02
 -1      2396 6.00000E-01 3.33333E-02-6.66667E-02
 -1      2397 6.50000E-01 3.33333E-02-6.66667E-02
 -1      2398 7.00000E-01 3.33333E-02-6.66667E-02
 -1      2399 7.50000E-01 3.33333E-02-6.66667E-02
 -1      2400 8.00000E-01 3.33333E-02-6.66667E-02
 -1      2401 8.50000E-01 3.33333E-02-6.66667E-02
 -1      2402 9.00000E-01 3.33333E-02-6.66667E-02
 -1      2403 9.50000E-01 3.33333E-02-6.66667E-02
 -1      2404 1.00000E+00 3.33333E-02-6.66667E-02
 -1      2405 1.05000E+00 3.33333E-02-6.66667E-02
 -1      2406 1.10000E+00 3.33333E-02-6.66667E-02
 -1      2407 1.15000E+00 3.33333E-02-6.66667E-02
 -1      2408 5.00000E-02 5.00000E-02-6.66667E-02
 -1      2409 1.00000E-01 5.00000E-02-6.66667E-02
 -1      2410 1.50000E-01 5.00000E-02-6.66667E-02
 -1      2411 2.00000E-01 5.00000E-02-6.66667E-02
 -1      2412 2.50000E-01 5.00000E-02-6.66667E-02
 -1      2413 3.00000E-01 5.00000E-02-6.66667E-02
 -1      2414 3.50000E-01 5.00000E-02-6.66667E-02
 -1      2415 4.00000E-01 5.00000E-02-6.66667E-02
 -1      2416 4.50000E-01 5.00000E-02-6.66667E-02
 -1      2417 5.00000E-01 5.00000E-02-6.66667E-02
 -1      2418 5.50000E-01 5.00000E-02-6.66667E-02
 -1      2419 6.00000E-01 5.00000E-02-6.66667E-02
 -1      2420 6.50000E-01 5.00000E-02-6.66667E-02
 -1      2421 7.00000E-01 5.00000E-02-6.66667E-02
 -1      2422 7.50000E-01 5.00000E-02-6.66667E-02
 -1      2423 8.00000E-01 5.00000E-02-6.66667E-02
 -1      2424 8.50000E-01 5.00000E-02-6.66667E-02
 -1      2425 9.00000E-01 5.00000E-02-6.66667E-02
 -1      2426 9.50000E-01 5.00000E-02-6.66667E-02
 -1      2427 1.00000E+00 5.00000E-02-6.66667E-02
 -1      2428 1.05000E+00 5.00000E-02-6.66667E-02
 -1      2429 1.10000E+00 5.00000E-02-6.66667E-02
 -1      2430 1.15000E+00 5.00000E-02-6.66667E-02
 -1      2431 5.00000E-02 6.66667E-02-6.66667E-02
 -1      2432 1.00000E-01 6.66667E-02-6.66667E-02
 -1      2433 1.50000E-01 6.66667E-02-6.66667E-02
 -1      2434 2.00000E-01 6.66667E-02-6.66667E-02
 -1      2435 2.50000E-01 6.66667E-02-6.66667E-02
 -1      2436 3.00000E-01 6.66667E-02-6.66667E-02
 -1      2437 3.50000E-01 6.66667E-02-6.66667E-02
 -1      2438 4.00000E-01 6.66667E-02-6.66667E-02
 -1      2439 4.50000E-01 6.66667E-02-6.66667E-02
 -1      2440 5.00000E-01 6.66667E-02-6.66667E-02
 -1      2441 5.50000E-01 6.66667E-02-6.66667E-02
 -1      2442 6.00000E-01 6.66667E-02-6.66667E-02
 -1      2443 6.50000E-01 6.66667E-02-6.66667E-02
 -1      2444 7.00000E-01 6.66667E-02-6.66667E-02
 -1      2445 7.50000E-01 6.66667E-02-6.66667E-02
 -1      2446 8.00000E-01 6.66667E-02-6.66667E-02
 -1      2447 8.50000E-01 6.66667E-02-6.66667E-02
 -1      2448 9.00000E-01 6.66667E-02-6.66667E-02
 -1      2449 9.50000E-01 6.66667E-02-6.66667E-02
 -1      2450 1.00000E+00 6.66667E-02-6.66667E-02
 -1      2451 1.05000E+00 6.66667E-02-6.66667E-02
 -1      2452 1.10000E+00 6.66667E-02-6.66667E-02
 -1      2453 1.15000E+00 6.66667E-02-6.66667E-02
 -1      2454 5.00000E-02 8.33333E-02-6.66667E-02
 -1      2455 1.00000E-01 8.33333E-02-6.66667E-02
 -1      2456 1.50000E-01 8.33333E-02-6.66667E-02
 -1      2457 2.00000E-01 8.33333E-02-6.66667E-02
 -1      2458 2.50000E-01 8.33333E-02-6.66667E-02
 -1      2459 3.00000E-01 8.33333E-02-6.66667E-02
 -1      2460 3.50000E-01 8.33333E-02-6.66667E-02
 -1      2461 4.00000E-01 8.33333E-02-6.66667E-02
 -1      2462 4.50000E-01 8.33333E-02-6.66667E-02
 -1      2463 5.00000E-01 8.33333E-02-6.66667E-02
 -1      2464 5.50000E-01 8.33333E-02-6.66667E-02
 -1      2465 6.00000E-01 8.33333E-02-6.66667E-02
 -1      2466 6.50000E-01 8.33333E-02-6.66667E-02
 -1      2467 7.00000E-01 8.33333E-02-6.66667E-02
 -1      2468 7.50000E-01 8.33333E-02-6.66667E-02
 -1      2469 8.00000E-01 8.33333E-02-6.66667E-02
 -1      2470 8.50000E-01 8.33333E-02-6.66667E-02
 -1      2471 9.00000E-01 8.33333E-02-6.66667E-02
 -1      2472 9.50000E-01 8.33333E-02-6.66667E-02
 -1      2473 1.00000E+00 8.33333E-02-6.66667E-02
 -1      2474 1.05000E+00 8.33333E-02-6.66667E-02
 -1      2475 1.10000E+00 8.33333E-02-6.66667E-02
 -1      2476 1.15000E+00 8.33333E-02-6.66667E-02
 -1      2477 5.00000E-02 1.00000E-01-6.66667E-02
 -1      2478 1.00000E-01 1.00000E-01-6.66667E-02
 -1      2479 1.50000E-01 1.00000E-01-6.66667E-02
 -1      2480 2.00000E-01 1.00000E-01-6.66667E-02
 -1      2481 2.50000E-01 1.00000E-01-6.66667E-02
 -1      2482 3.00000E-01 1.00000E-01-6.66667E-02
 -1      2483 3.50000E-01 1.00000E-01-6.66667E-02
 -1      2484 4.00000E-01 1.00000E-01-6.66667E-02
 -1      2485 4.50000E-01 1.00000E-01-6.66667E-02
 -1      2486 5.00000E-01 1.00000E-01-6.66667E-02
 -1      2487 5.50000E-01 1.00000E-01-6.66667E-02
 -1      2488 6.00000E-01 1.00000E-01-6.66667E-02
 -1      2489 6.50000E-01 1.00000E-01-6.66667E-02
 -1      2490 7.00000E-01 1.00000E-01-6.66667E-02
 -1      2491 7.50000E-01 1.00000E-01-6.66667E-02
 -1      2492 8.00000E-01 1.00000E-01-6.66667E-02
 -1      2493 8.50000E-01 1.00000E-01-6.66667E-02
 -1      2494 9.00000E-01 1.00000E-01-6.66667E-02
 -1      2495 9.50000E-01 1.00000E-01-6.66667E-02
 -1      2496 1.00000E+00 1.00000E-01-6.66667E-02
 -1      2497 1.05000E+00 1.00000E-01-6.66667E-02
 -1      2498 1.10000E+00 1.00000E-01-6.66667E-02
 -1      2499 1.15000E+00 1.00000E-01-6.66667E-02
 -1      2500 5.00000E-02 1.16667E-01-6.66667E-02
 -1      2501 1.00000E-01 1.16667E-01-6.66667E-02
 -1      2502 1.50000E-01 1.16667E-01-6.66667E-02
 -1      2503 2.00000E-01 1.16667E-01-6.66667E-02
 -1      2504 2.50000E-01 1.16667E-01-6.66667E-02
 -1      2505 3.00000E-01 1.16667E-01-6.66667E-02
 -1      2506 3.50000E-01 1.16667E-01-6.66667E-02
 -1      2507 4.00000E-01 1.16667E-01-6.66667E-02
 -1      2508 4.50000E-01 1.16667E-01-6.66667E-02
 -1      2509 5.00000E-01 1.16667E-01-6.66667E-02
 -1      2510 5.50000E-01 1.16667E-01-6.66667E-02
 -1      2511 6.00000E-01 1.16667E-01-6.66667E-02
 -1      2512 6.50000E-01 1.16667E-01-6.66667E-02
 -1      2513 7.00000E-01 1.16667E-01-6.66667E-02
 -1      2514 7.50000E-01 1.16667E-01-6.66667E-02
 -1      2515 8.00000E-01 1.16667E-01-6.66667E-02
 -1      2516 8.50000E-01 1.16667E-01-6.66667E-02
 -1      2517 9.00000E-01 1.16667E-01-6.66667E-02
 -1      2518 9.50000E-01 1.16667E-01-6.66667E-02
 -1      2519 1.00000E+00 1.16667E-01-6.66667E-02
 -1      2520 1.05000E+00 1.16667E-01-6.66667E-02
 -1      2521 1.10000E+00 1.16667E-01-6.66667E-02
 -1      2522 1.15000E+00 1.16667E-01-6.66667E-02
 -1      2523 5.00000E-02 1.33333E-01-6.66667E-02
 -1      2524 1.00000E-01 1.33333E-01-6.66667E-02
 -1      2525 1.50000E-01 1.33333E-01-6.66667E-02
 -1      2526 2.00000E-01 1.33333E-01-6.66667E-02
 -1      2527 2.50000E-01 1.33333E-01-6.66667E-02
 -1      2528 3.00000E-01 1.33333E-01-6.66667E-02
 -1      2529 3.50000E-01 1.33333E-01-6.66667E-02
 -1      2530 4.00000E-01 1.33333E-01-6.66667E-02
 -1      2531 4.50000E-01 1.33333E-01-6.66667E-02
 -1      2532 5.00000E-01 1.33333E-01-6.66667E-02
 -1      2533 5.50000E-01 1.33333E-01-6.66667E-02
 -1      2534 6.00000E-01 1.33333E-01-6.66667E-02
 -1      2535 6.50000E-01 1.33333E-01-6.66667E-02
 -1      2536 7.00000E-01 1.33333E-01-6.66667E-02
 -1      2537 7.50000E-01 1.33333E-01-6.66667E-02
 -1      2538 8.00000E-01 1.33333E-01-6.66667E-02
 -1      2539 8.50000E-01 1.33333E-01-6.66667E-02
 -1      2540 9.00000E-01 1.33333E-01-6.66667E-02
 -1      2541 9.50000E-01 1.33333E-01-6.66667E-02
 -1      2542 1.00000E+00 1.33333E-01-6.66667E-02
 -1      2543 1.05000E+00 1.33333E-01-6.66667E-02
 -1      2544 1.10000E+00 1.33333E-01-6.66667E-02
 -1      2545 1.15000E+00 1.33333E-01-6.66667E-02
 -1      2546 5.00000E-02-3.33333E-02-5.00000E-02
 -1      2547 1.00000E-01-3.33333E-02-5.00000E-02
 -1      2548 1.50000E-01-3.33333E-02-5.00000E-02
 -1      2549 2.00000E-01-3.33333E-02-5.00000E-02
 -1      2550 2.50000E-01-3.33333E-02-5.00000E-02
 -1      2551 3.00000E-01-3.33333E-02-5.00000E-02
 -1      2552 3.50000E-01-3.33333E-02-5.00000E-02
 -1      2553 4.00000E-01-3.33333E-02-5.00000E-02
 -1      2554 4.50000E-01-3.33333E-02-5.00000E-02
 -1      2555 5.00000E-01-3.33333E-02-5.00000E-02
 -1      2556 5.50000E-01-3.33333E-02-5.00000E-02
 -1      2557 6.00000E-01-3.33333E-02-5.00000E-02
 -1      2558 6.50000E-01-3.33333E-02-5.00000E-02
 -1      2559 7.00000E-01-3.33333E-02-5.00000E-02
 -1      2560 7.50000E-01-3.33333E-02-5.00000E-02
 -1      2561 8.00000E-01-3.33333E-02-5.00000E-02
 -1      2562 8.50000E-01-3.33333E-02-5.00000E-02
 -1      2563 9.00000E-01-3.33333E-02-5.00000E-02
 -1      2564 9.50000E-01-3.33333E-02-5.00000E-02
 -1      2565 1.00000E+00-3.33333E-02-5.00000E-02
 -1      2566 1.05000E+00-3.33333E-02-5.00000E-02
 -1      2567 1.10000E+00-3.33333E-02-5.00000E-02
 -1      2568 1.15000E+00-3.33333E-02-5.00000E-02
 -1      2569 5.00000E-02-1.66667E-02-5.00000E-02
 -1      2570 1.00000E-01-1.66667E-02-5.00000E-02
 -1      2571 1.50000E-01-1.66667E-02-5.00000E-02
 -1      2572 2.00000E-01-1.66667E-02-5.00000E-02
 -1      2573 2.50000E-01-1.66667E-02-5.00000E-02
 -1      2574 3.00000E-01-1.66667E-02-5.00000E-02
 -1      2575 3.50000E-01-1.66667E-02-5.00000E-02
 -1      2576 4.00000E-01-1.66667E-02-5.00000E-02
 -1      2577 4.50000E-01-1.66667E-02-5.00000E-02
 -1      2578 5.00000E-01-1.66667E-02-5.00000E-02
 -1      2579 5.50000E-01-1.66667E-02-5.00000E-02
 -1      2580 6.00000E-01-1.66667E-02-5.00000E-02
 -1      2581 6.50000E-01-1.66667E-02-5.00000E-02
 -1      2582 7.00000E-01-1.66667E-02-5.00000E-02
 -1      2583 7.50000E-01-1.66667E-02-5.00000E-02
 -1      2584 8.00000E-01-1.66667E-02-5.00000E-02
 -1      2585 8.50000E-01-1.66667E-02-5.00000E-02
 -1      2586 9.00000E-01-1.66667E-02-5.00000E-02
 -1      2587 9.50000E-01-1.66667E-02-5.00000E-02
 -1      2588 1.00000E+00-1.66667E-02-5.00000E-02
 -1      2589 1.05000E+00-1.66667E-02-5.00000E-02
 -1      2590 1.10000E+00-1.66667E-02-5.00000E-02
 -1      2591 1.15000E+00-1.66667E-02-5.00000E-02
 -1      2592 5.00000E-02 2.08167E-17-5.00000E-02
 -1      2593 1.00000E-01 2.08167E-17-5.00000E-02
 -1      2594 1.50000E-01 2.08167E-17-5.00000E-02
 -1      2595 2.00000E-01 2.08167E-17-5.00000E-02
 -1      2596 2.50000E-01 2.08167E-17-5.00000E-02
 -1      2597 3.00000E-01 2.08167E-17-5.00000E-02
 -1      2598 3.50000E-01 2.08167E-17-5.00000E-02
 -1      2599 4.00000E-01 2.08167E-17-5.00000E-02
 -1      2600 4.50000E-01 2.08167E-17-5.00000E-02
 -1      2601 5.00000E-01 2.08167E-17-5.00000E-02
 -1      2602 5.50000E-01 2.08167E-17-5.00000E-02
 -1      2603 6.00000E-01 2.08167E-17-5.00000E-02
 -1      2604 6.50000E-01 2.08167E-17-5.00000E-02
 -1      2605 7.00000E-01 2.08167E-17-5.00000E-02
 -1      2606 7.50000E-01 2.08167E-17-5.00000E-02
 -1      2607 8.00000E-01 2.08167E-17-5.00000E-02
 -1      2608 8.50000E-01 2.08167E-17-5.00000E-02
 -1      2609 9.00000E-01 2.08167E-17-5.00000E-02
 -1      2610 9.50000E-01 2.08167E-17-5.00000E-02
 -1      2611 1.00000E+00 2.08167E-17-5.00000E-02
 -1      2612 1.05000E+00 2.08167E-17-5.00000E-02
 -1      2613 1.10000E+00 2.08167E-17-5.00000E-02
 -1      2614 1.15000E+00 2.08167E-17-5.00000E-02
 -1      2615 5.00000E-02 1.66667E-02-5.00000E-02
 -1      2616 1.00000E-01 1.66667E-02-5.00000E-02
 -1      2617 1.50000E-01 1.66667E-02-5.00000E-02
 -1      2618 2.00000E-01 1.66667E-02-5.00000E-02
 -1      2619 2.50000E-01 1.66667E-02-5.00000E-02
 -1      2620 3.00000E-01 1.66667E-02-5.00000E-02
 -1      2621 3.50000E-01 1.66667E-02-5.00000E-02
 -1      2622 4.00000E-01 1.66667E-02-5.00000E-02
 -1      2623 4.50000E-01 1.66667E-02-5.00000E-02
 -1      2624 5.00000E-01 1.66667E-02-5.00000E-02
 -1      2625 5.50000E-01 1.66667E-02-5.00000E-02
 -1      2626 6.00000E-01 1.66667E-02-5.00000E-02
 -1      2627 6.50000E-01 1.66667E-02-5.00000E-02
 -1      2628 7.00000E-01 1.66667E-02-5.00000E-02
 -1      2629 7.50000E-01 1.66667E-02-5.00000E-02
 -1      2630 8.00000E-01 1.66667E-02-5.00000E-02
 -1      2631 8.50000E-01 1.66667E-02-5.00000E-02
 -1      2632 9.00000E-01 1.66667E-02-5.00000E-02
 -1      2633 9.50000E-01 1.66667E-02-5.00000E-02
 -1      2634 1.00000E+00 1.66667E-02-5.00000E-02
 -1      2635 1.05000E+00 1.66667E-02-5.00000E-02
 -1      2636 1.10000E+00 1.66667E-02-5.00000E-02
 -1      2637 1.15000E+00 1.66667E-02-5.00000E-02
 -1      2638 5.00000E-02 3.33333E-02-5.00000E-02
 -1      2639 1.00000E-01 3.33333E-02-5.00000E-02
 -1      2640 1.50000E-01 3.33333E-02-5.00000E-02
 -1      2641 2.00000E-01 3.33333E-02-5.00000E-02
 -1      2642 2.50000E-01 3.33333E-02-5.00000E-02
 -1      2643 3.00000E-01 3.33333E-02-5.00000E-02
 -1      2644 3.50000E-01 3.33333E-02-5.00000E-02
 -1      2645 4.00000E-01 3.33333E-02-5.00000E-02
 -1      2646 4.50000E-01 3.33333E-02-5.00000E-02
 -1      2647 5.00000E-01 3.33333E-02-5.00000E-02
 -1      2648 5.50000E-01 3.33333E-02-5.00000E-02
 -1      2649 6.00000E-01 3.33333E-02-5.00000E-02
 -1      2650 6.50000E-01 3.33333E-02-5.00000E-02
 -1      2651 7.00000E-01 3.33333E-02-5.00000E-02
 -1      2652 7.50000E-01 3.33333E-02-5.00000E-02
 -1      2653 8.00000E-01 3.33333E-02-5.00000E-02
 -1      2654 8.50000E-01 3.33333E-02-5.00000E-02
 -1      2655 9.00000E-01 3.33333E-02-5.00000E-02
 -1      2656 9.50000E-01 3.33333E-02-5.00000E-02
 -1      2657 1.00000E+00 3.33333E-02-5.00000E-02
 -1      2658 1.05000E+00 3.33333E-02-5.00000E-02
 -1      2659 1.10000E+00 3.33333E-02-5.00000E-02
 -1      2660 1.15000E+00 3.33333E-02-5.00000E-02
 -1      2661 5.00000E-02 5.00000E-02-5.00000E-02
 -1      2662 1.00000E-01 5.00000E-02-5.00000E-02
 -1      2663 1.50000E-01 5.00000E-02-5.00000E-02
 -1      2664 2.00000E-01 5.00000E-02-5.00000E-02
 -1      2665 2.50000E-01 5.00000E-02-5.00000E-02
 -1      2666 3.00000E-01 5.00000E-02-5.00000E-02
 -1      2667 3.50000E-01 5.00000E-02-5.00000E-02
 -1      2668 4.00000E-01 5.00000E-02-5.00000E-02
 -1      2669 4.50000E-01 5.00000E-02-5.00000E-02
 -1      2670 5.00000E-01 5.00000E-02-5.00000E-02
 -1      2671 5.50000E-01 5.00000E-02-5.00000E-02
 -1      2672 6.00000E-01 5.00000E-02-5.00000E-02
 -1      2673 6.50000E-01 5.00000E-02-5.00000E-02
 -1      2674 7.00000E-01 5.00000E-02-5.00000E-02
 -1      2675 7.50000E-01 5.00000E-02-5.00000E-02
 -1      2676 8.00000E-01 5.00000E-02-5.00000E-02
 -1      2677 8.50000E-01 5.00000E-02-5.00000E-02
 -1      2678 9.00000E-01 5.00000E-02-5.00000E-02
 -1      2679 9.50000E-01 5.00000E-02-5.00000E-02
 -1      2680 1.00000E+00 5.00000E-02-5.00000E-02
 -1      2681 1.05000E+00 5.00000E-02-5.00000E-02
 -1      2682 1.10000E+00 5.00000E-02-5.00000E-02
 -1      2683 1.15000E+00 5.00000E-02-5.00000E-02
 -1      2684 5.00000E-02 6.66667E-02-5.00000E-02
 -1      2685 1.00000E-01 6.66667E-02-5.00000E-02
 -1      2686 1.50000E-01 6.66667E-02-5.00000E-02
 -1      2687 2.00000E-01 6.66667E-02-5.00000E-02
 -1      2688 2.50000E-01 6.66667E-02-5.00000E-02
 -1      2689 3.00000E-01 6.66667E-02-5.00000E-02
 -1      2690 3.50000E-01 6.66667E-02-5.00000E-02
 -1      2691 4.00000E-01 6.66667E-02-5.00000E-02
 -1      2692 4.50000E-01 6.66667E-02-5.00000E-02
 -1      2693 5.00000E-01 6.66667E-02-5.00000E-02
 -1      2694 5.50000E-01 6.66667E-02-5.00000E-02
 -1      2695 6.00000E-01 6.66667E-02-5.00000E-02
 -1      2696 6.50000E-01 6.66667E-02-5.00000E-02
 -1      2697 7.00000E-01 6.66667E-02-5.00000E-02
 -1      2698 7.50000E-01 6.66667E-02-5.00000E-02
 -1      2699 8.00000E-01 6.66667E-02-5.00000E-02
 -1      2700 8.50000E-01 6.66667E-02-5.00000E-02
 -1      2701 9.00000E-01 6.66667E-02-5.00000E-02
 -1      2702 9.50000E-01 6.66667E-02-5.00000E-02
 -1      2703 1.00000E+00 6.66667E-02-5.00000E-02
 -1      2704 1.05000E+00 6.66667E-02-5.00000E-02
 -1      2705 1.10000E+00 6.66667E-02-5.00000E-02
 -1      2706 1.15000E+00 6.66667E-02-5.00000E-02
 -1      2707 5.00000E-02 8.33333E-02-5.00000E-02
 -1      2708 1.00000E-01 8.33333E-02-5.00000E-02
 -1      2709 1.50000E-01 8.33333E-02-5.00000E-02
 -1      2710 2.00000E-01 8.33333E-02-5.00000E-02
 -1      2711 2.50000E-01 8.33333E-02-5.00000E-02
 -1      2712 3.00000E-01 8.33333E-02-5.00000E-02
 -1      2713 3.50000E-01 8.33333E-02-5.00000E-02
 -1      2714 4.00000E-01 8.33333E-02-5.00000E-02
 -1      2715 4.50000E-01 8.33333E-02-5.00000E-02
 -1      2716 5.00000E-01 8.33333E-02-5.00000E-02
 -1      2717 5.50000E-01 8.33333E-02-5.00000E-02
 -1      2718 6.00000E-01 8.33333E-02-5.00000E-02
 -1      2719 6.50000E-01 8.33333E-02-5.00000E-02
 -1      2720 7.00000E-01 8.33333E-02-5.00000E-02
 -1      2721 7.50000E-01 8.33333E-02-5.00000E-02
 -1      2722 8.00000E-01 8.33333E-02-5.00000E-02
 -1      2723 8.50000E-01 8.33333E-02-5.00000E-02
 -1      2724 9.00000E-01 8.33333E-02-5.00000E-02
 -1      2725 9.50000E-01 8.33333E-02-5.00000E-02
 -1      2726 1.00000E+00 8.33333E-02-5.00000E-02
 -1      2727 1.05000E+00 8.33333E-02-5.00000E-02
 -1      2728 1.10000E+00 8.33333E-02-5.00000E-02
 -1      2729 1.15000E+00 8.33333E-02-5.00000E-02
 -1      2730 5.00000E-02 1.00000E-01-5.00000E-02
 -1      2731 1.00000E-01 1.00000E-01-5.00000E-02
 -1      2732 1.50000E-01 1.00000E-01-5.00000E-02
 -1      2733 2.00000E-01 1.00000E-01-5.00000E-02
 -1      2734 2.50000E-01 1.00000E-01-5.00000E-02
 -1      2735 3.00000E-01 1.00000E-01-5.00000E-02
 -1      2736 3.50000E-01 1.00000E-01-5.00000E-02
 -1      2737 4.00000E-01 1.00000E-01-5.00000E-02
 -1      2738 4.50000E-01 1.00000E-01-5.00000E-02
 -1      2739 5.00000E-01 1.00000E-01-5.00000E-02
 -1      2740 5.50000E-01 1.00000E-01-5.00000E-02
 -1      2741 6.00000E-01 1.00000E-01-5.00000E-02
 -1      2742 6.50000E-01 1.00000E-01-5.00000E-02
 -1      2743 7.00000E-01 1.00000E-01-5.00000E-02
 -1      2744 7.50000E-01 1.00000E-01-5.00000E-02
 -1      2745 8.00000E-01 1.00000E-01-5.00000E-02
 -1      2746 8.50000E-01 1.00000E-01-5.00000E-02
 -1      2747 9.00000E-01 1.00000E-01-5.00000E-02
 -1      2748 9.50000E-01 1.00000E-01-5.00000E-02
 -1      2749 1.00000E+00 1.00000E-01-5.00000E-02
 -1      2750 1.05000E+00 1.00000E-01-5.00000E-02
 -1      2751 1.10000E+00 1.00000E-01-5.00000E-02
 -1      2752 1.15000E+00 1.00000E-01-5.00000E-02
 -1      2753 5.00000E-02 1.16667E-01-5.00000E-02
 -1      2754 1.00000E-01 1.16667E-01-5.00000E-02
 -1      2755 1.50000E-01 1.16667E-01-5.00000E-02
 -1      2756 2.00000E-01 1.16667E-01-5.00000E-02
 -1      2757 2.50000E-01 1.16667E-01-5.00000E-02
 -1      2758 3.00000E-01 1.16667E-01-5.00000E-02
 -1      2759 3.50000E-01 1.16667E-01-5.00000E-02
 -1      2760 4.00000E-01 1.16667E-01-5.00000E-02
 -1      2761 4.50000E-01 1.16667E-01-5.00000E-02
 -1      2762 5.00000E-01 1.16667E-01-5.00000E-02
 -1      2763 5.50000E-01 1.16667E-01-5.00000E-02
 -1      2764 6.00000E-01 1.16667E-01-5.00000E-02
 -1      2765 6.50000E-01 1.16667E-01-5.00000E-02
 -1      2766 7.00000E-01 1.16667E-01-5.00000E-02
 -1      2767 7.50000E-01 1.16667E-01-5.00000E-02
 -1      2768 8.00000E-01 1.16667E-01-5.00000E-02
 -1      2769 8.50000E-01 1.16667E-01-5.00000E-02
 -1      2770 9.00000E-01 1.16667E-01-5.00000E-02
 -1      2771 9.50000E-01 1.16667E-01-5.00000E-02
 -1      2772 1.00000E+00 1.16667E-01-5.00000E-02
 -1      2773 1.05000E+00 1.16667E-01-5.00000E-02
 -1      2774 1.10000E+00 1.16667E-01-5.00000E-02
 -1      2775 1.15000E+00 1.16667E-01-5.00000E-02
 -1      2776 5.00000E-02 1.33333E-01-5.00000E-02
 -1      2777 1.00000E-01 1.33333E-01-5.00000E-02
 -1      2778 1.50000E-01 1.33333E-01-5.00000E-02
 -1      2779 2.00000E-01 1.33333E-01-5.00000E-02
 -1      2780 2.50000E-01 1.33333E-01-5.00000E-02
 -1      2781 3.00000E-01 1.33333E-01-5.00000E-02
 -1      2782 3.50000E-01 1.33333E-01-5.00000E-02
 -1      2783 4.00000E-01 1.33333E-01-5.00000E-02
 -1      2784 4.50000E-01 1.33333E-01-5.00000E-02
 -1      2785 5.00000E-01 1.33333E-01-5.00000E-02
 -1      2786 5.50000E-01 1.33333E-01-5.00000E-02
 -1      2787 6.00000E-01 1.33333E-01-5.00000E-02
 -1      2788 6.50000E-01 1.33333E-01-5.00000E-02
 -1      2789 7.00000E-01 1.33333E-01-5.00000E-02
 -1      2790 7.50000E-01 1.33333E-01-5.00000E-02
 -1      2791 8.00000E-01 1.33333E-01-5.00000E-02
 -1      2792 8.50000E-01 1.33333E-01-5.00000E-02
 -1      2793 9.00000E-01 1.33333E-01-5.00000E-02
 -1      2794 9.50000E-01 1.33333E-01-5.00000E-02
 -1      2795 1.00000E+00 1.33333E-01-5.00000E-02
 -1      2796 1.05000E+00 1.33333E-01-5.00000E-02
 -1      2797 1.10000E+00 1.33333E-01-5.00000E-02
 -1      2798 1.15000E+00 1.33333E-01-5.00000E-02
 -1      2799 5.00000E-02-3.33333E-02-3.33333E-02
 -1      2800 1.00000E-01-3.33333E-02-3.33333E-02
 -1      2801 1.50000E-01-3.33333E-02-3.33333E-02
 -1      2802 2.00000E-01-3.33333E-02-3.33333E-02
 -1      2803 2.50000E-01-3.33333E-02-3.33333E-02
 -1      2804 3.00000E-01-3.33333E-02-3.33333E-02
 -1      2805 3.50000E-01-3.33333E-02-3.33333E-02
 -1      2806 4.00000E-01-3.33333E-02-3.33333E-02
 -1      2807 4.50000E-01-3.33333E-02-3.33333E-02
 -1      2808 5.00000E-01-3.33333E-02-3.33333E-02
 -1      2809 5.50000E-01-3.33333E-02-3.33333E-02
 -1      2810 6.00000E-01-3.33333E-02-3.33333E-02
 -1      2811 6.50000E-01-3.33333E-02-3.33333E-02
 -1      2812 7.00000E-01-3.33333E-02-3.33333E-02
 -1      2813 7.50000E-01-3.33333E-02-3.33333E-02
 -1      2814 8.00000E-01-3.33333E-02-3.33333E-02
 -1      2815 8.50000E-01-3.33333E-02-3.33333E-02
 -1      2816 9.00000E-01-3.33333E-02-3.33333E-02
 -1      2817 9.50000E-01-3.33333E-02-3.33333E-02
 -1      2818 1.00000E+00-3.33333E-02-3.33333E-02
 -1      2819 1.05000E+00-3.33333E-02-3.33333E-02
 -1      2820 1.10000E+00-3.33333E-02-3.33333E-02
 -1      2821 1.15000E+00-3.33333E-02-3.33333E-02
 -1      2822 5.00000E-02-1.66667E-02-3.33333E-02
 -1      2823 1.00000E-01-1.66667E-02-3.33333E-02
 -1      2824 1.50000E-01-1.66667E-02-3.33333E-02
 -1      2825 2.00000E-01-1.66667E-02-3.33333E-02
 -1      2826 2.50000E-01-1.66667E-02-3.33333E-02
 -1      2827 3.00000E-01-1.66667E-02-3.33333E-02
 -1      2828 3.50000E-01-1.66667E-02-3.33333E-02
 -1      2829 4.00000E-01-1.66667E-02-3.33333E-02
 -1      2830 4.50000E-01-1.66667E-02-3.33333E-02
 -1      2831 5.00000E-01-1.66667E-02-3.33333E-02
 -1      2832 5.50000E-01-1.66667E-02-3.33333E-02
 -1      2833 6.00000E-01-1.66667E-02-3.33333E-02
 -1      2834 6.50000E-01-1.66667E-02-3.33333E-02
 -1      2835 7.00000E-01-1.66667E-02-3.33333E-02
 -1      2836 7.50000E-01-1.66667E-02-3.33333E-02
 -1      2837 8.00000E-01-1.66667E-02-3.33333E-02
 -1      2838 8.50000E-01-1.66667E-02-3.33333E-02
 -1      2839 9.00000E-01-1.66667E-02-3.33333E-02
 -1      2840 9.50000E-01-1.66667E-02-3.33333E-02
 -1      2841 1.00000E+00-1.66667E-02-3.33333E-02
 -1      2842 1.05000E+00-1.66667E-02-3.33333E-02
 -1      2843 1.10000E+00-1.66667E-02-3.33333E-02
 -1      2844 1.15000E+00-1.66667E-02-3.33333E-02
 -1      2845 5.00000E-02 2.08167E-17-3.33333E-02
 -1      2846 1.00000E-01 2.08167E-17-3.33333E-02
 -1      2847 1.50000E-01 2.08167E-17-3.33333E-02
 -1      2848 2.00000E-01 2.08167E-17-3.33333E-02
 -1      2849 2.50000E-01 2.08167E-17-3.33333E-02
 -1      2850 3.00000E-01 2.08167E-17-3.33333E-02
 -1      2851 3.50000E-01 2.08167E-17-3.33333E-02
 -1      2852 4.00000E-01 2.08167E-17-3.33333E-02
 -1      2853 4.50000E-01 2.08167E-17-3.33333E-02
 -1      2854 5.00000E-01 2.08167E-17-3.33333E-02
 -1      2855 5.50000E-01 2.08167E-17-3.33333E-02
 -1      2856 6.00000E-01 2.08167E-17-3.33333E-02
 -1      2857 6.50000E-01 2.08167E-17-3.33333E-02
 -1      2858 7.00000E-01 2.08167E-17-3.33333E-02
 -1      2859 7.50000E-01 2.08167E-17-3.33333E-02
 -1      2860 8.00000E-01 2.08167E-17-3.33333E-02
 -1      2861 8.50000E-01 2.08167E-17-3.33333E-02
 -1      2862 9.00000E-01 2.08167E-17-3.33333E-02
 -1      2863 9.50000E-01 2.08167E-17-3.33333E-02
 -1      2864 1.00000E+00 2.08167E-17-3.33333E-02
 -1      2865 1.05000E+00 2.08167E-17-3.33333E-02
 -1      2866 1.10000E+00 2.08167E-17-3.33333E-02
 -1      2867 1.15000E+00 2.08167E-17-3.33333E-02
 -1      2868 5.00000E-02 1.66667E-02-3.33333E-02
 -1      2869 1.00000E-01 1.66667E-02-3.33333E-02
 -1      2870 1.50000E-01 1.66667E-02-3.33333E-02
 -1      2871 2.00000E-01 1.66667E-02-3.33333E-02
 -1      2872 2.50000E-01 1.66667E-02-3.33333E-02
 -1      2873 3.00000E-01 1.66667E-02-3.33333E-02
 -1      2874 3.50000E-01 1.66667E-02-3.33333E-02
 -1      2875 4.00000E-01 1.66667E-02-3.33333E-02
 -1      2876 4.50000E-01 1.66667E-02-3.33333E-02
 -1      2877 5.00000E-01 1.66667E-02-3.33333E-02
 -1      2878 5.50000E-01 1.66667E-02-3.33333E-02
 -1      2879 6.00000E-01 1.66667E-02-3.33333E-02
 -1      2880 6.50000E-01 1.66667E-02-3.33333E-02
 -1      2881 7.00000E-01 1.66667E-02-3.33333E-02
 -1      2882 7.50000E-01 1.66667E-02-3.33333E-02
 -1      2883 8.00000E-01 1.66667E-02-3.33333E-02
 -1      2884 8.50000E-01 1.66667E-02-3.33333E-02
 -1      2885 9.00000E-01 1.66667E-02-3.33333E-02
 -1      2886 9.50000E-01 1.66667E-02-3.33333E-02
 -1      2887 1.00000E+00 1.66667E-02-3.33333E-02
 -1      2888 1.05000E+00 1.66667E-02-3.33333E-02
 -1      2889 1.10000E+00 1.66667E-02-3.33333E-02
 -1      2890 1.15000E+00 1.66667E-02-3.33333E-02
 -1      2891 5.00000E-02 3.33333E-02-3.33333E-02
 -1      2892 1.00000E-01 3.33333E-02-3.33333E-02
 -1      2893 1.50000E-01 3.33333E-02-3.33333E-02
 -1      2894 2.00000E-01 3.33333E-02-3.33333E-02
 -1      2895 2.50000E-01 3.33333E-02-3.33333E-02
 -1      2896 3.00000E-01 3.33333E-02-3.33333E-02
 -1      2897 3.50000E-01 3.33333E-02-3.33333E-02
 -1      2898 4.00000E-01 3.33333E-02-3.33333E-02
 -1      2899 4.50000E-01 3.33333E-02-3.33333E-02
 -1      2900 5.00000E-01 3.33333E-02-3.33333E-02
 -1      2901 5.50000E-01 3.33333E-02-3.33333E-02
 -1      2902 6.00000E-01 3.33333E-02-3.33333E-02
 -1      2903 6.50000E-01 3.33333E-02-3.33333E-02
 -1      2904 7.00000E-01 3.33333E-02-3.33333E-02
 -1      2905 7.50000E-01 3.33333E-02-3.33333E-02
 -1      2906 8.00000E-01 3.33333E-02-3.33333E-02
 -1      2907 8.50000E-01 3.33333E-02-3.33333E-02
 -1      2908 9.00000E-01 3.33333E-02-3.33333E-02
 -1      2909 9.50000E-01 3.33333E-02-3.33333E-02
 -1      2910 1.00000E+00 3.33333E-02-3.33333E-02
 -1      2911 1.05000E+00 3.33333E-02-3.33333E-02
 -1      2912 1.10000E+00 3.33333E-02-3.33333E-02
 -1      2913 1.15000E+00 3.33333E-02-3.33333E-02
 -1      2914 5.00000E-02 5.00000E-02-3.33333E-02
 -1      2915 1.00000E-01 5.00000E-02-3.33333E-02
 -1      2916 1.50000E-01 5.00000E-02-3.33333E-02
 -1      2917 2.00000E-01 5.00000E-02-3.33333E-02
 -1      2918 2.50000E-01 5.00000E-02-3.33333E-02
 -1      2919 3.00000E-01 5.00000E-02-3.33333E-02
 -1      2920 3.50000E-01 5.00000E-02-3.33333E-02
 -1      2921 4.00000E-01 5.00000E-02-3.33333E-02
 -1      2922 4.50000E-01 5.00000E-02-3.33333E-02
 -1      2923 5.00000E-01 5.00000E-02-3.33333E-02
 -1      2924 5.50000E-01 5.00000E-02-3.33333E-02
 -1      2925 6.00000E-01 5.00000E-02-3.33333E-02
 -1      2926 6.50000E-01 5.00000E-02-3.33333E-02
 -1      2927 7.00000E-01 5.00000E-02-3.33333E-02
 -1      2928 7.50000E-01 5.00000E-02-3.33333E-02
 -1      2929 8.00000E-01 5.00000E-02-3.33333E-02
 -1      2930 8.50000E-01 5.00000E-02-3.33333E-02
 -1      2931 9.00000E-01 5.00000E-02-3.33333E-02
 -1      2932 9.50000E-01 5.00000E-02-3.33333E-02
 -1      2933 1.00000E+00 5.00000E-02-3.33333E-02
 -1      2934 1.05000E+00 5.00000E-02-3.33333E-02
 -1      2935 1.10000E+00 5.00000E-02-3.33333E-02
 -1      2936 1.15000E+00 5.00000E-02-3.33333E-02
 -1      2937 5.00000E-02 6.66667E-02-3.33333E-02
 -1      2938 1.00000E-01 6.66667E-02-3.33333E-02
 -1      2939 1.50000E-01 6.66667E-02-3.33333E-02
 -1      2940 2.00000E-01 6.66667E-02-3.33333E-02
 -1      2941 2.50000E-01 6.66667E-02-3.33333E-02
 -1      2942 3.00000E-01 6.66667E-02-3.33333E-02
 -1      2943 3.50000E-01 6.66667E-02-3.33333E-02
 -1      2944 4.00000E-01 6.66667E-02-3.33333E-02
 -1      2945 4.50000E-01 6.66667E-02-3.33333E-02
 -1      2946 5.00000E-01 6.66667E-02-3.33333E-02
 -1      2947 5.50000E-01 6.66667E-02-3.33333E-02
 -1      2948 6.00000E-01 6.66667E-02-3.33333E-02
 -1      2949 6.50000E-01 6.66667E-02-3.33333E-02
 -1      2950 7.00000E-01 6.66667E-02-3.33333E-02
 -1      2951 7.50000E-01 6.66667E-02-3.33333E-02
 -1      2952 8.00000E-01 6.66667E-02-3.33333E-02
 -1      2953 8.50000E-01 6.66667E-02-3.33333E-02
 -1      2954 9.00000E-01 6.66667E-02-3.33333E-02
 -1      2955 9.50000E-01 6.66667E-02-3.33333E-02
 -1      2956 1.00000E+00 6.66667E-02-3.33333E-02
 -1      2957 1.05000E+00 6.66667E-02-3.33333E-02
 -1      2958 1.10000E+00 6.66667E-02-3.33333E-02
 -1      2959 1.15000E+00 6.66667E-02-3.33333E-02
 -1      2960 5.00000E-02 8.33333E-02-3.33333E-02
 -1      2961 1.00000E-01 8.33333E-02-3.33333E-02
 -1      2962 1.50000E-01 8.33333E-02-3.33333E-02
 -1      2963 2.00000E-01 8.33333E-02-3.33333E-02
 -1      2964 2.50000E-01 8.33333E-02-3.33333E-02
 -1      2965 3.00000E-01 8.33333E-02-3.33333E-02
 -1      2966 3.50000E-01 8.33333E-02-3.33333E-02
 -1      2967 4.00000E-01 8.33333E-02-3.33333E-02
 -1      2968 4.50000E-01 8.33333E-02-3.33333E-02
 -1      2969 5.00000E-01 8.33333E-02-3.33333E-02
 -1      2970 5.50000E-01 8.33333E-02-3.33333E-02
 -1      2971 6.00000E-01 8.33333E-02-3.33333E-02
 -1      2972 6.50000E-01 8.33333E-02-3.33333E-02
 -1      2973 7.00000E-01 8.33333E-02-3.33333E-02
 -1      2974 7.50000E-01 8.33333E-02-3.33333E-02
 -1      2975 8.00000E-01 8.33333E-02-3.33333E-02
 -1      2976 8.50000E-01 8.33333E-02-3.33333E-02
 -1      2977 9.00000E-01 8.33333E-02-3.33333E-02
 -1      2978 9.50000E-01 8.33333E-02-3.33333E-02
 -1      2979 1.00000E+00 8.33333E-02-3.33333E-02
 -1      2980 1.05000E+00 8.33333E-02-3.33333E-02
 -1      2981 1.10000E+00 8.33333E-02-3.33333E-02
 -1      2982 1.15000E+00 8.33333E-02-3.33333E-02
 -1      2983 5.00000E-02 1.00000E-01-3.33333E-02
 -1      2984 1.00000E-01 1.00000E-01-3.33333E-02
 -1      2985 1.50000E-01 1.00000E-01-3.33333E-02
 -1      2986 2.00000E-01 1.00000E-01-3.33333E-02
 -1      2987 2.50000E-01 1.00000E-01-3.33333E-02
 -1      2988 3.00000E-01 1.00000E-01-3.33333E-02
 -1      2989 3.50000E-01 1.00000E-01-3.33333E-02
 -1      2990 4.00000E-01 1.00000E-01-3.33333E-02
 -1      2991 4.50000E-01 1.00000E-01-3.33333E-02
 -1      2992 5.00000E-01 1.00000E-01-3.33333E-02
 -1      2993 5.50000E-01 1.00000E-01-3.33333E-02
 -1      2994 6.00000E-01 1.00000E-01-3.33333E-02
 -1      2995 6.50000E-01 1.00000E-01-3.33333E-02
 -1      2996 7.00000E-01 1.00000E-01-3.33333E-02
 -1      2997 7.50000E-01 1.00000E-01-3.33333E-02
 -1      2998 8.00000E-01 1.00000E-01-3.33333E-02
 -1      2999 8.50000E-01 1.00000E-01-3.33333E-02
 -1      3000 9.00000E-01 1.00000E-01-3.33333E-02
 -1      3001 9.50000E-01 1.00000E-01-3.33333E-02
 -1      3002 1.00000E+00 1.00000E-01-3.33333E-02
 -1      3003 1.05000E+00 1.00000E-01-3.33333E-02
 -1      3004 1.10000E+00 1.00000E-01-3.33333E-02
 -1      3005 1.15000E+00 1.00000E-01-3.33333E-02
 -1      3006 5.00000E-02 1.16667E-01-3.33333E-02
 -1      3007 1.00000E-01 1.16667E-01-3.33333E-02
 -1      3008 1.50000E-01 1.16667E-01-3.33333E-02
 -1      3009 2.00000E-01 1.16667E-01-3.33333E-02
 -1      3010 2.50000E-01 1.16667E-01-3.33333E-02
 -1      3011 3.00000E-01 1.16667E-01-3.33333E-02
 -1      3012 3.50000E-01 1.16667E-01-3.33333E-02
 -1      3013 4.00000E-01 1.16667E-01-3.33333E-02
 -1      3014 4.50000E-01 1.16667E-01-3.33333E-02
 -1      3015 5.00000E-01 1.16667E-01-3.33333E-02
 -1      3016 5.50000E-01 1.16667E-01-3.33333E-02
 -1      3017 6.00000E-01 1.16667E-01-3.33333E-02
 -1      3018 6.50000E-01 1.16667E-01-3.33333E-02
 -1      3019 7.00000E-01 1.16667E-01-3.33333E-02
 -1      3020 7.50000E-01 1.16667E-01-3.33333E-02
 -1      3021 8.00000E-01 1.16667E-01-3.33333E-02
 -1      3022 8.50000E-01 1.16667E-01-3.33333E-02
 -1      3023 9.00000E-01 1.16667E-01-3.33333E-02
 -1      3024 9.50000E-01 1.16667E-01-3.33333E-02
 -1      3025 1.00000E+00 1.16667E-01-3.33333E-02
 -1      3026 1.05000E+00 1.16667E-01-3.33333E-02
 -1      3027 1.10000E+00 1.16667E-01-3.33333E-02
 -1      3028 1.15000E+00 1.16667E-01-3.33333E-02
 -1      3029 5.00000E-02 1.33333E-01-3.33333E-02
 -1      3030 1.00000E-01 1.33333E-01-3.33333E-02
 -1      3031 1.50000E-01 1.33333E-01-3.33333E-02
 -1      3032 2.00000E-01 1.33333E-01-3.33333E-02
 -1      3033 2.50000E-01 1.33333E-01-3.33333E-02
 -1      3034 3.00000E-01 1.33333E-01-3.33333E-02
 -1      3035 3.50000E-01 1.33333E-01-3.33333E-02
 -1      3036 4.00000E-01 1.33333E-01-3.33333E-02
 -1      3037 4.50000E-01 1.33333E-01-3.33333E-02
 -1      3038 5.00000E-01 1.33333E-01-3.33333E-02
 -1      3039 5.50000E-01 1.33333E-01-3.33333E-02
 -1      3040 6.00000E-01 1.33333E-01-3.33333E-02
 -1      3041 6.50000E-01 1.33333E-01-3.33333E-02
 -1      3042 7.00000E-01 1.33333E-01-3.33333E-02
 -1      3043 7.50000E-01 1.33333E-01-3.33333E-02
 -1      3044 8.00000E-01 1.33333E-01-3.33333E-02
 -1      3045 8.50000E-01 1.33333E-01-3.33333E-02
 -1      3046 9.00000E-01 1.33333E-01-3.33333E-02
 -1      3047 9.50000E-01 1.33333E-01-3.33333E-02
 -1      3048 1.00000E+00 1.33333E-01-3.33333E-02
 -1      3049 1.05000E+00 1.33333E-01-3.33333E-02
 -1      3050 1.10000E+00 1.33333E-01-3.33333E-02
 -1      3051 1.15000E+00 1.33333E-01-3.33333E-02
 -1      3052 5.00000E-02-3.33333E-02-1.66667E-02
 -1      3053 1.00000E-01-3.33333E-02-1.66667E-02
 -1      3054 1.50000E-01-3.33333E-02-1.66667E-02
 -1      3055 2.00000E-01-3.33333E-02-1.66667E-02
 -1      3056 2.50000E-01-3.33333E-02-1.66667E-02
 -1      3057 3.00000E-01-3.33333E-02-1.66667E-02
 -1      3058 3.50000E-01-3.33333E-02-1.66667E-02
 -1      3059 4.00000E-01-3.33333E-02-1.66667E-02
 -1      3060 4.50000E-01-3.33333E-02-1.66667E-02
 -1      3061 5.00000E-01-3.33333E-02-1.66667E-02
 -1      3062 5.50000E-01-3.33333E-02-1.66667E-02
 -1      3063 6.00000E-01-3.33333E-02-1.66667E-02
 -1      3064 6.50000E-01-3.33333E-02-1.66667E-02
 -1      3065 7.00000E-01-3.33333E-02-1.66667E-02
 -1      3066 7.50000E-01-3.33333E-02-1.66667E-02
 -1      3067 8.00000E-01-3.33333E-02-1.66667E-02
 -1      3068 8.50000E-01-3.33333E-02-1.66667E-02
 -1      3069 9.00000E-01-3.33333E-02-1.66667E-02
 -1      3070 9.50000E-01-3.33333E-02-1.66667E-02
 -1      3071 1.00000E+00-3.33333E-02-1.66667E-02
 -1      3072 1.05000E+00-3.33333E-02-1.66667E-02
 -1      3073 1.10000E+00-3.33333E-02-1.66667E-02
 -1      3074 1.15000E+00-3.33333E-02-1.66667E-02
 -1      3075 5.00000E-02-1.66667E-02-1.66667E-02
 -1      3076 1.00000E-01-1.66667E-02-1.66667E-02
 -1      3077 1.50000E-01-1.66667E-02-1.66667E-02
 -1      3078 2.00000E-01-1.66667E-02-1.66667E-02
 -1      3079 2.50000E-01-1.66667E-02-1.66667E-02
 -1      3080 3.00000E-01-1.66667E-02-1.66667E-02
 -1      3081 3.50000E-01-1.66667E-02-1.66667E-02
 -1      3082 4.00000E-01-1.66667E-02-1.66667E-02
 -1      3083 4.50000E-01-1.66667E-02-1.66667E-02
 -1      3084 5.00000E-01-1.66667E-02-1.66667E-02
 -1      3085 5.50000E-01-1.66667E-02-1.66667E-02
 -1      3086 6.00000E-01-1.66667E-02-1.66667E-02
 -1      3087 6.50000E-01-1.66667E-02-1.66667E-02
 -1      3088 7.00000E-01-1.66667E-02-1.66667E-02
 -1      3089 7.50000E-01-1.66667E-02-1.66667E-02
 -1      3090 8.00000E-01-1.66667E-02-1.66667E-02
 -1      3091 8.50000E-01-1.66667E-02-1.66667E-02
 -1      3092 9.00000E-01-1.66667E-02-1.66667E-02
 -1      3093 9.50000E-01-1.66667E-02-1.66667E-02
 -1      3094 1.00000E+00-1.66667E-02-1.66667E-02
 -1      3095 1.05000E+00-1.66667E-02-1.66667E-02
 -1      3096 1.10000E+00-1.66667E-02-1.66667E-02
 -1      3097 1.15000E+00-1.66667E-02-1.66667E-02
 -1      3098 5.00000E-02 2.08167E-17-1.66667E-02
 -1      3099 1.00000E-01 2.08167E-17-1.66667E-02
 -1      3100 1.50000E-01 2.08167E-17-1.66667E-02
 -1      3101 2.00000E-01 2.08167E-17-1.66667E-02
 -1      3102 2.50000E-01 2.08167E-17-1.66667E-02
 -1      3103 3.00000E-01 2.08167E-17-1.66667E-02
 -1      3104 3.50000E-01 2.08167E-17-1.66667E-02
 -1      3105 4.00000E-01 2.08167E-17-1.66667E-02
 -1      3106 4.50000E-01 2.08167E-17-1.66667E-02
 -1      3107 5.00000E-01 2.08167E-17-1.66667E-02
 -1      3108 5.50000E-01 2.08167E-17-1.66667E-02
 -1      3109 6.00000E-01 2.08167E-17-1.66667E-02
 -1      3110 6.50000E-01 2.08167E-17-1.66667E-02
 -1      3111 7.00000E-01 2.08167E-17-1.66667E-02
 -1      3112 7.50000E-01 2.08167E-17-1.66667E-02
 -1      3113 8.00000E-01 2.08167E-17-1.66667E-02
 -1      3114 8.50000E-01 2.08167E-17-1.66667E-02
 -1      3115 9.00000E-01 2.08167E-17-1.66667E-02
 -1      3116 9.50000E-01 2.08167E-17-1.66667E-02
 -1      3117 1.00000E+00 2.08167E-17-1.66667E-02
 -1      3118 1.05000E+00 2.08167E-17-1.66667E-02
 -1      3119 1.10000E+00 2.08167E-17-1.66667E-02
 -1      3120 1.15000E+00 2.08167E-17-1.66667E-02
 -1      3121 5.00000E-02 1.66667E-02-1.66667E-02
 -1      3122 1.00000E-01 1.66667E-02-1.66667E-02
 -1      3123 1.50000E-01 1.66667E-02-1.66667E-02
 -1      3124 2.00000E-01 1.66667E-02-1.66667E-02
 -1      3125 2.50000E-01 1.66667E-02-1.66667E-02
 -1      3126 3.00000E-01 1.66667E-02-1.66667E-02
 -1      3127 3.50000E-01 1.66667E-02-1.66667E-02
 -1      3128 4.00000E-01 1.66667E-02-1.66667E-02
 -1      3129 4.50000E-01 1.66667E-02-1.66667E-02
 -1      3130 5.00000E-01 1.66667E-02-1.66667E-02
 -1      3131 5.50000E-01 1.66667E-02-1.66667E-02
 -1      3132 6.00000E-01 1.66667E-02-1.66667E-02
 -1      3133 6.50000E-01 1.66667E-02-1.66667E-02
 -1      3134 7.00000E-01 1.66667E-02-1.66667E-02
 -1      3135 7.50000E-01 1.66667E-02-1.66667E-02
 -1      3136 8.00000E-01 1.66667E-02-1.66667E-02
 -1      3137 8.50000E-01 1.66667E-02-1.66667E-02
 -1      3138 9.00000E-01 1.66667E-02-1.66667E-02
 -1      3139 9.50000E-01 1.66667E-02-1.66667E-02
 -1      3140 1.00000E+00 1.66667E-02-1.66667E-02
 -1      3141 1.05000E+00 1.66667E-02-1.66667E-02
 -1      3142 1.10000E+00 1.66667E-02-1.66667E-02
 -1      3143 1.15000E+00 1.66667E-02-1.66667E-02
 -1      3144 5.00000E-02 3.33333E-02-1.66667E-02
 -1      3145 1.00000E-01 3.33333E-02-1.66667E-02
 -1      3146 1.50000E-01 3.33333E-02-1.66667E-02
 -1      3147 2.00000E-01 3.33333E-02-1.66667E-02
 -1      3148 2.50000E-01 3.33333E-02-1.66667E-02
 -1      3149 3.00000E-01 3.33333E-02-1.66667E-02
 -1      3150 3.50000E-01 3.33333E-02-1.66667E-02
 -1      3151 4.00000E-01 3.33333E-02-1.66667E-02
 -1      3152 4.50000E-01 3.33333E-02-1.66667E-02
 -1      3153 5.00000E-01 3.33333E-02-1.66667E-02
 -1      3154 5.50000E-01 3.33333E-02-1.66667E-02
 -1      3155 6.00000E-01 3.33333E-02-1.66667E-02
 -1      3156 6.50000E-01 3.33333E-02-1.66667E-02
 -1      3157 7.00000E-01 3.33333E-02-1.66667E-02
 -1      3158 7.50000E-01 3.33333E-02-1.66667E-02
 -1      3159 8.00000E-01 3.33333E-02-1.66667E-02
 -1      3160 8.50000E-01 3.33333E-02-1.66667E-02
 -1      3161 9.00000E-01 3.33333E-02-1.66667E-02
 -1      3162 9.50000E-01 3.33333E-02-1.66667E-02
 -1      3163 1.00000E+00 3.33333E-02-1.66667E-02
 -1      3164 1.05000E+00 3.33333E-02-1.66667E-02
 -1      3165 1.10000E+00 3.33333E-02-1.66667E-02
 -1      3166 1.15000E+00 3.33333E-02-1.66667E-02
 -1      3167 5.00000E-02 5.00000E-02-1.66667E-02
 -1      3168 1.00000E-01 5.00000E-02-1.66667E-02
 -1      3169 1.50000E-01 5.00000E-02-1.66667E-02
 -1      3170 2.00000E-01 5.00000E-02-1.66667E-02
 -1      3171 2.50000E-01 5.00000E-02-1.66667E-02
 -1      3172 3.00000E-01 5.00000E-02-1.66667E-02
 -1      3173 3.50000E-01 5.00000E-02-1.66667E-02
 -1      3174 4.00000E-01 5.00000E-02-1.66667E-02
 -1      3175 4.50000E-01 5.00000E-02-1.66667E-02
 -1      3176 5.00000E-01 5.00000E-02-1.66667E-02
 -1      3177 5.50000E-01 5.00000E-02-1.66667E-02
 -1      3178 6.00000E-01 5.00000E-02-1.66667E-02
 -1      3179 6.50000E-01 5.00000E-02-1.66667E-02
 -1      3180 7.00000E-01 5.00000E-02-1.66667E-02
 -1      3181 7.50000E-01 5.00000E-02-1.66667E-02
 -1      3182 8.00000E-01 5.00000E-02-1.66667E-02
 -1      3183 8.50000E-01 5.00000E-02-1.66667E-02
 -1      3184 9.00000E-01 5.00000E-02-1.66667E-02
 -1      3185 9.50000E-01 5.00000E-02-1.66667E-02
 -1      3186 1.00000E+00 5.00000E-02-1.66667E-02
 -1      3187 1.05000E+00 5.00000E-02-1.66667E-02
 -1      3188 1.10000E+00 5.00000E-02-1.66667E-02
 -1      3189 1.15000E+00 5.00000E-02-1.66667E-02
 -1      3190 5.00000E-02 6.66667E-02-1.66667E-02
 -1      3191 1.00000E-01 6.66667E-02-1.66667E-02
 -1      3192 1.50000E-01 6.66667E-02-1.66667E-02
 -1      3193 2.00000E-01 6.66667E-02-1.66667E-02
 -1      3194 2.50000E-01 6.66667E-02-1.66667E-02
 -1      3195 3.00000E-01 6.66667E-02-1.66667E-02
 -1      3196 3.50000E-01 6.66667E-02-1.66667E-02
 -1      3197 4.00000E-01 6.66667E-02-1.66667E-02
 -1      3198 4.50000E-01 6.66667E-02-1.66667E-02
 -1      3199 5.00000E-01 6.66667E-02-1.66667E-02
 -1      3200 5.50000E-01 6.66667E-02-1.66667E-02
 -1      3201 6.00000E-01 6.66667E-02-1.66667E-02
 -1      3202 6.50000E-01 6.66667E-02-1.66667E-02
 -1      3203 7.00000E-01 6.66667E-02-1.66667E-02
 -1      3204 7.50000E-01 6.66667E-02-1.66667E-02
 -1      3205 8.00000E-01 6.66667E-02-1.66667E-02
 -1      3206 8.50000E-01 6.66667E-02-1.66667E-02
 -1      3207 9.00000E-01 6.66667E-02-1.66667E-02
 -1      3208 9.50000E-01 6.66667E-02-1.66667E-02
 -1      3209 1.00000E+00 6.66667E-02-1.66667E-02
 -1      3210 1.05000E+00 6.66667E-02-1.66667E-02
 -1      3211 1.10000E+00 6.66667E-02-1.66667E-02
 -1      3212 1.15000E+00 6.66667E-02-1.66667E-02
 -1      3213 5.00000E-02 8.33333E-02-1.66667E-02
 -1      3214 1.00000E-01 8.33333E-02-1.66667E-02
 -1      3215 1.50000E-01 8.33333E-02-1.66667E-02
 -1      3216 2.00000E-01 8.33333E-02-1.66667E-02
 -1      3217 2.50000E-01 8.33333E-02-1.66667E-02
 -1      3218 3.00000E-01 8.33333E-02-1.66667E-02
 -1      3219 3.50000E-01 8.33333E-02-1.66667E-02
 -1      3220 4.00000E-01 8.33333E-02-1.66667E-02
 -1      3221 4.50000E-01 8.33333E-02-1.66667E-02
 -1      3222 5.00000E-01 8.33333E-02-1.66667E-02
 -1      3223 5.50000E-01 8.33333E-02-1.66667E-02
 -1      3224 6.00000E-01 8.33333E-02-1.66667E-02
 -1      3225 6.50000E-01 8.33333E-02-1.66667E-02
 -1      3226 7.00000E-01 8.33333E-02-1.66667E-02
 -1      3227 7.50000E-01 8.33333E-02-1.66667E-02
 -1      3228 8.00000E-01 8.33333E-02-1.66667E-02
 -1      3229 8.50000E-01 8.33333E-02-1.66667E-02
 -1      3230 9.00000E-01 8.33333E-02-1.66667E-02
 -1      3231 9.50000E-01 8.33333E-02-1.66667E-02
 -1      3232 1.00000E+00 8.33333E-02-1.66667E-02
 -1      3233 1.05000E+00 8.33333E-02-1.66667E-02
 -1      3234 1.10000E+00 8.33333E-02-1.66667E-02
 -1      3235 1.15000E+00 8.33333E-02-1.66667E-02
 -1      3236 5.00000E-02 1.00000E-01-1.66667E-02
 -1      3237 1.00000E-01 1.00000E-01-1.66667E-02
 -1      3238 1.50000E-01 1.00000E-01-1.66667E-02
 -1      3239 2.00000E-01 1.00000E-01-1.66667E-02
 -1      3240 2.50000E-01 1.00000E-01-1.66667E-02
 -1      3241 3.00000E-01 1.00000E-01-1.66667E-02
 -1      3242 3.50000E-01 1.00000E-01-1.66667E-02
 -1      3243 4.00000E-01 1.00000E-01-1.66667E-02
 -1      3244 4.50000E-01 1.00000E-01-1.66667E-02
 -1      3245 5.00000E-01 1.00000E-01-1.66667E-02
 -1      3246 5.50000E-01 1.00000E-01-1.66667E-02
 -1      3247 6.00000E-01 1.00000E-01-1.66667E-02
 -1      3248 6.50000E-01 1.00000E-01-1.66667E-02
 -1      3249 7.00000E-01 1.00000E-01-1.66667E-02
 -1      3250 7.50000E-01 1.00000E-01-1.66667E-02
 -1      3251 8.00000E-01 1.00000E-01-1.66667E-02
 -1      3252 8.50000E-01 1.00000E-01-1.66667E-02
 -1      3253 9.00000E-01 1.00000E-01-1.66667E-02
 -1      3254 9.50000E-01 1.00000E-01-1.66667E-02
 -1      3255 1.00000E+00 1.00000E-01-1.66667E-02
 -1      3256 1.05000E+00 1.00000E-01-1.66667E-02
 -1      3257 1.10000E+00 1.00000E-01-1.66667E-02
 -1      3258 1.15000E+00 1.00000E-01-1.66667E-02
 -1      3259 5.00000E-02 1.16667E-01-1.66667E-02
 -1      3260 1.00000E-01 1.16667E-01-1.66667E-02
 -1      3261 1.50000E-01 1.16667E-01-1.66667E-02
 -1      3262 2.00000E-01 1.16667E-01-1.66667E-02
 -1      3263 2.50000E-01 1.16667E-01-1.66667E-02
 -1      3264 3.00000E-01 1.16667E-01-1.66667E-02
 -1      3265 3.50000E-01 1.16667E-01-1.66667E-02
 -1      3266 4.00000E-01 1.16667E-01-1.66667E-02
 -1      3267 4.50000E-01 1.16667E-01-1.66667E-02
 -1      3268 5.00000E-01 1.16667E-01-1.66667E-02
 -1      3269 5.50000E-01 1.16667E-01-1.66667E-02
 -1      3270 6.00000E-01 1.16667E-01-1.66667E-02
 -1      3271 6.50000E-01 1.16667E-01-1.66667E-02
 -1      3272 7.00000E-01 1.16667E-01-1.66667E-02
 -1      3273 7.50000E-01 1.16667E-01-1.66667E-02
 -1      3274 8.00000E-01 1.16667E-01-1.66667E-02
 -1      3275 8.50000E-01 1.16667E-01-1.66667E-02
 -1      3276 9.00000E-01 1.16667E-01-1.66667E-02
 -1      3277 9.50000E-01 1.16667E-01-1.66667E-02
 -1      3278 1.00000E+00 1.16667E-01-1.66667E-02
 -1      3279 1.05000E+00 1.16667E-01-1.66667E-02
 -1      3280 1.10000E+00 1.16667E-01-1.66667E-02
 -1      3281 1.15000E+00 1.16667E-01-1.66667E-02
 -1      3282 5.00000E-02 1.33333E-01-1.66667E-02
 -1      3283 1.00000E-01 1.33333E-01-1.66667E-02
 -1      3284 1.50000E-01 1.33333E-01-1.66667E-02
 -1      3285 2.00000E-01 1.33333E-01-1.66667E-02
 -1      3286 2.50000E-01 1.33333E-01-1.66667E-02
 -1      3287 3.00000E-01 1.33333E-01-1.66667E-02
 -1      3288 3.50000E-01 1.33333E-01-1.66667E-02
 -1      3289 4.00000E-01 1.33333E-01-1.66667E-02
 -1      3290 4.50000E-01 1.33333E-01-1.66667E-02
 -1      3291 5.00000E-01 1.33333E-01-1.66667E-02
 -1      3292 5.50000E-01 1.33333E-01-1.66667E-02
 -1      3293 6.00000E-01 1.33333E-01-1.66667E-02
 -1      3294 6.50000E-01 1.33333E-01-1.66667E-02
 -1      3295 7.00000E-01 1.33333E-01-1.66667E-02
 -1      3296 7.50000E-01 1.33333E-01-1.66667E-02
 -1      3297 8.00000E-01 1.33333E-01-1.66667E-02
 -1      3298 8.50000E-01 1.33333E-01-1.66667E-02
 -1      3299 9.00000E-01 1.33333E-01-1.66667E-02
 -1      3300 9.50000E-01 1.33333E-01-1.66667E-02
 -1      3301 1.00000E+00 1.33333E-01-1.66667E-02
 -1      3302 1.05000E+00 1.33333E-01-1.66667E-02
 -1      3303 1.10000E+00 1.33333E-01-1.66667E-02
 -1      3304 1.15000E+00 1.33333E-01-1.66667E-02
 -3
    3C                          2448                                     1
 -1         1    1    0    1
 -2         1        99       365         3        15       137       555        17
 -1         2    1    0    1
 -2        99       101       367       365       137       139       556       555
 -1         3    1    0    1
 -2       101       103       369       367       139       141       557       556
 -1         4    1    0    1
 -2       103       105       371       369       141       143       558       557
 -1         5    1    0    1
 -2       105       107       373       371       143       145       559       558
 -1         6    1    0    1
 -2       107       109       375       373       145       147       560       559
 -1         7    1    0    1
 -2       109       111       377       375       147       149       561       560
 -1         8    1    0    1
 -2       111       113       379       377       149       151       562       561
 -1         9    1    0    1
 -2       113       115       381       379       151       153       563       562
 -1        10    1    0    1
 -2       115       117       383       381       153       155       564       563
 -1        11    1    0    1
 -2       117       119       385       383       155       157       565       564
 -1        12    1    0    1
 -2       119       121       387       385       157       159       566       565
 -1        13    1    0    1
 -2       121       123       389       387       159       161       567       566
 -1        14    1    0    1
 -2       123       125       391       389       161       163       568       567
 -1        15    1    0    1
 -2       125       127       393       391       163       165       569       568
 -1        16    1    0    1
 -2       127       129       395       393       165       167       570       569
 -1        17    1    0    1
 -2       129       131       397       395       167       169       571       570
 -1        18    1    0    1
 -2       131       133       399       397       169       171       572       571
 -1        19    1    0    1
 -2       133       135       401       399       171       173       573       572
 -1        20    1    0    1
 -2       135         2         4       401       173        16        18       573
 -1        21    1    0    1
 -2         3       365       403         5        17       555       574        19
 -1        22    1    0    1
 -2       365       367       405       403       555       556       575       574
 -1        23    1    0    1
 -2       367       369       407       405       556       557       576       575
 -1        24    1    0    1
 -2       369       371       409       407       557       558       577       576
 -1        25    1    0    1
 -2       371       373       411       409       558       559       578       577
 -1        26    1    0    1
 -2       373       375       413       411       559       560       579       578
 -1        27    1    0    1
 -2       375       377       415       413       560       561       580       579
 -1        28    1    0    1
 -2       377       379       417       415       561       562       581       580
 -1        29    1    0    1
 -2       379       381       419       417       562       563       582       581
 -1        30    1    0    1
 -2       381       383       421       419       563       564       583       582
 -1        31    1    0    1
 -2       383       385       423       421       564       565       584       583
 -1        32    1    0    1
 -2       385       387       425       423       565       566       585       584
 -1        33    1    0    1
 -2       387       389       427       425       566       567       586       585
 -1        34    1    0    1
 -2       389       391       429       427       567       568       587       586
 -1        35    1    0    1
 -2       391       393       431       429       568       569       588       587
 -1        36    1    0    1
 -2       393       395       433       431       569       570       589       588
 -1        37    1    0    1
 -2       395       397       435       433       570       571       590       589
 -1        38    1    0    1
 -2       397       399       437       435       571       572       591       590
 -1        39    1    0    1
 -2       399       401       439       437       572       573       592       591
 -1        40    1    0    1
 -2       401         4         6       439       573        18        20       592
 -1        41    1    0    1
 -2         5       403       441         7        19       574       593        21
 -1        42    1    0    1
 -2       403       405       443       441       574       575       594       593
 -1        43    1    0    1
 -2       405       407       445       443       575       576       595       594
 -1        44    1    0    1
 -2       407       409       447       445       576       577       596       595
 -1        45    1    0    1
 -2       409       411       449       447       577       578       597       596
 -1        46    1    0    1
 -2       411       413       451       449       578       579       598       597
 -1        47    1    0    1
 -2       413       415       453       451       579       580       599       598
 -1        48    1    0    1
 -2       415       417       455       453       580       581       600       599
 -1        49    1    0    1
 -2       417       419       457       455       581       582       601       600
 -1        50    1    0    1
 -2       419       421       459       457       582       583       602       601
 -1        51    1    0    1
 -2       421       423       461       459       583       584       603       602
 -1        52    1    0    1
 -2       423       425       463       461       584       585       604       603
 -1        53    1    0    1
 -2       425       427       465       463       585       586       605       604
 -1        54    1    0    1
 -2       427       429       467       465       586       587       606       605
 -1        55    1    0    1
 -2       429       431       469       467       587       588       607       606
 -1        56    1    0    1
 -2       431       433       471       469       588       589       608       607
 -1        57    1    0    1
 -2       433       435       473       471       589       590       609       608
 -1        58    1    0    1
 -2       435       437       475       473       590       591       610       609
 -1        59    1    0    1
 -2       437       439       477       475       591       592       611       610
 -1        60    1    0    1
 -2       439         6         8       477       592        20        22       611
 -1        61    1    0    1
 -2         7       441       479         9        21       593       612        23
 -1        62    1    0    1
 -2       441       443       481       479       593       594       613       612
 -1        63    1    0    1
 -2       443       445       483       481       594       595       614       613
 -1        64    1    0    1
 -2       445       447       485       483       595       596       615       614
 -1        65    1    0    1
 -2       447       449       487       485       596       597       616       615
 -1        66    1    0    1
 -2       449       451       489       487       597       598       617       616
 -1        67    1    0    1
 -2       451       453       491       489       598       599       618       617
 -1        68    1    0    1
 -2       453       455       493       491       599       600       619       618
 -1        69    1    0    1
 -2       455       457       495       493       600       601       620       619
 -1        70    1    0    1
 -2       457       459       497       495       601       602       621       620
 -1        71    1    0    1
 -2       459       461       499       497       602       603       622       621
 -1        72    1    0    1
 -2       461       463       501       499       603       604       623       622
 -1        73    1    0    1
 -2       463       465       503       501       604       605       624       623
 -1        74    1    0    1
 -2       465       467       505       503       605       606       625       624
 -1        75    1    0    1
 -2       467       469       507       505       606       607       626       625
 -1        76    1    0    1
 -2       469       471       509       507       607       608       627       626
 -1        77    1    0    1
 -2       471       473       511       509       608       609       628       627
 -1        78    1    0    1
 -2       473       475       513       511       609       610       629       628
 -1        79    1    0    1
 -2       475       477       515       513       610       611       630       629
 -1        80    1    0    1
 -2       477         8        10       515       611        22        24       630
 -1        81    1    0    1
 -2         9       479       517        11        23       612       631        25
 -1        82    1    0    1
 -2       479       481       519       517       612       613       632       631
 -1        83    1    0    1
 -2       481       483       521       519       613       614       633       632
 -1        84    1    0    1
 -2       483       485       523       521       614       615       634       633
 -1        85    1    0    1
 -2       485       487       525       523       615       616       635       634
 -1        86    1    0    1
 -2       487       489       527       525       616       617       636       635
 -1        87    1    0    1
 -2       489       491       529       527       617       618       637       636
 -1        88    1    0    1
 -2       491       493       531       529       618       619       638       637
 -1        89    1    0    1
 -2       493       495       533       531       619       620       639       638
 -1        90    1    0    1
 -2       495       497       535       533       620       621       640       639
 -1        91    1    0    1
 -2       497       499       537       535       621       622       641       640
 -1        92    1    0    1
 -2       499       501       539       537       622       623       642       641
 -1        93    1    0    1
 -2       501       503       541       539       623       624       643       642
 -1        94    1    0    1
 -2       503       505       543       541       624       625       644       643
 -1        95    1    0    1
 -2       505       507       545       543       625       626       645       644
 -1        96    1    0    1
 -2       507       509       547       545       626       627       646       645
 -1        97    1    0    1
 -2       509       511       549       547       627       628       647       646
 -1        98    1    0    1
 -2       511       513       551       549       628       629       648       647
 -1        99    1    0    1
 -2       513       515       553       551       629       630       649       648
 -1       100    1    0    1
 -2       515        10        12       553       630        24        26       649
 -1       101    1    0    1
 -2        11       517       100        13        25       631       138        27
 -1       102    1    0    1
 -2       517       519       102       100       631       632       140       138
 -1       103    1    0    1
 -2       519       521       104       102       632       633       142       140
 -1       104    1    0    1
 -2       521       523       106       104       633       634       144       142
 -1       105    1    0    1
 -2       523       525       108       106       634       635       146       144
 -1       106    1    0    1
 -2       525       527       110       108       635       636       148       146
 -1       107    1    0    1
 -2       527       529       112       110       636       637       150       148
 -1       108    1    0    1
 -2       529       531       114       112       637       638       152       150
 -1       109    1    0    1
 -2       531       533       116       114       638       639       154       152
 -1       110    1    0    1
 -2       533       535       118       116       639       640       156       154
 -1       111    1    0    1
 -2       535       537       120       118       640       641       158       156
 -1       112    1    0    1
 -2       537       539       122       120       641       642       160       158
 -1       113    1    0    1
 -2       539       541       124       122       642       643       162       160
 -1       114    1    0    1
 -2       541       543       126       124       643       644       164       162
 -1       115    1    0    1
 -2       543       545       128       126       644       645       166       164
 -1       116    1    0    1
 -2       545       547       130       128       645       646       168       166
 -1       117    1    0    1
 -2       547       549       132       130       646       647       170       168
 -1       118    1    0    1
 -2       549       551       134       132       647       648       172       170
 -1       119    1    0    1
 -2       551       553       136       134       648       649       174       172
 -1       120    1    0    1
 -2       553        12        14       136       649        26        28       174
 -1       121    1    0    1
 -2        15       137       555        17        29       175       650        31
 -1       122    1    0    1
 -2       137       139       556       555       175       177       651       650
 -1       123    1    0    1
 -2       139       141       557       556       177       179       652       651
 -1       124    1    0    1
 -2       141       143       558       557       179       181       653       652
 -1       125    1    0    1
 -2       143       145       559       558       181       183       654       653
 -1       126    1    0    1
 -2       145       147       560       559       183       185       655       654
 -1       127    1    0    1
 -2       147       149       561       560       185       187       656       655
 -1       128    1    0    1
 -2       149       151       562       561       187       189       657       656
 -1       129    1    0    1
 -2       151       153       563       562       189       191       658       657
 -1       130    1    0    1
 -2       153       155       564       563       191       193       659       658
 -1       131    1    0    1
 -2       155       157       565       564       193       195       660       659
 -1       132    1    0    1
 -2       157       159       566       565       195       197       661       660
 -1       133    1    0    1
 -2       159       161       567       566       197       199       662       661
 -1       134    1    0    1
 -2       161       163       568       567       199       201       663       662
 -1       135    1    0    1
 -2       163       165       569       568       201       203       664       663
 -1       136    1    0    1
 -2       165       167       570       569       203       205       665       664
 -1       137    1    0    1
 -2       167       169       571       570       205       207       666       665
 -1       138    1    0    1
 -2       169       171       572       571       207       209       667       666
 -1       139    1    0    1
 -2       171       173       573       572       209       211       668       667
 -1       140    1    0    1
 -2       173        16        18       573       211        30        32       668
 -1       141    1    0    1
 -2        17       555       574        19        31       650       669        33
 -1       142    1    0    1
 -2       555       556       575       574       650       651       670       669
 -1       143    1    0    1
 -2       556       557       576       575       651       652       671       670
 -1       144    1    0    1
 -2       557       558       577       576       652       653       672       671
 -1       145    1    0    1
 -2       558       559       578       577       653       654       673       672
 -1       146    1    0    1
 -2       559       560       579       578       654       655       674       673
 -1       147    1    0    1
 -2       560       561       580       579       655       656       675       674
 -1       148    1    0    1
 -2       561       562       581       580       656       657       676       675
 -1       149    1    0    1
 -2       562       563       582       581       657       658       677       676
 -1       150    1    0    1
 -2       563       564       583       582       658       659       678       677
 -1       151    1    0    1
 -2       564       565       584       583       659       660       679       678
 -1       152    1    0    1
 -2       565       566       585       584       660       661       680       679
 -1       153    1    0    1
 -2       566       567       586       585       661       662       681       680
 -1       154    1    0    1
 -2       567       568       587       586       662       663       682       681
 -1       155    1    0    1
 -2       568       569       588       587       663       664       683       682
 -1       156    1    0    1
 -2       569       570       589       588       664       665       684       683
 -1       157    1    0    1
 -2       570       571       590       589       665       666       685       684
 -1       158    1    0    1
 -2       571       572       591       590       666       667       686       685
 -1       159    1    0    1
 -2       572       573       592       591       667       668       687       686
 -1       160    1    0    1
 -2       573        18        20       592       668        32        34       687
 -1       161    1    0    1
 -2        19       574       593        21        33       669       688        35
 -1       162    1    0    1
 -2       574       575       594       593       669       670       689       688
 -1       163    1    0    1
 -2       575       576       595       594       670       671       690       689
 -1       164    1    0    1
 -2       576       577       596       595       671       672       691       690
 -1       165    1    0    1
 -2       577       578       597       596       672       673       692       691
 -1       166    1    0    1
 -2       578       579       598       597       673       674       693       692
 -1       167    1    0    1
 -2       579       580       599       598       674       675       694       693
 -1       168    1    0    1
 -2       580       581       600       599       675       676       695       694
 -1       169    1    0    1
 -2       581       582       601       600       676       677       696       695
 -1       170    1    0    1
 -2       582       583       602       601       677       678       697       696
 -1       171    1    0    1
 -2       583       584       603       602       678       679       698       697
 -1       172    1    0    1
 -2       584       585       604       603       679       680       699       698
 -1       173    1    0    1
 -2       585       586       605       604       680       681       700       699
 -1       174    1    0    1
 -2       586       587       606       605       681       682       701       700
 -1       175    1    0    1
 -2       587       588       607       606       682       683       702       701
 -1       176    1    0    1
 -2       588       589       608       607       683       684       703       702
 -1       177    1    0    1
 -2       589       590       609       608       684       685       704       703
 -1       178    1    0    1
 -2       590       591       610       609       685       686       705       704
 -1       179    1    0    1
 -2       591       592       611       610       686       687       706       705
 -1       180    1    0    1
 -2       592        20        22       611       687        34        36       706
 -1       181    1    0    1
 -2        21       593       612        23        35       688       707        37
 -1       182    1    0    1
 -2       593       594       613       612       688       689       708       707
 -1       183    1    0    1
 -2       594       595       614       613       689       690       709       708
 -1       184    1    0    1
 -2       595       596       615       614       690       691       710       709
 -1       185    1    0    1
 -2       596       597       616       615       691       692       711       710
 -1       186    1    0    1
 -2       597       598       617       616       692       693       712       711
 -1       187    1    0    1
 -2       598       599       618       617       693       694       713       712
 -1       188    1    0    1
 -2       599       600       619       618       694       695       714       713
 -1       189    1    0    1
 -2       600       601       620       619       695       696       715       714
 -1       190    1    0    1
 -2       601       602       621       620       696       697       716       715
 -1       191    1    0    1
 -2       602       603       622       621       697       698       717       716
 -1       192    1    0    1
 -2       603       604       623       622       698       699       718       717
 -1       193    1    0    1
 -2       604       605       624       623       699       700       719       718
 -1       194    1    0    1
 -2       605       606       625       624       700       701       720       719
 -1       195    1    0    1
 -2       606       607       626       625       701       702       721       720
 -1       196    1    0    1
 -2       607       608       627       626       702       703       722       721
 -1       197    1    0    1
 -2       608       609       628       627       703       704       723       722
 -1       198    1    0    1
 -2       609       610       629       628       704       705       724       723
 -1       199    1    0    1
 -2       610       611       630       629       705       706       725       724
 -1       200    1    0    1
 -2       611        22        24       630       706        36        38       725
 -1       201    1    0    1
 -2        23       612       631        25        37       707       726        39
 -1       202    1    0    1
 -2       612       613       632       631       707       708       727       726
 -1       203    1    0    1
 -2       613       614       633       632       708       709       728       727
 -1       204    1    0    1
 -2       614       615       634       633       709       710       729       728
 -1       205    1    0    1
 -2       615       616       635       634       710       711       730       729
 -1       206    1    0    1
 -2       616       617       636       635       711       712       731       730
 -1       207    1    0    1
 -2       617       618       637       636       712       713       732       731
 -1       208    1    0    1
 -2       618       619       638       637       713       714       733       732
 -1       209    1    0    1
 -2       619       620       639       638       714       715       734       733
 -1       210    1    0    1
 -2       620       621       640       639       715       716       735       734
 -1       211    1    0    1
 -2       621       622       641       640       716       717       736       735
 -1       212    1    0    1
 -2       622       623       642       641       717       718       737       736
 -1       213    1    0    1
 -2       623       624       643       642       718       719       738       737
 -1       214    1    0    1
 -2       624       625       644       643       719       720       739       738
 -1       215    1    0    1
 -2       625       626       645       644       720       721       740       739
 -1       216    1    0    1
 -2       626       627       646       645       721       722       741       740
 -1       217    1    0    1
 -2       627       628       647       646       722       723       742       741
 -1       218    1    0    1
 -2       628       629       648       647       723       724       743       742
 -1       219    1    0    1
 -2       629       630       649       648       724       725       744       743
 -1       220    1    0    1
 -2       630        24        26       649       725        38        40       744
 -1       221    1    0    1
 -2        25       631       138        27        39       726       176        41
 -1       222    1    0    1
 -2       631       632       140       138       726       727       178       176
 -1       223    1    0    1
 -2       632       633       142       140       727       728       180       178
 -1       224    1    0    1
 -2       633       634       144       142       728       729       182       180
 -1       225    1    0    1
 -2       634       635       146       144       729       730       184       182
 -1       226    1    0    1
 -2       635       636       148       146       730       731       186       184
 -1       227    1    0    1
 -2       636       637       150       148       731       732       188       186
 -1       228    1    0    1
 -2       637       638       152       150       732       733       190       188
 -1       229    1    0    1
 -2       638       639       154       152       733       734       192       190
 -1       230    1    0    1
 -2       639       640       156       154       734       735       194       192
 -1       231    1    0    1
 -2       640       641       158       156       735       736       196       194
 -1       232    1    0    1
 -2       641       642       160       158       736       737       198       196
 -1       233    1    0    1
 -2       642       643       162       160       737       738       200       198
 -1       234    1    0    1
 -2       643       644       164       162       738       739       202       200
 -1       235    1    0    1
 -2       644       645       166       164       739       740       204       202
 -1       236    1    0    1
 -2       645       646       168       166       740       741       206       204
 -1       237    1    0    1
 -2       646       647       170       168       741       742       208       206
 -1       238    1    0    1
 -2       647       648       172       170       742       743       210       208
 -1       239    1    0    1
 -2       648       649       174       172       743       744       212       210
 -1       240    1    0    1
 -2       649        26        28       174       744        40        42       212
 -1       241    1    0    1
 -2        29       175       650        31        43       213       745        45
 -1       242    1    0    1
 -2       175       177       651       650       213       215       746       745
 -1       243    1    0    1
 -2       177       179       652       651       215       217       747       746
 -1       244    1    0    1
 -2       179       181       653       652       217       219       748       747
 -1       245    1    0    1
 -2       181       183       654       653       219       221       749       748
 -1       246    1    0    1
 -2       183       185       655       654       221       223       750       749
 -1       247    1    0    1
 -2       185       187       656       655       223       225       751       750
 -1       248    1    0    1
 -2       187       189       657       656       225       227       752       751
 -1       249    1    0    1
 -2       189       191       658       657       227       229       753       752
 -1       250    1    0    1
 -2       191       193       659       658       229       231       754       753
 -1       251    1    0    1
 -2       193       195       660       659       231       233       755       754
 -1       252    1    0    1
 -2       195       197       661       660       233       235       756       755
 -1       253    1    0    1
 -2       197       199       662       661       235       237       757       756
 -1       254    1    0    1
 -2       199       201       663       662       237       239       758       757
 -1       255    1    0    1
 -2       201       203       664       663       239       241       759       758
 -1       256    1    0    1
 -2       203       205       665       664       241       243       760       759
 -1       257    1    0    1
 -2       205       207       666       665       243       245       761       760
 -1       258    1    0    1
 -2       207       209       667       666       245       247       762       761
 -1       259    1    0    1
 -2       209       211       668       667       247       249       763       762
 -1       260    1    0    1
 -2       211        30        32       668       249        44        46       763
 -1       261    1    0    1
 -2        31       650       669        33        45       745       764        47
 -1       262    1    0    1
 -2       650       651       670       669       745       746       765       764
 -1       263    1    0    1
 -2       651       652       671       670       746       747       766       765
 -1       264    1    0    1
 -2       652       653       672       671       747       748       767       766
 -1       265    1    0    1
 -2       653       654       673       672       748       749       768       767
 -1       266    1    0    1
 -2       654       655       674       673       749       750       769       768
 -1       267    1    0    1
 -2       655       656       675       674       750       751       770       769
 -1       268    1    0    1
 -2       656       657       676       675       751       752       771       770
 -1       269    1    0    1
 -2       657       658       677       676       752       753       772       771
 -1       270    1    0    1
 -2       658       659       678       677       753       754       773       772
 -1       271    1    0    1
 -2       659       660       679       678       754       755       774       773
 -1       272    1    0    1
 -2       660       661       680       679       755       756       775       774
 -1       273    1    0    1
 -2       661       662       681       680       756       757       776       775
 -1       274    1    0    1
 -2       662       663       682       681       757       758       777       776
 -1       275    1    0    1
 -2       663       664       683       682       758       759       778       777
 -1       276    1    0    1
 -2       664       665       684       683       759       760       779       778
 -1       277    1    0    1
 -2       665       666       685       684       760       761       780       779
 -1       278    1    0    1
 -2       666       667       686       685       761       762       781       780
 -1       279    1    0    1
 -2       667       668       687       686       762       763       782       781
 -1       280    1    0    1
 -2       668        32        34       687       763        46        48       782
 -1       281    1    0    1
 -2        33       669       688        35        47       764       783        49
 -1       282    1    0    1
 -2       669       670       689       688       764       765       784       783
 -1       283    1    0    1
 -2       670       671       690       689       765       766       785       784
 -1       284    1    0    1
 -2       671       672       691       690       766       767       786       785
 -1       285    1    0    1
 -2       672       673       692       691       767       768       787       786
 -1       286    1    0    1
 -2       673       674       693       692       768       769       788       787
 -1       287    1    0    1
 -2       674       675       694       693       769       770       789       788
 -1       288    1    0    1
 -2       675       676       695       694       770       771       790       789
 -1       289    1    0    1
 -2       676       677       696       695       771       772       791       790
 -1       290    1    0    1
 -2       677       678       697       696       772       773       792       791
 -1       291    1    0    1
 -2       678       679       698       697       773       774       793       792
 -1       292    1    0    1
 -2       679       680       699       698       774       775       794       793
 -1       293    1    0    1
 -2       680       681       700       699       775       776       795       794
 -1       294    1    0    1
 -2       681       682       701       700       776       777       796       795
 -1       295    1    0    1
 -2       682       683       702       701       777       778       797       796
 -1       296    1    0    1
 -2       683       684       703       702       778       779       798       797
 -1       297    1    0    1
 -2       684       685       704       703       779       780       799       798
 -1       298    1    0    1
 -2       685       686       705       704       780       781       800       799
 -1       299    1    0    1
 -2       686       687       706       705       781       782       801       800
 -1       300    1    0    1
 -2       687        34        36       706       782        48        50       801
 -1       301    1    0    1
 -2        35       688       707        37        49       783       802        51
 -1       302    1    0    1
 -2       688       689       708       707       783       784       803       802
 -1       303    1    0    1
 -2       689       690       709       708       784       785       804       803
 -1       304    1    0    1
 -2       690       691       710       709       785       786       805       804
 -1       305    1    0    1
 -2       691       692       711       710       786       787       806       805
 -1       306    1    0    1
 -2       692       693       712       711       787       788       807       806
 -1       307    1    0    1
 -2       693       694       713       712       788       789       808       807
 -1       308    1    0    1
 -2       694       695       714       713       789       790       809       808
 -1       309    1    0    1
 -2       695       696       715       714       790       791       810       809
 -1       310    1    0    1
 -2       696       697       716       715       791       792       811       810
 -1       311    1    0    1
 -2       697       698       717       716       792       793       812       811
 -1       312    1    0    1
 -2       698       699       718       717       793       794       813       812
 -1       313    1    0    1
 -2       699       700       719       718       794       795       814       813
 -1       314    1    0    1
 -2       700       701       720       719       795       796       815       814
 -1       315    1    0    1
 -2       701       702       721       720       796       797       816       815
 -1       316    1    0    1
 -2       702       703       722       721       797       798       817       816
 -1       317    1    0    1
 -2       703       704       723       722       798       799       818       817
 -1       318    1    0    1
 -2       704       705       724       723       799       800       819       818
 -1       319    1    0    1
 -2       705       706       725       724       800       801       820       819
 -1       320    1    0    1
 -2       706        36        38       725       801        50        52       820
 -1       321    1    0    1
 -2        37       707       726        39        51       802       821        53
 -1       322    1    0    1
 -2       707       708       727       726       802       803       822       821
 -1       323    1    0    1
 -2       708       709       728       727       803       804       823       822
 -1       324    1    0    1
 -2       709       710       729       728       804       805       824       823
 -1       325    1    0    1
 -2       710       711       730       729       805       806       825       824
 -1       326    1    0    1
 -2       711       712       731       730       806       807       826       825
 -1       327    1    0    1
 -2       712       713       732       731       807       808       827       826
 -1       328    1    0    1
 -2       713       714       733       732       808       809       828       827
 -1       329    1    0    1
 -2       714       715       734       733       809       810       829       828
 -1       330    1    0    1
 -2       715       716       735       734       810       811       830       829
 -1       331    1    0    1
 -2       716       717       736       735       811       812       831       830
 -1       332    1    0    1
 -2       717       718       737       736       812       813       832       831
 -1       333    1    0    1
 -2       718       719       738       737       813       814       833       832
 -1       334    1    0    1
 -2       719       720       739       738       814       815       834       833
 -1       335    1    0    1
 -2       720       721       740       739       815       816       835       834
 -1       336    1    0    1
 -2       721       722       741       740       816       817       836       835
 -1       337    1    0    1
 -2       722       723       742       741       817       818       837       836
 -1       338    1    0    1
 -2       723       724       743       742       818       819       838       837
 -1       339    1    0    1
 -2       724       725       744       743       819       820       839       838
 -1       340    1    0    1
 -2       725        38        40       744       820        52        54       839
 -1       341    1    0    1
 -2        39       726       176        41        53       821       214        55
 -1       342    1    0    1
 -2       726       727       178       176       821       822       216       214
 -1       343    1    0    1
 -2       727       728       180       178       822       823       218       216
 -1       344    1    0    1
 -2       728       729       182       180       823       824       220       218
 -1       345    1    0    1
 -2       729       730       184       182       824       825       222       220
 -1       346    1    0    1
 -2       730       731       186       184       825       826       224       222
 -1       347    1    0    1
 -2       731       732       188       186       826       827       226       224
 -1       348    1    0    1
 -2       732       733       190       188       827       828       228       226
 -1       349    1    0    1
 -2       733       734       192       190       828       829       230       228
 -1       350    1    0    1
 -2       734       735       194       192       829       830       232       230
 -1       351    1    0    1
 -2       735       736       196       194       830       831       234       232
 -1       352    1    0    1
 -2       736       737       198       196       831       832       236       234
 -1       353    1    0    1
 -2       737       738       200       198       832       833       238       236
 -1       354    1    0    1
 -2       738       739       202       200       833       834       240       238
 -1       355    1    0    1
 -2       739       740       204       202       834       835       242       240
 -1       356    1    0    1
 -2       740       741       206       204       835       836       244       242
 -1       357    1    0    1
 -2       741       742       208       206       836       837       246       244
 -1       358    1    0    1
 -2       742       743       210       208       837       838       248       246
 -1       359    1    0    1
 -2       743       744       212       210       838       839       250       248
 -1       360    1    0    1
 -2       744        40        42       212       839        54        56       250
 -1       361    1    0    1
 -2        43       213       745        45        57       251       840        59
 -1       362    1    0    1
 -2       213       215       746       745       251       253       841       840
 -1       363    1    0    1
 -2       215       217       747       746       253       255       842       841
 -1       364    1    0    1
 -2       217       219       748       747       255       257       843       842
 -1       365    1    0    1
 -2       219       221       749       748       257       259       844       843
 -1       366    1    0    1
 -2       221       223       750       749       259       261       845       844
 -1       367    1    0    1
 -2       223       225       751       750       261       263       846       845
 -1       368    1    0    1
 -2       225       227       752       751       263       265       847       846
 -1       369    1    0    1
 -2       227       229       753       752       265       267       848       847
 -1       370    1    0    1
 -2       229       231       754       753       267       269       849       848
 -1       371    1    0    1
 -2       231       233       755       754       269       271       850       849
 -1       372    1    0    1
 -2       233       235       756       755       271       273       851       850
 -1       373    1    0    1
 -2       235       237       757       756       273       275       852       851
 -1       374    1    0    1
 -2       237       239       758       757       275       277       853       852
 -1       375    1    0    1
 -2       239       241       759       758       277       279       854       853
 -1       376    1    0    1
 -2       241       243       760       759       279       281       855       854
 -1       377    1    0    1
 -2       243       245       761       760       281       283       856       855
 -1       378    1    0    1
 -2       245       247       762       761       283       285       857       856
 -1       379    1    0    1
 -2       247       249       763       762       285       287       858       857
 -1       380    1    0    1
 -2       249        44        46       763       287        58        60       858
 -1       381    1    0    1
 -2        45       745       764        47        59       840       859        61
 -1       382    1    0    1
 -2       745       746       765       764       840       841       860       859
 -1       383    1    0    1
 -2       746       747       766       765       841       842       861       860
 -1       384    1    0    1
 -2       747       748       767       766       842       843       862       861
 -1       385    1    0    1
 -2       748       749       768       767       843       844       863       862
 -1       386    1    0    1
 -2       749       750       769       768       844       845       864       863
 -1       387    1    0    1
 -2       750       751       770       769       845       846       865       864
 -1       388    1    0    1
 -2       751       752       771       770       846       847       866       865
 -1       389    1    0    1
 -2       752       753       772       771       847       848       867       866
 -1       390    1    0    1
 -2       753       754       773       772       848       849       868       867
 -1       391    1    0    1
 -2       754       755       774       773       849       850       869       868
 -1       392    1    0    1
 -2       755       756       775       774       850       851       870       869
 -1       393    1    0    1
 -2       756       757       776       775       851       852       871       870
 -1       394    1    0    1
 -2       757       758       777       776       852       853       872       871
 -1       395    1    0    1
 -2       758       759       778       777       853       854       873       872
 -1       396    1    0    1
 -2       759       760       779       778       854       855       874       873
 -1       397    1    0    1
 -2       760       761       780       779       855       856       875       874
 -1       398    1    0    1
 -2       761       762       781       780       856       857       876       875
 -1       399    1    0    1
 -2       762       763       782       781       857       858       877       876
 -1       400    1    0    1
 -2       763        46        48       782       858        60        62       877
 -1       401    1    0    1
 -2        47       764       783        49        61       859       878        63
 -1       402    1    0    1
 -2       764       765       784       783       859       860       879       878
 -1       403    1    0    1
 -2       765       766       785       784       860       861       880       879
 -1       404    1    0    1
 -2       766       767       786       785       861       862       881       880
 -1       405    1    0    1
 -2       767       768       787       786       862       863       882       881
 -1       406    1    0    1
 -2       768       769       788       787       863       864       883       882
 -1       407    1    0    1
 -2       769       770       789       788       864       865       884       883
 -1       408    1    0    1
 -2       770       771       790       789       865       866       885       884
 -1       409    1    0    1
 -2       771       772       791       790       866       867       886       885
 -1       410    1    0    1
 -2       772       773       792       791       867       868       887       886
 -1       411    1    0    1
 -2       773       774       793       792       868       869       888       887
 -1       412    1    0    1
 -2       774       775       794       793       869       870       889       888
 -1       413    1    0    1
 -2       775       776       795       794       870       871       890       889
 -1       414    1    0    1
 -2       776       777       796       795       871       872       891       890
 -1       415    1    0    1
 -2       777       778       797       796       872       873       892       891
 -1       416    1    0    1
 -2       778       779       798       797       873       874       893       892
 -1       417    1    0    1
 -2       779       780       799       798       874       875       894       893
 -1       418    1    0    1
 -2       780       781       800       799       875       876       895       894
 -1       419    1    0    1
 -2       781       782       801       800       876       877       896       895
 -1       420    1    0    1
 -2       782        48        50       801       877        62        64       896
 -1       421    1    0    1
 -2        49       783       802        51        63       878       897        65
 -1       422    1    0    1
 -2       783       784       803       802       878       879       898       897
 -1       423    1    0    1
 -2       784       785       804       803       879       880       899       898
 -1       424    1    0    1
 -2       785       786       805       804       880       881       900       899
 -1       425    1    0    1
 -2       786       787       806       805       881       882       901       900
 -1       426    1    0    1
 -2       787       788       807       806       882       883       902       901
 -1       427    1    0    1
 -2       788       789       808       807       883       884       903       902
 -1       428    1    0    1
 -2       789       790       809       808       884       885       904       903
 -1       429    1    0    1
 -2       790       791       810       809       885       886       905       904
 -1       430    1    0    1
 -2       791       792       811       810       886       887       906       905
 -1       431    1    0    1
 -2       792       793       812       811       887       888       907       906
 -1       432    1    0    1
 -2       793       794       813       812       888       889       908       907
 -1       433    1    0    1
 -2       794       795       814       813       889       890       909       908
 -1       434    1    0    1
 -2       795       796       815       814       890       891       910       909
 -1       435    1    0    1
 -2       796       797       816       815       891       892       911       910
 -1       436    1    0    1
 -2       797       798       817       816       892       893       912       911
 -1       437    1    0    1
 -2       798       799       818       817       893       894       913       912
 -1       438    1    0    1
 -2       799       800       819       818       894       895       914       913
 -1       439    1    0    1
 -2       800       801       820       819       895       896       915       914
 -1       440    1    0    1
 -2       801        50        52       820       896        64        66       915
 -1       441    1    0    1
 -2        51       802       821        53        65       897       916        67
 -1       442    1    0    1
 -2       802       803       822       821       897       898       917       916
 -1       443    1    0    1
 -2       803       804       823       822       898       899       918       917
 -1       444    1    0    1
 -2       804       805       824       823       899       900       919       918
 -1       445    1    0    1
 -2       805       806       825       824       900       901       920       919
 -1       446    1    0    1
 -2       806       807       826       825       901       902       921       920
 -1       447    1    0    1
 -2       807       808       827       826       902       903       922       921
 -1       448    1    0    1
 -2       808       809       828       827       903       904       923       922
 -1       449    1    0    1
 -2       809       810       829       828       904       905       924       923
 -1       450    1    0    1
 -2       810       811       830       829       905       906       925       924
 -1       451    1    0    1
 -2       811       812       831       830       906       907       926       925
 -1       452    1    0    1
 -2       812       813       832       831       907       908       927       926
 -1       453    1    0    1
 -2       813       814       833       832       908       909       928       927
 -1       454    1    0    1
 -2       814       815       834       833       909       910       929       928
 -1       455    1    0    1
 -2       815       816       835       834       910       911       930       929
 -1       456    1    0    1
 -2       816       817       836       835       911       912       931       930
 -1       457    1    0    1
 -2       817       818       837       836       912       913       932       931
 -1       458    1    0    1
 -2       818       819       838       837       913       914       933       932
 -1       459    1    0    1
 -2       819       820       839       838       914       915       934       933
 -1       460    1    0    1
 -2       820        52        54       839       915        66        68       934
 -1       461    1    0    1
 -2        53       821       214        55        67       916       252        69
 -1       462    1    0    1
 -2       821       822       216       214       916       917       254       252
 -1       463    1    0    1
 -2       822       823       218       216       917       918       256       254
 -1       464    1    0    1
 -2       823       824       220       218       918       919       258       256
 -1       465    1    0    1
 -2       824       825       222       220       919       920       260       258
 -1       466    1    0    1
 -2       825       826       224       222       920       921       262       260
 -1       467    1    0    1
 -2       826       827       226       224       921       922       264       262
 -1       468    1    0    1
 -2       827       828       228       226       922       923       266       264
 -1       469    1    0    1
 -2       828       829       230       228       923       924       268       266
 -1       470    1    0    1
 -2       829       830       232       230       924       925       270       268
 -1       471    1    0    1
 -2       830       831       234       232       925       926       272       270
 -1       472    1    0    1
 -2       831       832       236       234       926       927       274       272
 -1       473    1    0    1
 -2       832       833       238       236       927       928       276       274
 -1       474    1    0    1
 -2       833       834       240       238       928       929       278       276
 -1       475    1    0    1
 -2       834       835       242       240       929       930       280       278
 -1       476    1    0    1
 -2       835       836       244       242       930       931       282       280
 -1       477    1    0    1
 -2       836       837       246       244       931       932       284       282
 -1       478    1    0    1
 -2       837       838       248       246       932       933       286       284
 -1       479    1    0    1
 -2       838       839       250       248       933       934       288       286
 -1       480    1    0    1
 -2       839        54        56       250       934        68        70       288
 -1       481    1    0    1
 -2        57       251       840        59        71       289       935        73
 -1       482    1    0    1
 -2       251       253       841       840       289       291       936       935
 -1       483    1    0    1
 -2       253       255       842       841       291       293       937       936
 -1       484    1    0    1
 -2       255       257       843       842       293       295       938       937
 -1       485    1    0    1
 -2       257       259       844       843       295       297       939       938
 -1       486    1    0    1
 -2       259       261       845       844       297       299       940       939
 -1       487    1    0    1
 -2       261       263       846       845       299       301       941       940
 -1       488    1    0    1
 -2       263       265       847       846       301       303       942       941
 -1       489    1    0    1
 -2       265       267       848       847       303       305       943       942
 -1       490    1    0    1
 -2       267       269       849       848       305       307       944       943
 -1       491    1    0    1
 -2       269       271       850       849       307       309       945       944
 -1       492    1    0    1
 -2       271       273       851       850       309       311       946       945
 -1       493    1    0    1
 -2       273       275       852       851       311       313       947       946
 -1       494    1    0    1
 -2       275       277       853       852       313       315       948       947
 -1       495    1    0    1
 -2       277       279       854       853       315       317       949       948
 -1       496    1    0    1
 -2       279       281       855       854       317       319       950       949
 -1       497    1    0    1
 -2       281       283       856       855       319       321       951       950
 -1       498    1    0    1
 -2       283       285       857       856       321       323       952       951
 -1       499    1    0    1
 -2       285       287       858       857       323       325       953       952
 -1       500    1    0    1
 -2       287        58        60       858       325        72        74       953
 -1       501    1    0    1
 -2        59       840       859        61        73       935       954        75
 -1       502    1    0    1
 -2       840       841       860       859       935       936       955       954
 -1       503    1    0    1
 -2       841       842       861       860       936       937       956       955
 -1       504    1    0    1
 -2       842       843       862       861       937       938       957       956
 -1       505    1    0    1
 -2       843       844       863       862       938       939       958       957
 -1       506    1    0    1
 -2       844       845       864       863       939       940       959       958
 -1       507    1    0    1
 -2       845       846       865       864       940       941       960       959
 -1       508    1    0    1
 -2       846       847       866       865       941       942       961       960
 -1       509    1    0    1
 -2       847       848       867       866       942       943       962       961
 -1       510    1    0    1
 -2       848       849       868       867       943       944       963       962
 -1       511    1    0    1
 -2       849       850       869       868       944       945       964       963
 -1       512    1    0    1
 -2       850       851       870       869       945       946       965       964
 -1       513    1    0    1
 -2       851       852       871       870       946       947       966       965
 -1       514    1    0    1
 -2       852       853       872       871       947       948       967       966
 -1       515    1    0    1
 -2       853       854       873       872       948       949       968       967
 -1       516    1    0    1
 -2       854       855       874       873       949       950       969       968
 -1       517    1    0    1
 -2       855       856       875       874       950       951       970       969
 -1       518    1    0    1
 -2       856       857       876       875       951       952       971       970
 -1       519    1    0    1
 -2       857       858       877       876       952       953       972       971
 -1       520    1    0    1
 -2       858        60        62       877       953        74        76       972
 -1       521    1    0    1
 -2        61       859       878        63        75       954       973        77
 -1       522    1    0    1
 -2       859       860       879       878       954       955       974       973
 -1       523    1    0    1
 -2       860       861       880       879       955       956       975       974
 -1       524    1    0    1
 -2       861       862       881       880       956       957       976       975
 -1       525    1    0    1
 -2       862       863       882       881       957       958       977       976
 -1       526    1    0    1
 -2       863       864       883       882       958       959       978       977
 -1       527    1    0    1
 -2       864       865       884       883       959       960       979       978
 -1       528    1    0    1
 -2       865       866       885       884       960       961       980       979
 -1       529    1    0    1
 -2       866       867       886       885       961       962       981       980
 -1       530    1    0    1
 -2       867       868       887       886       962       963       982       981
 -1       531    1    0    1
 -2       868       869       888       887       963       964       983       982
 -1       532    1    0    1
 -2       869       870       889       888       964       965       984       983
 -1       533    1    0    1
 -2       870       871       890       889       965       966       985       984
 -1       534    1    0    1
 -2       871       872       891       890       966       967       986       985
 -1       535    1    0    1
 -2       872       873       892       891       967       968       987       986
 -1       536    1    0    1
 -2       873       874       893       892       968       969       988       987
 -1       537    1    0    1
 -2       874       875       894       893       969       970       989       988
 -1       538    1    0    1
 -2       875       876       895       894       970       971       990       989
 -1       539    1    0    1
 -2       876       877       896       895       971       972       991       990
 -1       540    1    0    1
 -2       877        62        64       896       972        76        78       991
 -1       541    1    0    1
 -2        63       878       897        65        77       973       992        79
 -1       542    1    0    1
 -2       878       879       898       897       973       974       993       992
 -1       543    1    0    1
 -2       879       880       899       898       974       975       994       993
 -1       544    1    0    1
 -2       880       881       900       899       975       976       995       994
 -1       545    1    0    1
 -2       881       882       901       900       976       977       996       995
 -1       546    1    0    1
 -2       882       883       902       901       977       978       997       996
 -1       547    1    0    1
 -2       883       884       903       902       978       979       998       997
 -1       548    1    0    1
 -2       884       885       904       903       979       980       999       998
 -1       549    1    0    1
 -2       885       886       905       904       980       981      1000       999
 -1       550    1    0    1
 -2       886       887       906       905       981       982      1001      1000
 -1       551    1    0    1
 -2       887       888       907       906       982       983      1002      1001
 -1       552    1    0    1
 -2       888       889       908       907       983       984      1003      1002
 -1       553    1    0    1
 -2       889       890       909       908       984       985      1004      1003
 -1       554    1    0    1
 -2       890       891       910       909       985       986      1005      1004
 -1       555    1    0    1
 -2       891       892       911       910       986       987      1006      1005
 -1       556    1    0    1
 -2       892       893       912       911       987       988      1007      1006
 -1       557    1    0    1
 -2       893       894       913       912       988       989      1008      1007
 -1       558    1    0    1
 -2       894       895       914       913       989       990      1009      1008
 -1       559    1    0    1
 -2       895       896       915       914       990       991      1010      1009
 -1       560    1    0    1
 -2       896        64        66       915       991        78        80      1010
 -1       561    1    0    1
 -2        65       897       916        67        79       992      1011        81
 -1       562    1    0    1
 -2       897       898       917       916       992       993      1012      1011
 -1       563    1    0    1
 -2       898       899       918       917       993       994      1013      1012
 -1       564    1    0    1
 -2       899       900       919       918       994       995      1014      1013
 -1       565    1    0    1
 -2       900       901       920       919       995       996      1015      1014
 -1       566    1    0    1
 -2       901       902       921       920       996       997      1016      1015
 -1       567    1    0    1
 -2       902       903       922       921       997       998      1017      1016
 -1       568    1    0    1
 -2       903       904       923       922       998       999      1018      1017
 -1       569    1    0    1
 -2       904       905       924       923       999      1000      1019      1018
 -1       570    1    0    1
 -2       905       906       925       924      1000      1001      1020      1019
 -1       571    1    0    1
 -2       906       907       926       925      1001      1002      1021      1020
 -1       572    1    0    1
 -2       907       908       927       926      1002      1003      1022      1021
 -1       573    1    0    1
 -2       908       909       928       927      1003      1004      1023      1022
 -1       574    1    0    1
 -2       909       910       929       928      1004      1005      1024      1023
 -1       575    1    0    1
 -2       910       911       930       929      1005      1006      1025      1024
 -1       576    1    0    1
 -2       911       912       931       930      1006      1007      1026      1025
 -1       577    1    0    1
 -2       912       913       932       931      1007      1008      1027      1026
 -1       578    1    0    1
 -2       913       914       933       932      1008      1009      1028      1027
 -1       579    1    0    1
 -2       914       915       934       933      1009      1010      1029      1028
 -1       580    1    0    1
 -2       915        66        68       934      1010        80        82      1029
 -1       581    1    0    1
 -2        67       916       252        69        81      1011       290        83
 -1       582    1    0    1
 -2       916       917       254       252      1011      1012       292       290
 -1       583    1    0    1
 -2       917       918       256       254      1012      1013       294       292
 -1       584    1    0    1
 -2       918       919       258       256      1013      1014       296       294
 -1       585    1    0    1
 -2       919       920       260       258      1014      1015       298       296
 -1       586    1    0    1
 -2       920       921       262       260      1015      1016       300       298
 -1       587    1    0    1
 -2       921       922       264       262      1016      1017       302       300
 -1       588    1    0    1
 -2       922       923       266       264      1017      1018       304       302
 -1       589    1    0    1
 -2       923       924       268       266      1018      1019       306       304
 -1       590    1    0    1
 -2       924       925       270       268      1019      1020       308       306
 -1       591    1    0    1
 -2       925       926       272       270      1020      1021       310       308
 -1       592    1    0    1
 -2       926       927       274       272      1021      1022       312       310
 -1       593    1    0    1
 -2       927       928       276       274      1022      1023       314       312
 -1       594    1    0    1
 -2       928       929       278       276      1023      1024       316       314
 -1       595    1    0    1
 -2       929       930       280       278      1024      1025       318       316
 -1       596    1    0    1
 -2       930       931       282       280      1025      1026       320       318
 -1       597    1    0    1
 -2       931       932       284       282      1026      1027       322       320
 -1       598    1    0    1
 -2       932       933       286       284      1027      1028       324       322
 -1       599    1    0    1
 -2       933       934       288       286      1028      1029       326       324
 -1       600    1    0    1
 -2       934        68        70       288      1029        82        84       326
 -1       601    1    0    1
 -2        71       289       935        73        85       327       366        87
 -1       602    1    0    1
 -2       289       291       936       935       327       329       368       366
 -1       603    1    0    1
 -2       291       293       937       936       329       331       370       368
 -1       604    1    0    1
 -2       293       295       938       937       331       333       372       370
 -1       605    1    0    1
 -2       295       297       939       938       333       335       374       372
 -1       606    1    0    1
 -2       297       299       940       939       335       337       376       374
 -1       607    1    0    1
 -2       299       301       941       940       337       339       378       376
 -1       608    1    0    1
 -2       301       303       942       941       339       341       380       378
 -1       609    1    0    1
 -2       303       305       943       942       341       343       382       380
 -1       610    1    0    1
 -2       305       307       944       943       343       345       384       382
 -1       611    1    0    1
 -2       307       309       945       944       345       347       386       384
 -1       612    1    0    1
 -2       309       311       946       945       347       349       388       386
 -1       613    1    0    1
 -2       311       313       947       946       349       351       390       388
 -1       614    1    0    1
 -2       313       315       948       947       351       353       392       390
 -1       615    1    0    1
 -2       315       317       949       948       353       355       394       392
 -1       616    1    0    1
 -2       317       319       950       949       355       357       396       394
 -1       617    1    0    1
 -2       319       321       951       950       357       359       398       396
 -1       618    1    0    1
 -2       321       323       952       951       359       361       400       398
 -1       619    1    0    1
 -2       323       325       953       952       361       363       402       400
 -1       620    1    0    1
 -2       325        72        74       953       363        86        88       402
 -1       621    1    0    1
 -2        73       935       954        75        87       366       404        89
 -1       622    1    0    1
 -2       935       936       955       954       366       368       406       404
 -1       623    1    0    1
 -2       936       937       956       955       368       370       408       406
 -1       624    1    0    1
 -2       937       938       957       956       370       372       410       408
 -1       625    1    0    1
 -2       938       939       958       957       372       374       412       410
 -1       626    1    0    1
 -2       939       940       959       958       374       376       414       412
 -1       627    1    0    1
 -2       940       941       960       959       376       378       416       414
 -1       628    1    0    1
 -2       941       942       961       960       378       380       418       416
 -1       629    1    0    1
 -2       942       943       962       961       380       382       420       418
 -1       630    1    0    1
 -2       943       944       963       962       382       384       422       420
 -1       631    1    0    1
 -2       944       945       964       963       384       386       424       422
 -1       632    1    0    1
 -2       945       946       965       964       386       388       426       424
 -1       633    1    0    1
 -2       946       947       966       965       388       390       428       426
 -1       634    1    0    1
 -2       947       948       967       966       390       392       430       428
 -1       635    1    0    1
 -2       948       949       968       967       392       394       432       430
 -1       636    1    0    1
 -2       949       950       969       968       394       396       434       432
 -1       637    1    0    1
 -2       950       951       970       969       396       398       436       434
 -1       638    1    0    1
 -2       951       952       971       970       398       400       438       436
 -1       639    1    0    1
 -2       952       953       972       971       400       402       440       438
 -1       640    1    0    1
 -2       953        74        76       972       402        88        90       440
 -1       641    1    0    1
 -2        75       954       973        77        89       404       442        91
 -1       642    1    0    1
 -2       954       955       974       973       404       406       444       442
 -1       643    1    0    1
 -2       955       956       975       974       406       408       446       444
 -1       644    1    0    1
 -2       956       957       976       975       408       410       448       446
 -1       645    1    0    1
 -2       957       958       977       976       410       412       450       448
 -1       646    1    0    1
 -2       958       959       978       977       412       414       452       450
 -1       647    1    0    1
 -2       959       960       979       978       414       416       454       452
 -1       648    1    0    1
 -2       960       961       980       979       416       418       456       454
 -1       649    1    0    1
 -2       961       962       981       980       418       420       458       456
 -1       650    1    0    1
 -2       962       963       982       981       420       422       460       458
 -1       651    1    0    1
 -2       963       964       983       982       422       424       462       460
 -1       652    1    0    1
 -2       964       965       984       983       424       426       464       462
 -1       653    1    0    1
 -2       965       966       985       984       426       428       466       464
 -1       654    1    0    1
 -2       966       967       986       985       428       430       468       466
 -1       655    1    0    1
 -2       967       968       987       986       430       432       470       468
 -1       656    1    0    1
 -2       968       969       988       987       432       434       472       470
 -1       657    1    0    1
 -2       969       970       989       988       434       436       474       472
 -1       658    1    0    1
 -2       970       971       990       989       436       438       476       474
 -1       659    1    0    1
 -2       971       972       991       990       438       440       478       476
 -1       660    1    0    1
 -2       972        76        78       991       440        90        92       478
 -1       661    1    0    1
 -2        77       973       992        79        91       442       480        93
 -1       662    1    0    1
 -2       973       974       993       992       442       444       482       480
 -1       663    1    0    1
 -2       974       975       994       993       444       446       484       482
 -1       664    1    0    1
 -2       975       976       995       994       446       448       486       484
 -1       665    1    0    1
 -2       976       977       996       995       448       450       488       486
 -1       666    1    0    1
 -2       977       978       997       996       450       452       490       488
 -1       667    1    0    1
 -2       978       979       998       997       452       454       492       490
 -1       668    1    0    1
 -2       979       980       999       998       454       456       494       492
 -1       669    1    0    1
 -2       980       981      1000       999       456       458       496       494
 -1       670    1    0    1
 -2       981       982      1001      1000       458       460       498       496
 -1       671    1    0    1
 -2       982       983      1002      1001       460       462       500       498
 -1       672    1    0    1
 -2       983       984      1003      1002       462       464       502       500
 -1       673    1    0    1
 -2       984       985      1004      1003       464       466       504       502
 -1       674    1    0    1
 -2       985       986      1005      1004       466       468       506       504
 -1       675    1    0    1
 -2       986       987      1006      1005       468       470       508       506
 -1       676    1    0    1
 -2       987       988      1007      1006       470       472       510       508
 -1       677    1    0    1
 -2       988       989      1008      1007       472       474       512       510
 -1       678    1    0    1
 -2       989       990      1009      1008       474       476       514       512
 -1       679    1    0    1
 -2       990       991      1010      1009       476       478       516       514
 -1       680    1    0    1
 -2       991        78        80      1010       478        92        94       516
 -1       681    1    0    1
 -2        79       992      1011        81        93       480       518        95
 -1       682    1    0    1
 -2       992       993      1012      1011       480       482       520       518
 -1       683    1    0    1
 -2       993       994      1013      1012       482       484       522       520
 -1       684    1    0    1
 -2       994       995      1014      1013       484       486       524       522
 -1       685    1    0    1
 -2       995       996      1015      1014       486       488       526       524
 -1       686    1    0    1
 -2       996       997      1016      1015       488       490       528       526
 -1       687    1    0    1
 -2       997       998      1017      1016       490       492       530       528
 -1       688    1    0    1
 -2       998       999      1018      1017       492       494       532       530
 -1       689    1    0    1
 -2       999      1000      1019      1018       494       496       534       532
 -1       690    1    0    1
 -2      1000      1001      1020      1019       496       498       536       534
 -1       691    1    0    1
 -2      1001      1002      1021      1020       498       500       538       536
 -1       692    1    0    1
 -2      1002      1003      1022      1021       500       502       540       538
 -1       693    1    0    1
 -2      1003      1004      1023      1022       502       504       542       540
 -1       694    1    0    1
 -2      1004      1005      1024      1023       504       506       544       542
 -1       695    1    0    1
 -2      1005      1006      1025      1024       506       508       546       544
 -1       696    1    0    1
 -2      1006      1007      1026      1025       508       510       548       546
 -1       697    1    0    1
 -2      1007      1008      1027      1026       510       512       550       548
 -1       698    1    0    1
 -2      1008      1009      1028      1027       512       514       552       550
 -1       699    1    0    1
 -2      1009      1010      1029      1028       514       516       554       552
 -1       700    1    0    1
 -2      1010        80        82      1029       516        94        96       554
 -1       701    1    0    1
 -2        81      1011       290        83        95       518       328        97
 -1       702    1    0    1
 -2      1011      1012       292       290       518       520       330       328
 -1       703    1    0    1
 -2      1012      1013       294       292       520       522       332       330
 -1       704    1    0    1
 -2      1013      1014       296       294       522       524       334       332
 -1       705    1    0    1
 -2      1014      1015       298       296       524       526       336       334
 -1       706    1    0    1
 -2      1015      1016       300       298       526       528       338       336
 -1       707    1    0    1
 -2      1016      1017       302       300       528       530       340       338
 -1       708    1    0    1
 -2      1017      1018       304       302       530       532       342       340
 -1       709    1    0    1
 -2      1018      1019       306       304       532       534       344       342
 -1       710    1    0    1
 -2      1019      1020       308       306       534       536       346       344
 -1       711    1    0    1
 -2      1020      1021       310       308       536       538       348       346
 -1       712    1    0    1
 -2      1021      1022       312       310       538       540       350       348
 -1       713    1    0    1
 -2      1022      1023       314       312       540       542       352       350
 -1       714    1    0    1
 -2      1023      1024       316       314       542       544       354       352
 -1       715    1    0    1
 -2      1024      1025       318       316       544       546       356       354
 -1       716    1    0    1
 -2      1025      1026       320       318       546       548       358       356
 -1       717    1    0    1
 -2      1026      1027       322       320       548       550       360       358
 -1       718    1    0    1
 -2      1027      1028       324       322       550       552       362       360
 -1       719    1    0    1
 -2      1028      1029       326       324       552       554       364       362
 -1       720    1    0    1
 -2      1029        82        84       326       554        96        98       364
 -1       721    1    0    2
 -2      1030      1212      1534      1032      1056      1258      2040      1058
 -1       722    1    0    2
 -2      1212      1214      1536      1534      1258      1260      2041      2040
 -1       723    1    0    2
 -2      1214      1216      1538      1536      1260      1262      2042      2041
 -1       724    1    0    2
 -2      1216      1218      1540      1538      1262      1264      2043      2042
 -1       725    1    0    2
 -2      1218      1220      1542      1540      1264      1266      2044      2043
 -1       726    1    0    2
 -2      1220      1222      1544      1542      1266      1268      2045      2044
 -1       727    1    0    2
 -2      1222      1224      1546      1544      1268      1270      2046      2045
 -1       728    1    0    2
 -2      1224      1226      1548      1546      1270      1272      2047      2046
 -1       729    1    0    2
 -2      1226      1228      1550      1548      1272      1274      2048      2047
 -1       730    1    0    2
 -2      1228      1230      1552      1550      1274      1276      2049      2048
 -1       731    1    0    2
 -2      1230      1232      1554      1552      1276      1278      2050      2049
 -1       732    1    0    2
 -2      1232      1234      1556      1554      1278      1280      2051      2050
 -1       733    1    0    2
 -2      1234      1236      1558      1556      1280      1282      2052      2051
 -1       734    1    0    2
 -2      1236      1238      1560      1558      1282      1284      2053      2052
 -1       735    1    0    2
 -2      1238      1240      1562      1560      1284      1286      2054      2053
 -1       736    1    0    2
 -2      1240      1242      1564      1562      1286      1288      2055      2054
 -1       737    1    0    2
 -2      1242      1244      1566      1564      1288      1290      2056      2055
 -1       738    1    0    2
 -2      1244      1246      1568      1566      1290      1292      2057      2056
 -1       739    1    0    2
 -2      1246      1248      1570      1568      1292      1294      2058      2057
 -1       740    1    0    2
 -2      1248      1250      1572      1570      1294      1296      2059      2058
 -1       741    1    0    2
 -2      1250      1252      1574      1572      1296      1298      2060      2059
 -1       742    1    0    2
 -2      1252      1254      1576      1574      1298      1300      2061      2060
 -1       743    1    0    2
 -2      1254      1256      1578      1576      1300      1302      2062      2061
 -1       744    1    0    2
 -2      1256      1031      1033      1578      1302      1057      1059      2062
 -1       745    1    0    2
 -2      1032      1534      1580      1034      1058      2040      2063      1060
 -1       746    1    0    2
 -2      1534      1536      1582      1580      2040      2041      2064      2063
 -1       747    1    0    2
 -2      1536      1538      1584      1582      2041      2042      2065      2064
 -1       748    1    0    2
 -2      1538      1540      1586      1584      2042      2043      2066      2065
 -1       749    1    0    2
 -2      1540      1542      1588      1586      2043      2044      2067      2066
 -1       750    1    0    2
 -2      1542      1544      1590      1588      2044      2045      2068      2067
 -1       751    1    0    2
 -2      1544      1546      1592      1590      2045      2046      2069      2068
 -1       752    1    0    2
 -2      1546      1548      1594      1592      2046      2047      2070      2069
 -1       753    1    0    2
 -2      1548      1550      1596      1594      2047      2048      2071      2070
 -1       754    1    0    2
 -2      1550      1552      1598      1596      2048      2049      2072      2071
 -1       755    1    0    2
 -2      1552      1554      1600      1598      2049      2050      2073      2072
 -1       756    1    0    2
 -2      1554      1556      1602      1600      2050      2051      2074      2073
 -1       757    1    0    2
 -2      1556      1558      1604      1602      2051      2052      2075      2074
 -1       758    1    0    2
 -2      1558      1560      1606      1604      2052      2053      2076      2075
 -1       759    1    0    2
 -2      1560      1562      1608      1606      2053      2054      2077      2076
 -1       760    1    0    2
 -2      1562      1564      1610      1608      2054      2055      2078      2077
 -1       761    1    0    2
 -2      1564      1566      1612      1610      2055      2056      2079      2078
 -1       762    1    0    2
 -2      1566      1568      1614      1612      2056      2057      2080      2079
 -1       763    1    0    2
 -2      1568      1570      1616      1614      2057      2058      2081      2080
 -1       764    1    0    2
 -2      1570      1572      1618      1616      2058      2059      2082      2081
 -1       765    1    0    2
 -2      1572      1574      1620      1618      2059      2060      2083      2082
 -1       766    1    0    2
 -2      1574      1576      1622      1620      2060      2061      2084      2083
 -1       767    1    0    2
 -2      1576      1578      1624      1622      2061      2062      2085      2084
 -1       768    1    0    2
 -2      1578      1033      1035      1624      2062      1059      1061      2085
 -1       769    1    0    2
 -2      1034      1580      1626      1036      1060      2063      2086      1062
 -1       770    1    0    2
 -2      1580      1582      1628      1626      2063      2064      2087      2086
 -1       771    1    0    2
 -2      1582      1584      1630      1628      2064      2065      2088      2087
 -1       772    1    0    2
 -2      1584      1586      1632      1630      2065      2066      2089      2088
 -1       773    1    0    2
 -2      1586      1588      1634      1632      2066      2067      2090      2089
 -1       774    1    0    2
 -2      1588      1590      1636      1634      2067      2068      2091      2090
 -1       775    1    0    2
 -2      1590      1592      1638      1636      2068      2069      2092      2091
 -1       776    1    0    2
 -2      1592      1594      1640      1638      2069      2070      2093      2092
 -1       777    1    0    2
 -2      1594      1596      1642      1640      2070      2071      2094      2093
 -1       778    1    0    2
 -2      1596      1598      1644      1642      2071      2072      2095      2094
 -1       779    1    0    2
 -2      1598      1600      1646      1644      2072      2073      2096      2095
 -1       780    1    0    2
 -2      1600      1602      1648      1646      2073      2074      2097      2096
 -1       781    1    0    2
 -2      1602      1604      1650      1648      2074      2075      2098      2097
 -1       782    1    0    2
 -2      1604      1606      1652      1650      2075      2076      2099      2098
 -1       783    1    0    2
 -2      1606      1608      1654      1652      2076      2077      2100      2099
 -1       784    1    0    2
 -2      1608      1610      1656      1654      2077      2078      2101      2100
 -1       785    1    0    2
 -2      1610      1612      1658      1656      2078      2079      2102      2101
 -1       786    1    0    2
 -2      1612      1614      1660      1658      2079      2080      2103      2102
 -1       787    1    0    2
 -2      1614      1616      1662      1660      2080      2081      2104      2103
 -1       788    1    0    2
 -2      1616      1618      1664      1662      2081      2082      2105      2104
 -1       789    1    0    2
 -2      1618      1620      1666      1664      2082      2083      2106      2105
 -1       790    1    0    2
 -2      1620      1622      1668      1666      2083      2084      2107      2106
 -1       791    1    0    2
 -2      1622      1624      1670      1668      2084      2085      2108      2107
 -1       792    1    0    2
 -2      1624      1035      1037      1670      2085      1061      1063      2108
 -1       793    1    0    2
 -2      1036      1626      1672      1038      1062      2086      2109      1064
 -1       794    1    0    2
 -2      1626      1628      1674      1672      2086      2087      2110      2109
 -1       795    1    0    2
 -2      1628      1630      1676      1674      2087      2088      2111      2110
 -1       796    1    0    2
 -2      1630      1632      1678      1676      2088      2089      2112      2111
 -1       797    1    0    2
 -2      1632      1634      1680      1678      2089      2090      2113      2112
 -1       798    1    0    2
 -2      1634      1636      1682      1680      2090      2091      2114      2113
 -1       799    1    0    2
 -2      1636      1638      1684      1682      2091      2092      2115      2114
 -1       800    1    0    2
 -2      1638      1640      1686      1684      2092      2093      2116      2115
 -1       801    1    0    2
 -2      1640      1642      1688      1686      2093      2094      2117      2116
 -1       802    1    0    2
 -2      1642      1644      1690      1688      2094      2095      2118      2117
 -1       803    1    0    2
 -2      1644      1646      1692      1690      2095      2096      2119      2118
 -1       804    1    0    2
 -2      1646      1648      1694      1692      2096      2097      2120      2119
 -1       805    1    0    2
 -2      1648      1650      1696      1694      2097      2098      2121      2120
 -1       806    1    0    2
 -2      1650      1652      1698      1696      2098      2099      2122      2121
 -1       807    1    0    2
 -2      1652      1654      1700      1698      2099      2100      2123      2122
 -1       808    1    0    2
 -2      1654      1656      1702      1700      2100      2101      2124      2123
 -1       809    1    0    2
 -2      1656      1658      1704      1702      2101      2102      2125      2124
 -1       810    1    0    2
 -2      1658      1660      1706      1704      2102      2103      2126      2125
 -1       811    1    0    2
 -2      1660      1662      1708      1706      2103      2104      2127      2126
 -1       812    1    0    2
 -2      1662      1664      1710      1708      2104      2105      2128      2127
 -1       813    1    0    2
 -2      1664      1666      1712      1710      2105      2106      2129      2128
 -1       814    1    0    2
 -2      1666      1668      1714      1712      2106      2107      2130      2129
 -1       815    1    0    2
 -2      1668      1670      1716      1714      2107      2108      2131      2130
 -1       816    1    0    2
 -2      1670      1037      1039      1716      2108      1063      1065      2131
 -1       817    1    0    2
 -2      1038      1672      1718      1040      1064      2109      2132      1066
 -1       818    1    0    2
 -2      1672      1674      1720      1718      2109      2110      2133      2132
 -1       819    1    0    2
 -2      1674      1676      1722      1720      2110      2111      2134      2133
 -1       820    1    0    2
 -2      1676      1678      1724      1722      2111      2112      2135      2134
 -1       821    1    0    2
 -2      1678      1680      1726      1724      2112      2113      2136      2135
 -1       822    1    0    2
 -2      1680      1682      1728      1726      2113      2114      2137      2136
 -1       823    1    0    2
 -2      1682      1684      1730      1728      2114      2115      2138      2137
 -1       824    1    0    2
 -2      1684      1686      1732      1730      2115      2116      2139      2138
 -1       825    1    0    2
 -2      1686      1688      1734      1732      2116      2117      2140      2139
 -1       826    1    0    2
 -2      1688      1690      1736      1734      2117      2118      2141      2140
 -1       827    1    0    2
 -2      1690      1692      1738      1736      2118      2119      2142      2141
 -1       828    1    0    2
 -2      1692      1694      1740      1738      2119      2120      2143      2142
 -1       829    1    0    2
 -2      1694      1696      1742      1740      2120      2121      2144      2143
 -1       830    1    0    2
 -2      1696      1698      1744      1742      2121      2122      2145      2144
 -1       831    1    0    2
 -2      1698      1700      1746      1744      2122      2123      2146      2145
 -1       832    1    0    2
 -2      1700      1702      1748      1746      2123      2124      2147      2146
 -1       833    1    0    2
 -2      1702      1704      1750      1748      2124      2125      2148      2147
 -1       834    1    0    2
 -2      1704      1706      1752      1750      2125      2126      2149      2148
 -1       835    1    0    2
 -2      1706      1708      1754      1752      2126      2127      2150      2149
 -1       836    1    0    2
 -2      1708      1710      1756      1754      2127      2128      2151      2150
 -1       837    1    0    2
 -2      1710      1712      1758      1756      2128      2129      2152      2151
 -1       838    1    0    2
 -2      1712      1714      1760      1758      2129      2130      2153      2152
 -1       839    1    0    2
 -2      1714      1716      1762      1760      2130      2131      2154      2153
 -1       840    1    0    2
 -2      1716      1039      1041      1762      2131      1065      1067      2154
 -1       841    1    0    2
 -2      1040      1718      1764      1042      1066      2132      2155      1068
 -1       842    1    0    2
 -2      1718      1720      1766      1764      2132      2133      2156      2155
 -1       843    1    0    2
 -2      1720      1722      1768      1766      2133      2134      2157      2156
 -1       844    1    0    2
 -2      1722      1724      1770      1768      2134      2135      2158      2157
 -1       845    1    0    2
 -2      1724      1726      1772      1770      2135      2136      2159      2158
 -1       846    1    0    2
 -2      1726      1728      1774      1772      2136      2137      2160      2159
 -1       847    1    0    2
 -2      1728      1730      1776      1774      2137      2138      2161      2160
 -1       848    1    0    2
 -2      1730      1732      1778      1776      2138      2139      2162      2161
 -1       849    1    0    2
 -2      1732      1734      1780      1778      2139      2140      2163      2162
 -1       850    1    0    2
 -2      1734      1736      1782      1780      2140      2141      2164      2163
 -1       851    1    0    2
 -2      1736      1738      1784      1782      2141      2142      2165      2164
 -1       852    1    0    2
 -2      1738      1740      1786      1784      2142      2143      2166      2165
 -1       853    1    0    2
 -2      1740      1742      1788      1786      2143      2144      2167      2166
 -1       854    1    0    2
 -2      1742      1744      1790      1788      2144      2145      2168      2167
 -1       855    1    0    2
 -2      1744      1746      1792      1790      2145      2146      2169      2168
 -1       856    1    0    2
 -2      1746      1748      1794      1792      2146      2147      2170      2169
 -1       857    1    0    2
 -2      1748      1750      1796      1794      2147      2148      2171      2170
 -1       858    1    0    2
 -2      1750      1752      1798      1796      2148      2149      2172      2171
 -1       859    1    0    2
 -2      1752      1754      1800      1798      2149      2150      2173      2172
 -1       860    1    0    2
 -2      1754      1756      1802      1800      2150      2151      2174      2173
 -1       861    1    0    2
 -2      1756      1758      1804      1802      2151      2152      2175      2174
 -1       862    1    0    2
 -2      1758      1760      1806      1804      2152      2153      2176      2175
 -1       863    1    0    2
 -2      1760      1762      1808      1806      2153      2154      2177      2176
 -1       864    1    0    2
 -2      1762      1041      1043      1808      2154      1067      1069      2177
 -1       865    1    0    2
 -2      1042      1764      1810      1044      1068      2155      2178      1070
 -1       866    1    0    2
 -2      1764      1766      1812      1810      2155      2156      2179      2178
 -1       867    1    0    2
 -2      1766      1768      1814      1812      2156      2157      2180      2179
 -1       868    1    0    2
 -2      1768      1770      1816      1814      2157      2158      2181      2180
 -1       869    1    0    2
 -2      1770      1772      1818      1816      2158      2159      2182      2181
 -1       870    1    0    2
 -2      1772      1774      1820      1818      2159      2160      2183      2182
 -1       871    1    0    2
 -2      1774      1776      1822      1820      2160      2161      2184      2183
 -1       872    1    0    2
 -2      1776      1778      1824      1822      2161      2162      2185      2184
 -1       873    1    0    2
 -2      1778      1780      1826      1824      2162      2163      2186      2185
 -1       874    1    0    2
 -2      1780      1782      1828      1826      2163      2164      2187      2186
 -1       875    1    0    2
 -2      1782      1784      1830      1828      2164      2165      2188      2187
 -1       876    1    0    2
 -2      1784      1786      1832      1830      2165      2166      2189      2188
 -1       877    1    0    2
 -2      1786      1788      1834      1832      2166      2167      2190      2189
 -1       878    1    0    2
 -2      1788      1790      1836      1834      2167      2168      2191      2190
 -1       879    1    0    2
 -2      1790      1792      1838      1836      2168      2169      2192      2191
 -1       880    1    0    2
 -2      1792      1794      1840      1838      2169      2170      2193      2192
 -1       881    1    0    2
 -2      1794      1796      1842      1840      2170      2171      2194      2193
 -1       882    1    0    2
 -2      1796      1798      1844      1842      2171      2172      2195      2194
 -1       883    1    0    2
 -2      1798      1800      1846      1844      2172      2173      2196      2195
 -1       884    1    0    2
 -2      1800      1802      1848      1846      2173      2174      2197      2196
 -1       885    1    0    2
 -2      1802      1804      1850      1848      2174      2175      2198      2197
 -1       886    1    0    2
 -2      1804      1806      1852      1850      2175      2176      2199      2198
 -1       887    1    0    2
 -2      1806      1808      1854      1852      2176      2177      2200      2199
 -1       888    1    0    2
 -2      1808      1043      1045      1854      2177      1069      1071      2200
 -1       889    1    0    2
 -2      1044      1810      1856      1046      1070      2178      2201      1072
 -1       890    1    0    2
 -2      1810      1812      1858      1856      2178      2179      2202      2201
 -1       891    1    0    2
 -2      1812      1814      1860      1858      2179      2180      2203      2202
 -1       892    1    0    2
 -2      1814      1816      1862      1860      2180      2181      2204      2203
 -1       893    1    0    2
 -2      1816      1818      1864      1862      2181      2182      2205      2204
 -1       894    1    0    2
 -2      1818      1820      1866      1864      2182      2183      2206      2205
 -1       895    1    0    2
 -2      1820      1822      1868      1866      2183      2184      2207      2206
 -1       896    1    0    2
 -2      1822      1824      1870      1868      2184      2185      2208      2207
 -1       897    1    0    2
 -2      1824      1826      1872      1870      2185      2186      2209      2208
 -1       898    1    0    2
 -2      1826      1828      1874      1872      2186      2187      2210      2209
 -1       899    1    0    2
 -2      1828      1830      1876      1874      2187      2188      2211      2210
 -1       900    1    0    2
 -2      1830      1832      1878      1876      2188      2189      2212      2211
 -1       901    1    0    2
 -2      1832      1834      1880      1878      2189      2190      2213      2212
 -1       902    1    0    2
 -2      1834      1836      1882      1880      2190      2191      2214      2213
 -1       903    1    0    2
 -2      1836      1838      1884      1882      2191      2192      2215      2214
 -1       904    1    0    2
 -2      1838      1840      1886      1884      2192      2193      2216      2215
 -1       905    1    0    2
 -2      1840      1842      1888      1886      2193      2194      2217      2216
 -1       906    1    0    2
 -2      1842      1844      1890      1888      2194      2195      2218      2217
 -1       907    1    0    2
 -2      1844      1846      1892      1890      2195      2196      2219      2218
 -1       908    1    0    2
 -2      1846      1848      1894      1892      2196      2197      2220      2219
 -1       909    1    0    2
 -2      1848      1850      1896      1894      2197      2198      2221      2220
 -1       910    1    0    2
 -2      1850      1852      1898      1896      2198      2199      2222      2221
 -1       911    1    0    2
 -2      1852      1854      1900      1898      2199      2200      2223      2222
 -1       912    1    0    2
 -2      1854      1045      1047      1900      2200      1071      1073      2223
 -1       913    1    0    2
 -2      1046      1856      1902      1048      1072      2201      2224      1074
 -1       914    1    0    2
 -2      1856      1858      1904      1902      2201      2202      2225      2224
 -1       915    1    0    2
 -2      1858      1860      1906      1904      2202      2203      2226      2225
 -1       916    1    0    2
 -2      1860      1862      1908      1906      2203      2204      2227      2226
 -1       917    1    0    2
 -2      1862      1864      1910      1908      2204      2205      2228      2227
 -1       918    1    0    2
 -2      1864      1866      1912      1910      2205      2206      2229      2228
 -1       919    1    0    2
 -2      1866      1868      1914      1912      2206      2207      2230      2229
 -1       920    1    0    2
 -2      1868      1870      1916      1914      2207      2208      2231      2230
 -1       921    1    0    2
 -2      1870      1872      1918      1916      2208      2209      2232      2231
 -1       922    1    0    2
 -2      1872      1874      1920      1918      2209      2210      2233      2232
 -1       923    1    0    2
 -2      1874      1876      1922      1920      2210      2211      2234      2233
 -1       924    1    0    2
 -2      1876      1878      1924      1922      2211      2212      2235      2234
 -1       925    1    0    2
 -2      1878      1880      1926      1924      2212      2213      2236      2235
 -1       926    1    0    2
 -2      1880      1882      1928      1926      2213      2214      2237      2236
 -1       927    1    0    2
 -2      1882      1884      1930      1928      2214      2215      2238      2237
 -1       928    1    0    2
 -2      1884      1886      1932      1930      2215      2216      2239      2238
 -1       929    1    0    2
 -2      1886      1888      1934      1932      2216      2217      2240      2239
 -1       930    1    0    2
 -2      1888      1890      1936      1934      2217      2218      2241      2240
 -1       931    1    0    2
 -2      1890      1892      1938      1936      2218      2219      2242      2241
 -1       932    1    0    2
 -2      1892      1894      1940      1938      2219      2220      2243      2242
 -1       933    1    0    2
 -2      1894      1896      1942      1940      2220      2221      2244      2243
 -1       934    1    0    2
 -2      1896      1898      1944      1942      2221      2222      2245      2244
 -1       935    1    0    2
 -2      1898      1900      1946      1944      2222      2223      2246      2245
 -1       936    1    0    2
 -2      1900      1047      1049      1946      2223      1073      1075      2246
 -1       937    1    0    2
 -2      1048      1902      1948      1050      1074      2224      2247      1076
 -1       938    1    0    2
 -2      1902      1904      1950      1948      2224      2225      2248      2247
 -1       939    1    0    2
 -2      1904      1906      1952      1950      2225      2226      2249      2248
 -1       940    1    0    2
 -2      1906      1908      1954      1952      2226      2227      2250      2249
 -1       941    1    0    2
 -2      1908      1910      1956      1954      2227      2228      2251      2250
 -1       942    1    0    2
 -2      1910      1912      1958      1956      2228      2229      2252      2251
 -1       943    1    0    2
 -2      1912      1914      1960      1958      2229      2230      2253      2252
 -1       944    1    0    2
 -2      1914      1916      1962      1960      2230      2231      2254      2253
 -1       945    1    0    2
 -2      1916      1918      1964      1962      2231      2232      2255      2254
 -1       946    1    0    2
 -2      1918      1920      1966      1964      2232      2233      2256      2255
 -1       947    1    0    2
 -2      1920      1922      1968      1966      2233      2234      2257      2256
 -1       948    1    0    2
 -2      1922      1924      1970      1968      2234      2235      2258      2257
 -1       949    1    0    2
 -2      1924      1926      1972      1970      2235      2236      2259      2258
 -1       950    1    0    2
 -2      1926      1928      1974      1972      2236      2237      2260      2259
 -1       951    1    0    2
 -2      1928      1930      1976      1974      2237      2238      2261      2260
 -1       952    1    0    2
 -2      1930      1932      1978      1976      2238      2239      2262      2261
 -1       953    1    0    2
 -2      1932      1934      1980      1978      2239      2240      2263      2262
 -1       954    1    0    2
 -2      1934      1936      1982      1980      2240      2241      2264      2263
 -1       955    1    0    2
 -2      1936      1938      1984      1982      2241      2242      2265      2264
 -1       956    1    0    2
 -2      1938      1940      1986      1984      2242      2243      2266      2265
 -1       957    1    0    2
 -2      1940      1942      1988      1986      2243      2244      2267      2266
 -1       958    1    0    2
 -2      1942      1944      1990      1988      2244      2245      2268      2267
 -1       959    1    0    2
 -2      1944      1946      1992      1990      2245      2246      2269      2268
 -1       960    1    0    2
 -2      1946      1049      1051      1992      2246      1075      1077      2269
 -1       961    1    0    2
 -2      1050      1948      1994      1052      1076      2247      2270      1078
 -1       962    1    0    2
 -2      1948      1950      1996      1994      2247      2248      2271      2270
 -1       963    1    0    2
 -2      1950      1952      1998      1996      2248      2249      2272      2271
 -1       964    1    0    2
 -2      1952      1954      2000      1998      2249      2250      2273      2272
 -1       965    1    0    2
 -2      1954      1956      2002      2000      2250      2251      2274      2273
 -1       966    1    0    2
 -2      1956      1958      2004      2002      2251      2252      2275      2274
 -1       967    1    0    2
 -2      1958      1960      2006      2004      2252      2253      2276      2275
 -1       968    1    0    2
 -2      1960      1962      2008      2006      2253      2254      2277      2276
 -1       969    1    0    2
 -2      1962      1964      2010      2008      2254      2255      2278      2277
 -1       970    1    0    2
 -2      1964      1966      2012      2010      2255      2256      2279      2278
 -1       971    1    0    2
 -2      1966      1968      2014      2012      2256      2257      2280      2279
 -1       972    1    0    2
 -2      1968      1970      2016      2014      2257      2258      2281      2280
 -1       973    1    0    2
 -2      1970      1972      2018      2016      2258      2259      2282      2281
 -1       974    1    0    2
 -2      1972      1974      2020      2018      2259      2260      2283      2282
 -1       975    1    0    2
 -2      1974      1976      2022      2020      2260      2261      2284      2283
 -1       976    1    0    2
 -2      1976      1978      2024      2022      2261      2262      2285      2284
 -1       977    1    0    2
 -2      1978      1980      2026      2024      2262      2263      2286      2285
 -1       978    1    0    2
 -2      1980      1982      2028      2026      2263      2264      2287      2286
 -1       979    1    0    2
 -2      1982      1984      2030      2028      2264      2265      2288      2287
 -1       980    1    0    2
 -2      1984      1986      2032      2030      2265      2266      2289      2288
 -1       981    1    0    2
 -2      1986      1988      2034      2032      2266      2267      2290      2289
 -1       982    1    0    2
 -2      1988      1990      2036      2034      2267      2268      2291      2290
 -1       983    1    0    2
 -2      1990      1992      2038      2036      2268      2269      2292      2291
 -1       984    1    0    2
 -2      1992      1051      1053      2038      2269      1077      1079      2292
 -1       985    1    0    2
 -2      1052      1994      1213      1054      1078      2270      1259      1080
 -1       986    1    0    2
 -2      1994      1996      1215      1213      2270      2271      1261      1259
 -1       987    1    0    2
 -2      1996      1998      1217      1215      2271      2272      1263      1261
 -1       988    1    0    2
 -2      1998      2000      1219      1217      2272      2273      1265      1263
 -1       989    1    0    2
 -2      2000      2002      1221      1219      2273      2274      1267      1265
 -1       990    1    0    2
 -2      2002      2004      1223      1221      2274      2275      1269      1267
 -1       991    1    0    2
 -2      2004      2006      1225      1223      2275      2276      1271      1269
 -1       992    1    0    2
 -2      2006      2008      1227      1225      2276      2277      1273      1271
 -1       993    1    0    2
 -2      2008      2010      1229      1227      2277      2278      1275      1273
 -1       994    1    0    2
 -2      2010      2012      1231      1229      2278      2279      1277      1275
 -1       995    1    0    2
 -2      2012      2014      1233      1231      2279      2280      1279      1277
 -1       996    1    0    2
 -2      2014      2016      1235      1233      2280      2281      1281      1279
 -1       997    1    0    2
 -2      2016      2018      1237      1235      2281      2282      1283      1281
 -1       998    1    0    2
 -2      2018      2020      1239      1237      2282      2283      1285      1283
 -1       999    1    0    2
 -2      2020      2022      1241      1239      2283      2284      1287      1285
 -1      1000    1    0    2
 -2      2022      2024      1243      1241      2284      2285      1289      1287
 -1      1001    1    0    2
 -2      2024      2026      1245      1243      2285      2286      1291      1289
 -1      1002    1    0    2
 -2      2026      2028      1247      1245      2286      2287      1293      1291
 -1      1003    1    0    2
 -2      2028      2030      1249      1247      2287      2288      1295      1293
 -1      1004    1    0    2
 -2      2030      2032      1251      1249      2288      2289      1297      1295
 -1      1005    1    0    2
 -2      2032      2034      1253      1251      2289      2290      1299      1297
 -1      1006    1    0    2
 -2      2034      2036      1255      1253      2290      2291      1301      1299
 -1      1007    1    0    2
 -2      2036      2038      1257      1255      2291      2292      1303      1301
 -1      1008    1    0    2
 -2      2038      1053      1055      1257      2292      1079      1081      1303
 -1      1009    1    0    2
 -2      1056      1258      2040      1058      1082      1304      2293      1084
 -1      1010    1    0    2
 -2      1258      1260      2041      2040      1304      1306      2294      2293
 -1      1011    1    0    2
 -2      1260      1262      2042      2041      1306      1308      2295      2294
 -1      1012    1    0    2
 -2      1262      1264      2043      2042      1308      1310      2296      2295
 -1      1013    1    0    2
 -2      1264      1266      2044      2043      1310      1312      2297      2296
 -1      1014    1    0    2
 -2      1266      1268      2045      2044      1312      1314      2298      2297
 -1      1015    1    0    2
 -2      1268      1270      2046      2045      1314      1316      2299      2298
 -1      1016    1    0    2
 -2      1270      1272      2047      2046      1316      1318      2300      2299
 -1      1017    1    0    2
 -2      1272      1274      2048      2047      1318      1320      2301      2300
 -1      1018    1    0    2
 -2      1274      1276      2049      2048      1320      1322      2302      2301
 -1      1019    1    0    2
 -2      1276      1278      2050      2049      1322      1324      2303      2302
 -1      1020    1    0    2
 -2      1278      1280      2051      2050      1324      1326      2304      2303
 -1      1021    1    0    2
 -2      1280      1282      2052      2051      1326      1328      2305      2304
 -1      1022    1    0    2
 -2      1282      1284      2053      2052      1328      1330      2306      2305
 -1      1023    1    0    2
 -2      1284      1286      2054      2053      1330      1332      2307      2306
 -1      1024    1    0    2
 -2      1286      1288      2055      2054      1332      1334      2308      2307
 -1      1025    1    0    2
 -2      1288      1290      2056      2055      1334      1336      2309      2308
 -1      1026    1    0    2
 -2      1290      1292      2057      2056      1336      1338      2310      2309
 -1      1027    1    0    2
 -2      1292      1294      2058      2057      1338      1340      2311      2310
 -1      1028    1    0    2
 -2      1294      1296      2059      2058      1340      1342      2312      2311
 -1      1029    1    0    2
 -2      1296      1298      2060      2059      1342      1344      2313      2312
 -1      1030    1    0    2
 -2      1298      1300      2061      2060      1344      1346      2314      2313
 -1      1031    1    0    2
 -2      1300      1302      2062      2061      1346      1348      2315      2314
 -1      1032    1    0    2
 -2      1302      1057      1059      2062      1348      1083      1085      2315
 -1      1033    1    0    2
 -2      1058      2040      2063      1060      1084      2293      2316      1086
 -1      1034    1    0    2
 -2      2040      2041      2064      2063      2293      2294      2317      2316
 -1      1035    1    0    2
 -2      2041      2042      2065      2064      2294      2295      2318      2317
 -1      1036    1    0    2
 -2      2042      2043      2066      2065      2295      2296      2319      2318
 -1      1037    1    0    2
 -2      2043      2044      2067      2066      2296      2297      2320      2319
 -1      1038    1    0    2
 -2      2044      2045      2068      2067      2297      2298      2321      2320
 -1      1039    1    0    2
 -2      2045      2046      2069      2068      2298      2299      2322      2321
 -1      1040    1    0    2
 -2      2046      2047      2070      2069      2299      2300      2323      2322
 -1      1041    1    0    2
 -2      2047      2048      2071      2070      2300      2301      2324      2323
 -1      1042    1    0    2
 -2      2048      2049      2072      2071      2301      2302      2325      2324
 -1      1043    1    0    2
 -2      2049      2050      2073      2072      2302      2303      2326      2325
 -1      1044    1    0    2
 -2      2050      2051      2074      2073      2303      2304      2327      2326
 -1      1045    1    0    2
 -2      2051      2052      2075      2074      2304      2305      2328      2327
 -1      1046    1    0    2
 -2      2052      2053      2076      2075      2305      2306      2329      2328
 -1      1047    1    0    2
 -2      2053      2054      2077      2076      2306      2307      2330      2329
 -1      1048    1    0    2
 -2      2054      2055      2078      2077      2307      2308      2331      2330
 -1      1049    1    0    2
 -2      2055      2056      2079      2078      2308      2309      2332      2331
 -1      1050    1    0    2
 -2      2056      2057      2080      2079      2309      2310      2333      2332
 -1      1051    1    0    2
 -2      2057      2058      2081      2080      2310      2311      2334      2333
 -1      1052    1    0    2
 -2      2058      2059      2082      2081      2311      2312      2335      2334
 -1      1053    1    0    2
 -2      2059      2060      2083      2082      2312      2313      2336      2335
 -1      1054    1    0    2
 -2      2060      2061      2084      2083      2313      2314      2337      2336
 -1      1055    1    0    2
 -2      2061      2062      2085      2084      2314      2315      2338      2337
 -1      1056    1    0    2
 -2      2062      1059      1061      2085      2315      1085      1087      2338
 -1      1057    1    0    2
 -2      1060      2063      2086      1062      1086      2316      2339      1088
 -1      1058    1    0    2
 -2      2063      2064      2087      2086      2316      2317      2340      2339
 -1      1059    1    0    2
 -2      2064      2065      2088      2087      2317      2318      2341      2340
 -1      1060    1    0    2
 -2      2065      2066      2089      2088      2318      2319      2342      2341
 -1      1061    1    0    2
 -2      2066      2067      2090      2089      2319      2320      2343      2342
 -1      1062    1    0    2
 -2      2067      2068      2091      2090      2320      2321      2344      2343
 -1      1063    1    0    2
 -2      2068      2069      2092      2091      2321      2322      2345      2344
 -1      1064    1    0    2
 -2      2069      2070      2093      2092      2322      2323      2346      2345
 -1      1065    1    0    2
 -2      2070      2071      2094      2093      2323      2324      2347      2346
 -1      1066    1    0    2
 -2      2071      2072      2095      2094      2324      2325      2348      2347
 -1      1067    1    0    2
 -2      2072      2073      2096      2095      2325      2326      2349      2348
 -1      1068    1    0    2
 -2      2073      2074      2097      2096      2326      2327      2350      2349
 -1      1069    1    0    2
 -2      2074      2075      2098      2097      2327      2328      2351      2350
 -1      1070    1    0    2
 -2      2075      2076      2099      2098      2328      2329      2352      2351
 -1      1071    1    0    2
 -2      2076      2077      2100      2099      2329      2330      2353      2352
 -1      1072    1    0    2
 -2      2077      2078      2101      2100      2330      2331      2354      2353
 -1      1073    1    0    2
 -2      2078      2079      2102      2101      2331      2332      2355      2354
 -1      1074    1    0    2
 -2      2079      2080      2103      2102      2332      2333      2356      2355
 -1      1075    1    0    2
 -2      2080      2081      2104      2103      2333      2334      2357      2356
 -1      1076    1    0    2
 -2      2081      2082      2105      2104      2334      2335      2358      2357
 -1      1077    1    0    2
 -2      2082      2083      2106      2105      2335      2336      2359      2358
 -1      1078    1    0    2
 -2      2083      2084      2107      2106      2336      2337      2360      2359
 -1      1079    1    0    2
 -2      2084      2085      2108      2107      2337      2338      2361      2360
 -1      1080    1    0    2
 -2      2085      1061      1063      2108      2338      1087      1089      2361
 -1      1081    1    0    2
 -2      1062      2086      2109      1064      1088      2339      2362      1090
 -1      1082    1    0    2
 -2      2086      2087      2110      2109      2339      2340      2363      2362
 -1      1083    1    0    2
 -2      2087      2088      2111      2110      2340      2341      2364      2363
 -1      1084    1    0    2
 -2      2088      2089      2112      2111      2341      2342      2365      2364
 -1      1085    1    0    2
 -2      2089      2090      2113      2112      2342      2343      2366      2365
 -1      1086    1    0    2
 -2      2090      2091      2114      2113      2343      2344      2367      2366
 -1      1087    1    0    2
 -2      2091      2092      2115      2114      2344      2345      2368      2367
 -1      1088    1    0    2
 -2      2092      2093      2116      2115      2345      2346      2369      2368
 -1      1089    1    0    2
 -2      2093      2094      2117      2116      2346      2347      2370      2369
 -1      1090    1    0    2
 -2      2094      2095      2118      2117      2347      2348      2371      2370
 -1      1091    1    0    2
 -2      2095      2096      2119      2118      2348      2349      2372      2371
 -1      1092    1    0    2
 -2      2096      2097      2120      2119      2349      2350      2373      2372
 -1      1093    1    0    2
 -2      2097      2098      2121      2120      2350      2351      2374      2373
 -1      1094    1    0    2
 -2      2098      2099      2122      2121      2351      2352      2375      2374
 -1      1095    1    0    2
 -2      2099      2100      2123      2122      2352      2353      2376      2375
 -1      1096    1    0    2
 -2      2100      2101      2124      2123      2353      2354      2377      2376
 -1      1097    1    0    2
 -2      2101      2102      2125      2124      2354      2355      2378      2377
 -1      1098    1    0    2
 -2      2102      2103      2126      2125      2355      2356      2379      2378
 -1      1099    1    0    2
 -2      2103      2104      2127      2126      2356      2357      2380      2379
 -1      1100    1    0    2
 -2      2104      2105      2128      2127      2357      2358      2381      2380
 -1      1101    1    0    2
 -2      2105      2106      2129      2128      2358      2359      2382      2381
 -1      1102    1    0    2
 -2      2106      2107      2130      2129      2359      2360      2383      2382
 -1      1103    1    0    2
 -2      2107      2108      2131      2130      2360      2361      2384      2383
 -1      1104    1    0    2
 -2      2108      1063      1065      2131      2361      1089      1091      2384
 -1      1105    1    0    2
 -2      1064      2109      2132      1066      1090      2362      2385      1092
 -1      1106    1    0    2
 -2      2109      2110      2133      2132      2362      2363      2386      2385
 -1      1107    1    0    2
 -2      2110      2111      2134      2133      2363      2364      2387      2386
 -1      1108    1    0    2
 -2      2111      2112      2135      2134      2364      2365      2388      2387
 -1      1109    1    0    2
 -2      2112      2113      2136      2135      2365      2366      2389      2388
 -1      1110    1    0    2
 -2      2113      2114      2137      2136      2366      2367      2390      2389
 -1      1111    1    0    2
 -2      2114      2115      2138      2137      2367      2368      2391      2390
 -1      1112    1    0    2
 -2      2115      2116      2139      2138      2368      2369      2392      2391
 -1      1113    1    0    2
 -2      2116      2117      2140      2139      2369      2370      2393      2392
 -1      1114    1    0    2
 -2      2117      2118      2141      2140      2370      2371      2394      2393
 -1      1115    1    0    2
 -2      2118      2119      2142      2141      2371      2372      2395      2394
 -1      1116    1    0    2
 -2      2119      2120      2143      2142      2372      2373      2396      2395
 -1      1117    1    0    2
 -2      2120      2121      2144      2143      2373      2374      2397      2396
 -1      1118    1    0    2
 -2      2121      2122      2145      2144      2374      2375      2398      2397
 -1      1119    1    0    2
 -2      2122      2123      2146      2145      2375      2376      2399      2398
 -1      1120    1    0    2
 -2      2123      2124      2147      2146      2376      2377      2400      2399
 -1      1121    1    0    2
 -2      2124      2125      2148      2147      2377      2378      2401      2400
 -1      1122    1    0    2
 -2      2125      2126      2149      2148      2378      2379      2402      2401
 -1      1123    1    0    2
 -2      2126      2127      2150      2149      2379      2380      2403      2402
 -1      1124    1    0    2
 -2      2127      2128      2151      2150      2380      2381      2404      2403
 -1      1125    1    0    2
 -2      2128      2129      2152      2151      2381      2382      2405      2404
 -1      1126    1    0    2
 -2      2129      2130      2153      2152      2382      2383      2406      2405
 -1      1127    1    0    2
 -2      2130      2131      2154      2153      2383      2384      2407      2406
 -1      1128    1    0    2
 -2      2131      1065      1067      2154      2384      1091      1093      2407
 -1      1129    1    0    2
 -2      1066      2132      2155      1068      1092      2385      2408      1094
 -1      1130    1    0    2
 -2      2132      2133      2156      2155      2385      2386      2409      2408
 -1      1131    1    0    2
 -2      2133      2134      2157      2156      2386      2387      2410      2409
 -1      1132    1    0    2
 -2      2134      2135      2158      2157      2387      2388      2411      2410
 -1      1133    1    0    2
 -2      2135      2136      2159      2158      2388      2389      2412      2411
 -1      1134    1    0    2
 -2      2136      2137      2160      2159      2389      2390      2413      2412
 -1      1135    1    0    2
 -2      2137      2138      2161      2160      2390      2391      2414      2413
 -1      1136    1    0    2
 -2      2138      2139      2162      2161      2391      2392      2415      2414
 -1      1137    1    0    2
 -2      2139      2140      2163      2162      2392      2393      2416      2415
 -1      1138    1    0    2
 -2      2140      2141      2164      2163      2393      2394      2417      2416
 -1      1139    1    0    2
 -2      2141      2142      2165      2164      2394      2395      2418      2417
 -1      1140    1    0    2
 -2      2142      2143      2166      2165      2395      2396      2419      2418
 -1      1141    1    0    2
 -2      2143      2144      2167      2166      2396      2397      2420      2419
 -1      1142    1    0    2
 -2      2144      2145      2168      2167      2397      2398      2421      2420
 -1      1143    1    0    2
 -2      2145      2146      2169      2168      2398      2399      2422      2421
 -1      1144    1    0    2
 -2      2146      2147      2170      2169      2399      2400      2423      2422
 -1      1145    1    0    2
 -2      2147      2148      2171      2170      2400      2401      2424      2423
 -1      1146    1    0    2
 -2      2148      2149      2172      2171      2401      2402      2425      2424
 -1      1147    1    0    2
 -2      2149      2150      2173      2172      2402      2403      2426      2425
 -1      1148    1    0    2
 -2      2150      2151      2174      2173      2403      2404      2427      2426
 -1      1149    1    0    2
 -2      2151      2152      2175      2174      2404      2405      2428      2427
 -1      1150    1    0    2
 -2      2152      2153      2176      2175      2405      2406      2429      2428
 -1      1151    1    0    2
 -2      2153      2154      2177      2176      2406      2407      2430      2429
 -1      1152    1    0    2
 -2      2154      1067      1069      2177      2407      1093      1095      2430
 -1      1153    1    0    2
 -2      1068      2155      2178      1070      1094      2408      2431      1096
 -1      1154    1    0    2
 -2      2155      2156      2179      2178      2408      2409      2432      2431
 -1      1155    1    0    2
 -2      2156      2157      2180      2179      2409      2410      2433      2432
 -1      1156    1    0    2
 -2      2157      2158      2181      2180      2410      2411      2434      2433
 -1      1157    1    0    2
 -2      2158      2159      2182      2181      2411      2412      2435      2434
 -1      1158    1    0    2
 -2      2159      2160      2183      2182      2412      2413      2436      2435
 -1      1159    1    0    2
 -2      2160      2161      2184      2183      2413      2414      2437      2436
 -1      1160    1    0    2
 -2      2161      2162      2185      2184      2414      2415      2438      2437
 -1      1161    1    0    2
 -2      2162      2163      2186      2185      2415      2416      2439      2438
 -1      1162    1    0    2
 -2      2163      2164      2187      2186      2416      2417      2440      2439
 -1      1163    1    0    2
 -2      2164      2165      2188      2187      2417      2418      2441      2440
 -1      1164    1    0    2
 -2      2165      2166      2189      2188      2418      2419      2442      2441
 -1      1165    1    0    2
 -2      2166      2167      2190      2189      2419      2420      2443      2442
 -1      1166    1    0    2
 -2      2167      2168      2191      2190      2420      2421      2444      2443
 -1      1167    1    0    2
 -2      2168      2169      2192      2191      2421      2422      2445      2444
 -1      1168    1    0    2
 -2      2169      2170      2193      2192      2422      2423      2446      2445
 -1      1169    1    0    2
 -2      2170      2171      2194      2193      2423      2424      2447      2446
 -1      1170    1    0    2
 -2      2171      2172      2195      2194      2424      2425      2448      2447
 -1      1171    1    0    2
 -2      2172      2173      2196      2195      2425      2426      2449      2448
 -1      1172    1    0    2
 -2      2173      2174      2197      2196      2426      2427      2450      2449
 -1      1173    1    0    2
 -2      2174      2175      2198      2197      2427      2428      2451      2450
 -1      1174    1    0    2
 -2      2175      2176      2199      2198      2428      2429      2452      2451
 -1      1175    1    0    2
 -2      2176      2177      2200      2199      2429      2430      2453      2452
 -1      1176    1    0    2
 -2      2177      1069      1071      2200      2430      1095      1097      2453
 -1      1177    1    0    2
 -2      1070      2178      2201      1072      1096      2431      2454      1098
 -1      1178    1    0    2
 -2      2178      2179      2202      2201      2431      2432      2455      2454
 -1      1179    1    0    2
 -2      2179      2180      2203      2202      2432      2433      2456      2455
 -1      1180    1    0    2
 -2      2180      2181      2204      2203      2433      2434      2457      2456
 -1      1181    1    0    2
 -2      2181      2182      2205      2204      2434      2435      2458      2457
 -1      1182    1    0    2
 -2      2182      2183      2206      2205      2435      2436      2459      2458
 -1      1183    1    0    2
 -2      2183      2184      2207      2206      2436      2437      2460      2459
 -1      1184    1    0    2
 -2      2184      2185      2208      2207      2437      2438      2461      2460
 -1      1185    1    0    2
 -2      2185      2186      2209      2208      2438      2439      2462      2461
 -1      1186    1    0    2
 -2      2186      2187      2210      2209      2439      2440      2463      2462
 -1      1187    1    0    2
 -2      2187      2188      2211      2210      2440      2441      2464      2463
 -1      1188    1    0    2
 -2      2188      2189      2212      2211      2441      2442      2465      2464
 -1      1189    1    0    2
 -2      2189      2190      2213      2212      2442      2443      2466      2465
 -1      1190    1    0    2
 -2      2190      2191      2214      2213      2443      2444      2467      2466
 -1      1191    1    0    2
 -2      2191      2192      2215      2214      2444      2445      2468      2467
 -1      1192    1    0    2
 -2      2192      2193      2216      2215      2445      2446      2469      2468
 -1      1193    1    0    2
 -2      2193      2194      2217      2216      2446      2447      2470      2469
 -1      1194    1    0    2
 -2      2194      2195      2218      2217      2447      2448      2471      2470
 -1      1195    1    0    2
 -2      2195      2196      2219      2218      2448      2449      2472      2471
 -1      1196    1    0    2
 -2      2196      2197      2220      2219      2449      2450      2473      2472
 -1      1197    1    0    2
 -2      2197      2198      2221      2220      2450      2451      2474      2473
 -1      1198    1    0    2
 -2      2198      2199      2222      2221      2451      2452      2475      2474
 -1      1199    1    0    2
 -2      2199      2200      2223      2222      2452      2453      2476      2475
 -1      1200    1    0    2
 -2      2200      1071      1073      2223      2453      1097      1099      2476
 -1      1201    1    0    2
 -2      1072      2201      2224      1074      1098      2454      2477      1100
 -1      1202    1    0    2
 -2      2201      2202      2225      2224      2454      2455      2478      2477
 -1      1203    1    0    2
 -2      2202      2203      2226      2225      2455      2456      2479      2478
 -1      1204    1    0    2
 -2      2203      2204      2227      2226      2456      2457      2480      2479
 -1      1205    1    0    2
 -2      2204      2205      2228      2227      2457      2458      2481      2480
 -1      1206    1    0    2
 -2      2205      2206      2229      2228      2458      2459      2482      2481
 -1      1207    1    0    2
 -2      2206      2207      2230      2229      2459      2460      2483      2482
 -1      1208    1    0    2
 -2      2207      2208      2231      2230      2460      2461      2484      2483
 -1      1209    1    0    2
 -2      2208      2209      2232      2231      2461      2462      2485      2484
 -1      1210    1    0    2
 -2      2209      2210      2233      2232      2462      2463      2486      2485
 -1      1211    1    0    2
 -2      2210      2211      2234      2233      2463      2464      2487      2486
 -1      1212    1    0    2
 -2      2211      2212      2235      2234      2464      2465      2488      2487
 -1      1213    1    0    2
 -2      2212      2213      2236      2235      2465      2466      2489      2488
 -1      1214    1    0    2
 -2      2213      2214      2237      2236      2466      2467      2490      2489
 -1      1215    1    0    2
 -2      2214      2215      2238      2237      2467      2468      2491      2490
 -1      1216    1    0    2
 -2      2215      2216      2239      2238      2468      2469      2492      2491
 -1      1217    1    0    2
 -2      2216      2217      2240      2239      2469      2470      2493      2492
 -1      1218    1    0    2
 -2      2217      2218      2241      2240      2470      2471      2494      2493
 -1      1219    1    0    2
 -2      2218      2219      2242      2241      2471      2472      2495      2494
 -1      1220    1    0    2
 -2      2219      2220      2243      2242      2472      2473      2496      2495
 -1      1221    1    0    2
 -2      2220      2221      2244      2243      2473      2474      2497      2496
 -1      1222    1    0    2
 -2      2221      2222      2245      2244      2474      2475      2498      2497
 -1      1223    1    0    2
 -2      2222      2223      2246      2245      2475      2476      2499      2498
 -1      1224    1    0    2
 -2      2223      1073      1075      2246      2476      1099      1101      2499
 -1      1225    1    0    2
 -2      1074      2224      2247      1076      1100      2477      2500      1102
 -1      1226    1    0    2
 -2      2224      2225      2248      2247      2477      2478      2501      2500
 -1      1227    1    0    2
 -2      2225      2226      2249      2248      2478      2479      2502      2501
 -1      1228    1    0    2
 -2      2226      2227      2250      2249      2479      2480      2503      2502
 -1      1229    1    0    2
 -2      2227      2228      2251      2250      2480      2481      2504      2503
 -1      1230    1    0    2
 -2      2228      2229      2252      2251      2481      2482      2505      2504
 -1      1231    1    0    2
 -2      2229      2230      2253      2252      2482      2483      2506      2505
 -1      1232    1    0    2
 -2      2230      2231      2254      2253      2483      2484      2507      2506
 -1      1233    1    0    2
 -2      2231      2232      2255      2254      2484      2485      2508      2507
 -1      1234    1    0    2
 -2      2232      2233      2256      2255      2485      2486      2509      2508
 -1      1235    1    0    2
 -2      2233      2234      2257      2256      2486      2487      2510      2509
 -1      1236    1    0    2
 -2      2234      2235      2258      2257      2487      2488      2511      2510
 -1      1237    1    0    2
 -2      2235      2236      2259      2258      2488      2489      2512      2511
 -1      1238    1    0    2
 -2      2236      2237      2260      2259      2489      2490      2513      2512
 -1      1239    1    0    2
 -2      2237      2238      2261      2260      2490      2491      2514      2513
 -1      1240    1    0    2
 -2      2238      2239      2262      2261      2491      2492      2515      2514
 -1      1241    1    0    2
 -2      2239      2240      2263      2262      2492      2493      2516      2515
 -1      1242    1    0    2
 -2      2240      2241      2264      2263      2493      2494      2517      2516
 -1      1243    1    0    2
 -2      2241      2242      2265      2264      2494      2495      2518      2517
 -1      1244    1    0    2
 -2      2242      2243      2266      2265      2495      2496      2519      2518
 -1      1245    1    0    2
 -2      2243      2244      2267      2266      2496      2497      2520      2519
 -1      1246    1    0    2
 -2      2244      2245      2268      2267      2497      2498      2521      2520
 -1      1247    1    0    2
 -2      2245      2246      2269      2268      2498      2499      2522      2521
 -1      1248    1    0    2
 -2      2246      1075      1077      2269      2499      1101      1103      2522
 -1      1249    1    0    2
 -2      1076      2247      2270      1078      1102      2500      2523      1104
 -1      1250    1    0    2
 -2      2247      2248      2271      2270      2500      2501      2524      2523
 -1      1251    1    0    2
 -2      2248      2249      2272      2271      2501      2502      2525      2524
 -1      1252    1    0    2
 -2      2249      2250      2273      2272      2502      2503      2526      2525
 -1      1253    1    0    2
 -2      2250      2251      2274      2273      2503      2504      2527      2526
 -1      1254    1    0    2
 -2      2251      2252      2275      2274      2504      2505      2528      2527
 -1      1255    1    0    2
 -2      2252      2253      2276      2275      2505      2506      2529      2528
 -1      1256    1    0    2
 -2      2253      2254      2277      2276      2506      2507      2530      2529
 -1      1257    1    0    2
 -2      2254      2255      2278      2277      2507      2508      2531      2530
 -1      1258    1    0    2
 -2      2255      2256      2279      2278      2508      2509      2532      2531
 -1      1259    1    0    2
 -2      2256      2257      2280      2279      2509      2510      2533      2532
 -1      1260    1    0    2
 -2      2257      2258      2281      2280      2510      2511      2534      2533
 -1      1261    1    0    2
 -2      2258      2259      2282      2281      2511      2512      2535      2534
 -1      1262    1    0    2
 -2      2259      2260      2283      2282      2512      2513      2536      2535
 -1      1263    1    0    2
 -2      2260      2261      2284      2283      2513      2514      2537      2536
 -1      1264    1    0    2
 -2      2261      2262      2285      2284      2514      2515      2538      2537
 -1      1265    1    0    2
 -2      2262      2263      2286      2285      2515      2516      2539      2538
 -1      1266    1    0    2
 -2      2263      2264      2287      2286      2516      2517      2540      2539
 -1      1267    1    0    2
 -2      2264      2265      2288      2287      2517      2518      2541      2540
 -1      1268    1    0    2
 -2      2265      2266      2289      2288      2518      2519      2542      2541
 -1      1269    1    0    2
 -2      2266      2267      2290      2289      2519      2520      2543      2542
 -1      1270    1    0    2
 -2      2267      2268      2291      2290      2520      2521      2544      2543
 -1      1271    1    0    2
 -2      2268      2269      2292      2291      2521      2522      2545      2544
 -1      1272    1    0    2
 -2      2269      1077      1079      2292      2522      1103      1105      2545
 -1      1273    1    0    2
 -2      1078      2270      1259      1080      1104      2523      1305      1106
 -1      1274    1    0    2
 -2      2270      2271      1261      1259      2523      2524      1307      1305
 -1      1275    1    0    2
 -2      2271      2272      1263      1261      2524      2525      1309      1307
 -1      1276    1    0    2
 -2      2272      2273      1265      1263      2525      2526      1311      1309
 -1      1277    1    0    2
 -2      2273      2274      1267      1265      2526      2527      1313      1311
 -1      1278    1    0    2
 -2      2274      2275      1269      1267      2527      2528      1315      1313
 -1      1279    1    0    2
 -2      2275      2276      1271      1269      2528      2529      1317      1315
 -1      1280    1    0    2
 -2      2276      2277      1273      1271      2529      2530      1319      1317
 -1      1281    1    0    2
 -2      2277      2278      1275      1273      2530      2531      1321      1319
 -1      1282    1    0    2
 -2      2278      2279      1277      1275      2531      2532      1323      1321
 -1      1283    1    0    2
 -2      2279      2280      1279      1277      2532      2533      1325      1323
 -1      1284    1    0    2
 -2      2280      2281      1281      1279      2533      2534      1327      1325
 -1      1285    1    0    2
 -2      2281      2282      1283      1281      2534      2535      1329      1327
 -1      1286    1    0    2
 -2      2282      2283      1285      1283      2535      2536      1331      1329
 -1      1287    1    0    2
 -2      2283      2284      1287      1285      2536      2537      1333      1331
 -1      1288    1    0    2
 -2      2284      2285      1289      1287      2537      2538      1335      1333
 -1      1289    1    0    2
 -2      2285      2286      1291      1289      2538      2539      1337      1335
 -1      1290    1    0    2
 -2      2286      2287      1293      1291      2539      2540      1339      1337
 -1      1291    1    0    2
 -2      2287      2288      1295      1293      2540      2541      1341      1339
 -1      1292    1    0    2
 -2      2288      2289      1297      1295      2541      2542      1343      1341
 -1      1293    1    0    2
 -2      2289      2290      1299      1297      2542      2543      1345      1343
 -1      1294    1    0    2
 -2      2290      2291      1301      1299      2543      2544      1347      1345
 -1      1295    1    0    2
 -2      2291      2292      1303      1301      2544      2545      1349      1347
 -1      1296    1    0    2
 -2      2292      1079      1081      1303      2545      1105      1107      1349
 -1      1297    1    0    2
 -2      1082      1304      2293      1084      1108      1350      2546      1110
 -1      1298    1    0    2
 -2      1304      1306      2294      2293      1350      1352      2547      2546
 -1      1299    1    0    2
 -2      1306      1308      2295      2294      1352      1354      2548      2547
 -1      1300    1    0    2
 -2      1308      1310      2296      2295      1354      1356      2549      2548
 -1      1301    1    0    2
 -2      1310      1312      2297      2296      1356      1358      2550      2549
 -1      1302    1    0    2
 -2      1312      1314      2298      2297      1358      1360      2551      2550
 -1      1303    1    0    2
 -2      1314      1316      2299      2298      1360      1362      2552      2551
 -1      1304    1    0    2
 -2      1316      1318      2300      2299      1362      1364      2553      2552
 -1      1305    1    0    2
 -2      1318      1320      2301      2300      1364      1366      2554      2553
 -1      1306    1    0    2
 -2      1320      1322      2302      2301      1366      1368      2555      2554
 -1      1307    1    0    2
 -2      1322      1324      2303      2302      1368      1370      2556      2555
 -1      1308    1    0    2
 -2      1324      1326      2304      2303      1370      1372      2557      2556
 -1      1309    1    0    2
 -2      1326      1328      2305      2304      1372      1374      2558      2557
 -1      1310    1    0    2
 -2      1328      1330      2306      2305      1374      1376      2559      2558
 -1      1311    1    0    2
 -2      1330      1332      2307      2306      1376      1378      2560      2559
 -1      1312    1    0    2
 -2      1332      1334      2308      2307      1378      1380      2561      2560
 -1      1313    1    0    2
 -2      1334      1336      2309      2308      1380      1382      2562      2561
 -1      1314    1    0    2
 -2      1336      1338      2310      2309      1382      1384      2563      2562
 -1      1315    1    0    2
 -2      1338      1340      2311      2310      1384      1386      2564      2563
 -1      1316    1    0    2
 -2      1340      1342      2312      2311      1386      1388      2565      2564
 -1      1317    1    0    2
 -2      1342      1344      2313      2312      1388      1390      2566      2565
 -1      1318    1    0    2
 -2      1344      1346      2314      2313      1390      1392      2567      2566
 -1      1319    1    0    2
 -2      1346      1348      2315      2314      1392      1394      2568      2567
 -1      1320    1    0    2
 -2      1348      1083      1085      2315      1394      1109      1111      2568
 -1      1321    1    0    2
 -2      1084      2293      2316      1086      1110      2546      2569      1112
 -1      1322    1    0    2
 -2      2293      2294      2317      2316      2546      2547      2570      2569
 -1      1323    1    0    2
 -2      2294      2295      2318      2317      2547      2548      2571      2570
 -1      1324    1    0    2
 -2      2295      2296      2319      2318      2548      2549      2572      2571
 -1      1325    1    0    2
 -2      2296      2297      2320      2319      2549      2550      2573      2572
 -1      1326    1    0    2
 -2      2297      2298      2321      2320      2550      2551      2574      2573
 -1      1327    1    0    2
 -2      2298      2299      2322      2321      2551      2552      2575      2574
 -1      1328    1    0    2
 -2      2299      2300      2323      2322      2552      2553      2576      2575
 -1      1329    1    0    2
 -2      2300      2301      2324      2323      2553      2554      2577      2576
 -1      1330    1    0    2
 -2      2301      2302      2325      2324      2554      2555      2578      2577
 -1      1331    1    0    2
 -2      2302      2303      2326      2325      2555      2556      2579      2578
 -1      1332    1    0    2
 -2      2303      2304      2327      2326      2556      2557      2580      2579
 -1      1333    1    0    2
 -2      2304      2305      2328      2327      2557      2558      2581      2580
 -1      1334    1    0    2
 -2      2305      2306      2329      2328      2558      2559      2582      2581
 -1      1335    1    0    2
 -2      2306      2307      2330      2329      2559      2560      2583      2582
 -1      1336    1    0    2
 -2      2307      2308      2331      2330      2560      2561      2584      2583
 -1      1337    1    0    2
 -2      2308      2309      2332      2331      2561      2562      2585      2584
 -1      1338    1    0    2
 -2      2309      2310      2333      2332      2562      2563      2586      2585
 -1      1339    1    0    2
 -2      2310      2311      2334      2333      2563      2564      2587      2586
 -1      1340    1    0    2
 -2      2311      2312      2335      2334      2564      2565      2588      2587
 -1      1341    1    0    2
 -2      2312      2313      2336      2335      2565      2566      2589      2588
 -1      1342    1    0    2
 -2      2313      2314      2337      2336      2566      2567      2590      2589
 -1      1343    1    0    2
 -2      2314      2315      2338      2337      2567      2568      2591      2590
 -1      1344    1    0    2
 -2      2315      1085      1087      2338      2568      1111      1113      2591
 -1      1345    1    0    2
 -2      1086      2316      2339      1088      1112      2569      2592      1114
 -1      1346    1    0    2
 -2      2316      2317      2340      2339      2569      2570      2593      2592
 -1      1347    1    0    2
 -2      2317      2318      2341      2340      2570      2571      2594      2593
 -1      1348    1    0    2
 -2      2318      2319      2342      2341      2571      2572      2595      2594
 -1      1349    1    0    2
 -2      2319      2320      2343      2342      2572      2573      2596      2595
 -1      1350    1    0    2
 -2      2320      2321      2344      2343      2573      2574      2597      2596
 -1      1351    1    0    2
 -2      2321      2322      2345      2344      2574      2575      2598      2597
 -1      1352    1    0    2
 -2      2322      2323      2346      2345      2575      2576      2599      2598
 -1      1353    1    0    2
 -2      2323      2324      2347      2346      2576      2577      2600      2599
 -1      1354    1    0    2
 -2      2324      2325      2348      2347      2577      2578      2601      2600
 -1      1355    1    0    2
 -2      2325      2326      2349      2348      2578      2579      2602      2601
 -1      1356    1    0    2
 -2      2326      2327      2350      2349      2579      2580      2603      2602
 -1      1357    1    0    2
 -2      2327      2328      2351      2350      2580      2581      2604      2603
 -1      1358    1    0    2
 -2      2328      2329      2352      2351      2581      2582      2605      2604
 -1      1359    1    0    2
 -2      2329      2330      2353      2352      2582      2583      2606      2605
 -1      1360    1    0    2
 -2      2330      2331      2354      2353      2583      2584      2607      2606
 -1      1361    1    0    2
 -2      2331      2332      2355      2354      2584      2585      2608      2607
 -1      1362    1    0    2
 -2      2332      2333      2356      2355      2585      2586      2609      2608
 -1      1363    1    0    2
 -2      2333      2334      2357      2356      2586      2587      2610      2609
 -1      1364    1    0    2
 -2      2334      2335      2358      2357      2587      2588      2611      2610
 -1      1365    1    0    2
 -2      2335      2336      2359      2358      2588      2589      2612      2611
 -1      1366    1    0    2
 -2      2336      2337      2360      2359      2589      2590      2613      2612
 -1      1367    1    0    2
 -2      2337      2338      2361      2360      2590      2591      2614      2613
 -1      1368    1    0    2
 -2      2338      1087      1089      2361      2591      1113      1115      2614
 -1      1369    1    0    2
 -2      1088      2339      2362      1090      1114      2592      2615      1116
 -1      1370    1    0    2
 -2      2339      2340      2363      2362      2592      2593      2616      2615
 -1      1371    1    0    2
 -2      2340      2341      2364      2363      2593      2594      2617      2616
 -1      1372    1    0    2
 -2      2341      2342      2365      2364      2594      2595      2618      2617
 -1      1373    1    0    2
 -2      2342      2343      2366      2365      2595      2596      2619      2618
 -1      1374    1    0    2
 -2      2343      2344      2367      2366      2596      2597      2620      2619
 -1      1375    1    0    2
 -2      2344      2345      2368      2367      2597      2598      2621      2620
 -1      1376    1    0    2
 -2      2345      2346      2369      2368      2598      2599      2622      2621
 -1      1377    1    0    2
 -2      2346      2347      2370      2369      2599      2600      2623      2622
 -1      1378    1    0    2
 -2      2347      2348      2371      2370      2600      2601      2624      2623
 -1      1379    1    0    2
 -2      2348      2349      2372      2371      2601      2602      2625      2624
 -1      1380    1    0    2
 -2      2349      2350      2373      2372      2602      2603      2626      2625
 -1      1381    1    0    2
 -2      2350      2351      2374      2373      2603      2604      2627      2626
 -1      1382    1    0    2
 -2      2351      2352      2375      2374      2604      2605      2628      2627
 -1      1383    1    0    2
 -2      2352      2353      2376      2375      2605      2606      2629      2628
 -1      1384    1    0    2
 -2      2353      2354      2377      2376      2606      2607      2630      2629
 -1      1385    1    0    2
 -2      2354      2355      2378      2377      2607      2608      2631      2630
 -1      1386    1    0    2
 -2      2355      2356      2379      2378      2608      2609      2632      2631
 -1      1387    1    0    2
 -2      2356      2357      2380      2379      2609      2610      2633      2632
 -1      1388    1    0    2
 -2      2357      2358      2381      2380      2610      2611      2634      2633
 -1      1389    1    0    2
 -2      2358      2359      2382      2381      2611      2612      2635      2634
 -1      1390    1    0    2
 -2      2359      2360      2383      2382      2612      2613      2636      2635
 -1      1391    1    0    2
 -2      2360      2361      2384      2383      2613      2614      2637      2636
 -1      1392    1    0    2
 -2      2361      1089      1091      2384      2614      1115      1117      2637
 -1      1393    1    0    2
 -2      1090      2362      2385      1092      1116      2615      2638      1118
 -1      1394    1    0    2
 -2      2362      2363      2386      2385      2615      2616      2639      2638
 -1      1395    1    0    2
 -2      2363      2364      2387      2386      2616      2617      2640      2639
 -1      1396    1    0    2
 -2      2364      2365      2388      2387      2617      2618      2641      2640
 -1      1397    1    0    2
 -2      2365      2366      2389      2388      2618      2619      2642      2641
 -1      1398    1    0    2
 -2      2366      2367      2390      2389      2619      2620      2643      2642
 -1      1399    1    0    2
 -2      2367      2368      2391      2390      2620      2621      2644      2643
 -1      1400    1    0    2
 -2      2368      2369      2392      2391      2621      2622      2645      2644
 -1      1401    1    0    2
 -2      2369      2370      2393      2392      2622      2623      2646      2645
 -1      1402    1    0    2
 -2      2370      2371      2394      2393      2623      2624      2647      2646
 -1      1403    1    0    2
 -2      2371      2372      2395      2394      2624      2625      2648      2647
 -1      1404    1    0    2
 -2      2372      2373      2396      2395      2625      2626      2649      2648
 -1      1405    1    0    2
 -2      2373      2374      2397      2396      2626      2627      2650      2649
 -1      1406    1    0    2
 -2      2374      2375      2398      2397      2627      2628      2651      2650
 -1      1407    1    0    2
 -2      2375      2376      2399      2398      2628      2629      2652      2651
 -1      1408    1    0    2
 -2      2376      2377      2400      2399      2629      2630      2653      2652
 -1      1409    1    0    2
 -2      2377      2378      2401      2400      2630      2631      2654      2653
 -1      1410    1    0    2
 -2      2378      2379      2402      2401      2631      2632      2655      2654
 -1      1411    1    0    2
 -2      2379      2380      2403      2402      2632      2633      2656      2655
 -1      1412    1    0    2
 -2      2380      2381      2404      2403      2633      2634      2657      2656
 -1      1413    1    0    2
 -2      2381      2382      2405      2404      2634      2635      2658      2657
 -1      1414    1    0    2
 -2      2382      2383      2406      2405      2635      2636      2659      2658
 -1      1415    1    0    2
 -2      2383      2384      2407      2406      2636      2637      2660      2659
 -1      1416    1    0    2
 -2      2384      1091      1093      2407      2637      1117      1119      2660
 -1      1417    1    0    2
 -2      1092      2385      2408      1094      1118      2638      2661      1120
 -1      1418    1    0    2
 -2      2385      2386      2409      2408      2638      2639      2662      2661
 -1      1419    1    0    2
 -2      2386      2387      2410      2409      2639      2640      2663      2662
 -1      1420    1    0    2
 -2      2387      2388      2411      2410      2640      2641      2664      2663
 -1      1421    1    0    2
 -2      2388      2389      2412      2411      2641      2642      2665      2664
 -1      1422    1    0    2
 -2      2389      2390      2413      2412      2642      2643      2666      2665
 -1      1423    1    0    2
 -2      2390      2391      2414      2413      2643      2644      2667      2666
 -1      1424    1    0    2
 -2      2391      2392      2415      2414      2644      2645      2668      2667
 -1      1425    1    0    2
 -2      2392      2393      2416      2415      2645      2646      2669      2668
 -1      1426    1    0    2
 -2      2393      2394      2417      2416      2646      2647      2670      2669
 -1      1427    1    0    2
 -2      2394      2395      2418      2417      2647      2648      2671      2670
 -1      1428    1    0    2
 -2      2395      2396      2419      2418      2648      2649      2672      2671
 -1      1429    1    0    2
 -2      2396      2397      2420      2419      2649      2650      2673      2672
 -1      1430    1    0    2
 -2      2397      2398      2421      2420      2650      2651      2674      2673
 -1      1431    1    0    2
 -2      2398      2399      2422      2421      2651      2652      2675      2674
 -1      1432    1    0    2
 -2      2399      2400      2423      2422      2652      2653      2676      2675
 -1      1433    1    0    2
 -2      2400      2401      2424      2423      2653      2654      2677      2676
 -1      1434    1    0    2
 -2      2401      2402      2425      2424      2654      2655      2678      2677
 -1      1435    1    0    2
 -2      2402      2403      2426      2425      2655      2656      2679      2678
 -1      1436    1    0    2
 -2      2403      2404      2427      2426      2656      2657      2680      2679
 -1      1437    1    0    2
 -2      2404      2405      2428      2427      2657      2658      2681      2680
 -1      1438    1    0    2
 -2      2405      2406      2429      2428      2658      2659      2682      2681
 -1      1439    1    0    2
 -2      2406      2407      2430      2429      2659      2660      2683      2682
 -1      1440    1    0    2
 -2      2407      1093      1095      2430      2660      1119      1121      2683
 -1      1441    1    0    2
 -2      1094      2408      2431      1096      1120      2661      2684      1122
 -1      1442    1    0    2
 -2      2408      2409      2432      2431      2661      2662      2685      2684
 -1      1443    1    0    2
 -2      2409      2410      2433      2432      2662      2663      2686      2685
 -1      1444    1    0    2
 -2      2410      2411      2434      2433      2663      2664      2687      2686
 -1      1445    1    0    2
 -2      2411      2412      2435      2434      2664      2665      2688      2687
 -1      1446    1    0    2
 -2      2412      2413      2436      2435      2665      2666      2689      2688
 -1      1447    1    0    2
 -2      2413      2414      2437      2436      2666      2667      2690      2689
 -1      1448    1    0    2
 -2      2414      2415      2438      2437      2667      2668      2691      2690
 -1      1449    1    0    2
 -2      2415      2416      2439      2438      2668      2669      2692      2691
 -1      1450    1    0    2
 -2      2416      2417      2440      2439      2669      2670      2693      2692
 -1      1451    1    0    2
 -2      2417      2418      2441      2440      2670      2671      2694      2693
 -1      1452    1    0    2
 -2      2418      2419      2442      2441      2671      2672      2695      2694
 -1      1453    1    0    2
 -2      2419      2420      2443      2442      2672      2673      2696      2695
 -1      1454    1    0    2
 -2      2420      2421      2444      2443      2673      2674      2697      2696
 -1      1455    1    0    2
 -2      2421      2422      2445      2444      2674      2675      2698      2697
 -1      1456    1    0    2
 -2      2422      2423      2446      2445      2675      2676      2699      2698
 -1      1457    1    0    2
 -2      2423      2424      2447      2446      2676      2677      2700      2699
 -1      1458    1    0    2
 -2      2424      2425      2448      2447      2677      2678      2701      2700
 -1      1459    1    0    2
 -2      2425      2426      2449      2448      2678      2679      2702      2701
 -1      1460    1    0    2
 -2      2426      2427      2450      2449      2679      2680      2703      2702
 -1      1461    1    0    2
 -2      2427      2428      2451      2450      2680      2681      2704      2703
 -1      1462    1    0    2
 -2      2428      2429      2452      2451      2681      2682      2705      2704
 -1      1463    1    0    2
 -2      2429      2430      2453      2452      2682      2683      2706      2705
 -1      1464    1    0    2
 -2      2430      1095      1097      2453      2683      1121      1123      2706
 -1      1465    1    0    2
 -2      1096      2431      2454      1098      1122      2684      2707      1124
 -1      1466    1    0    2
 -2      2431      2432      2455      2454      2684      2685      2708      2707
 -1      1467    1    0    2
 -2      2432      2433      2456      2455      2685      2686      2709      2708
 -1      1468    1    0    2
 -2      2433      2434      2457      2456      2686      2687      2710      2709
 -1      1469    1    0    2
 -2      2434      2435      2458      2457      2687      2688      2711      2710
 -1      1470    1    0    2
 -2      2435      2436      2459      2458      2688      2689      2712      2711
 -1      1471    1    0    2
 -2      2436      2437      2460      2459      2689      2690      2713      2712
 -1      1472    1    0    2
 -2      2437      2438      2461      2460      2690      2691      2714      2713
 -1      1473    1    0    2
 -2      2438      2439      2462      2461      2691      2692      2715      2714
 -1      1474    1    0    2
 -2      2439      2440      2463      2462      2692      2693      2716      2715
 -1      1475    1    0    2
 -2      2440      2441      2464      2463      2693      2694      2717      2716
 -1      1476    1    0    2
 -2      2441      2442      2465      2464      2694      2695      2718      2717
 -1      1477    1    0    2
 -2      2442      2443      2466      2465      2695      2696      2719      2718
 -1      1478    1    0    2
 -2      2443      2444      2467      2466      2696      2697      2720      2719
 -1      1479    1    0    2
 -2      2444      2445      2468      2467      2697      2698      2721      2720
 -1      1480    1    0    2
 -2      2445      2446      2469      2468      2698      2699      2722      2721
 -1      1481    1    0    2
 -2      2446      2447      2470      2469      2699      2700      2723      2722
 -1      1482    1    0    2
 -2      2447      2448      2471      2470      2700      2701      2724      2723
 -1      1483    1    0    2
 -2      2448      2449      2472      2471      2701      2702      2725      2724
 -1      1484    1    0    2
 -2      2449      2450      2473      2472      2702      2703      2726      2725
 -1      1485    1    0    2
 -2      2450      2451      2474      2473      2703      2704      2727      2726
 -1      1486    1    0    2
 -2      2451      2452      2475      2474      2704      2705      2728      2727
 -1      1487    1    0    2
 -2      2452      2453      2476      2475      2705      2706      2729      2728
 -1      1488    1    0    2
 -2      2453      1097      1099      2476      2706      1123      1125      2729
 -1      1489    1    0    2
 -2      1098      2454      2477      1100      1124      2707      2730      1126
 -1      1490    1    0    2
 -2      2454      2455      2478      2477      2707      2708      2731      2730
 -1      1491    1    0    2
 -2      2455      2456      2479      2478      2708      2709      2732      2731
 -1      1492    1    0    2
 -2      2456      2457      2480      2479      2709      2710      2733      2732
 -1      1493    1    0    2
 -2      2457      2458      2481      2480      2710      2711      2734      2733
 -1      1494    1    0    2
 -2      2458      2459      2482      2481      2711      2712      2735      2734
 -1      1495    1    0    2
 -2      2459      2460      2483      2482      2712      2713      2736      2735
 -1      1496    1    0    2
 -2      2460      2461      2484      2483      2713      2714      2737      2736
 -1      1497    1    0    2
 -2      2461      2462      2485      2484      2714      2715      2738      2737
 -1      1498    1    0    2
 -2      2462      2463      2486      2485      2715      2716      2739      2738
 -1      1499    1    0    2
 -2      2463      2464      2487      2486      2716      2717      2740      2739
 -1      1500    1    0    2
 -2      2464      2465      2488      2487      2717      2718      2741      2740
 -1      1501    1    0    2
 -2      2465      2466      2489      2488      2718      2719      2742      2741
 -1      1502    1    0    2
 -2      2466      2467      2490      2489      2719      2720      2743      2742
 -1      1503    1    0    2
 -2      2467      2468      2491      2490      2720      2721      2744      2743
 -1      1504    1    0    2
 -2      2468      2469      2492      2491      2721      2722      2745      2744
 -1      1505    1    0    2
 -2      2469      2470      2493      2492      2722      2723      2746      2745
 -1      1506    1    0    2
 -2      2470      2471      2494      2493      2723      2724      2747      2746
 -1      1507    1    0    2
 -2      2471      2472      2495      2494      2724      2725      2748      2747
 -1      1508    1    0    2
 -2      2472      2473      2496      2495      2725      2726      2749      2748
 -1      1509    1    0    2
 -2      2473      2474      2497      2496      2726      2727      2750      2749
 -1      1510    1    0    2
 -2      2474      2475      2498      2497      2727      2728      2751      2750
 -1      1511    1    0    2
 -2      2475      2476      2499      2498      2728      2729      2752      2751
 -1      1512    1    0    2
 -2      2476      1099      1101      2499      2729      1125      1127      2752
 -1      1513    1    0    2
 -2      1100      2477      2500      1102      1126      2730      2753      1128
 -1      1514    1    0    2
 -2      2477      2478      2501      2500      2730      2731      2754      2753
 -1      1515    1    0    2
 -2      2478      2479      2502      2501      2731      2732      2755      2754
 -1      1516    1    0    2
 -2      2479      2480      2503      2502      2732      2733      2756      2755
 -1      1517    1    0    2
 -2      2480      2481      2504      2503      2733      2734      2757      2756
 -1      1518    1    0    2
 -2      2481      2482      2505      2504      2734      2735      2758      2757
 -1      1519    1    0    2
 -2      2482      2483      2506      2505      2735      2736      2759      2758
 -1      1520    1    0    2
 -2      2483      2484      2507      2506      2736      2737      2760      2759
 -1      1521    1    0    2
 -2      2484      2485      2508      2507      2737      2738      2761      2760
 -1      1522    1    0    2
 -2      2485      2486      2509      2508      2738      2739      2762      2761
 -1      1523    1    0    2
 -2      2486      2487      2510      2509      2739      2740      2763      2762
 -1      1524    1    0    2
 -2      2487      2488      2511      2510      2740      2741      2764      2763
 -1      1525    1    0    2
 -2      2488      2489      2512      2511      2741      2742      2765      2764
 -1      1526    1    0    2
 -2      2489      2490      2513      2512      2742      2743      2766      2765
 -1      1527    1    0    2
 -2      2490      2491      2514      2513      2743      2744      2767      2766
 -1      1528    1    0    2
 -2      2491      2492      2515      2514      2744      2745      2768      2767
 -1      1529    1    0    2
 -2      2492      2493      2516      2515      2745      2746      2769      2768
 -1      1530    1    0    2
 -2      2493      2494      2517      2516      2746      2747      2770      2769
 -1      1531    1    0    2
 -2      2494      2495      2518      2517      2747      2748      2771      2770
 -1      1532    1    0    2
 -2      2495      2496      2519      2518      2748      2749      2772      2771
 -1      1533    1    0    2
 -2      2496      2497      2520      2519      2749      2750      2773      2772
 -1      1534    1    0    2
 -2      2497      2498      2521      2520      2750      2751      2774      2773
 -1      1535    1    0    2
 -2      2498      2499      2522      2521      2751      2752      2775      2774
 -1      1536    1    0    2
 -2      2499      1101      1103      2522      2752      1127      1129      2775
 -1      1537    1    0    2
 -2      1102      2500      2523      1104      1128      2753      2776      1130
 -1      1538    1    0    2
 -2      2500      2501      2524      2523      2753      2754      2777      2776
 -1      1539    1    0    2
 -2      2501      2502      2525      2524      2754      2755      2778      2777
 -1      1540    1    0    2
 -2      2502      2503      2526      2525      2755      2756      2779      2778
 -1      1541    1    0    2
 -2      2503      2504      2527      2526      2756      2757      2780      2779
 -1      1542    1    0    2
 -2      2504      2505      2528      2527      2757      2758      2781      2780
 -1      1543    1    0    2
 -2      2505      2506      2529      2528      2758      2759      2782      2781
 -1      1544    1    0    2
 -2      2506      2507      2530      2529      2759      2760      2783      2782
 -1      1545    1    0    2
 -2      2507      2508      2531      2530      2760      2761      2784      2783
 -1      1546    1    0    2
 -2      2508      2509      2532      2531      2761      2762      2785      2784
 -1      1547    1    0    2
 -2      2509      2510      2533      2532      2762      2763      2786      2785
 -1      1548    1    0    2
 -2      2510      2511      2534      2533      2763      2764      2787      2786
 -1      1549    1    0    2
 -2      2511      2512      2535      2534      2764      2765      2788      2787
 -1      1550    1    0    2
 -2      2512      2513      2536      2535      2765      2766      2789      2788
 -1      1551    1    0    2
 -2      2513      2514      2537      2536      2766      2767      2790      2789
 -1      1552    1    0    2
 -2      2514      2515      2538      2537      2767      2768      2791      2790
 -1      1553    1    0    2
 -2      2515      2516      2539      2538      2768      2769      2792      2791
 -1      1554    1    0    2
 -2      2516      2517      2540      2539      2769      2770      2793      2792
 -1      1555    1    0    2
 -2      2517      2518      2541      2540      2770      2771      2794      2793
 -1      1556    1    0    2
 -2      2518      2519      2542      2541      2771      2772      2795      2794
 -1      1557    1    0    2
 -2      2519      2520      2543      2542      2772      2773      2796      2795
 -1      1558    1    0    2
 -2      2520      2521      2544      2543      2773      2774      2797      2796
 -1      1559    1    0    2
 -2      2521      2522      2545      2544      2774      2775      2798      2797
 -1      1560    1    0    2
 -2      2522      1103      1105      2545      2775      1129      1131      2798
 -1      1561    1    0    2
 -2      1104      2523      1305      1106      1130      2776      1351      1132
 -1      1562    1    0    2
 -2      2523      2524      1307      1305      2776      2777      1353      1351
 -1      1563    1    0    2
 -2      2524      2525      1309      1307      2777      2778      1355      1353
 -1      1564    1    0    2
 -2      2525      2526      1311      1309      2778      2779      1357      1355
 -1      1565    1    0    2
 -2      2526      2527      1313      1311      2779      2780      1359      1357
 -1      1566    1    0    2
 -2      2527      2528      1315      1313      2780      2781      1361      1359
 -1      1567    1    0    2
 -2      2528      2529      1317      1315      2781      2782      1363      1361
 -1      1568    1    0    2
 -2      2529      2530      1319      1317      2782      2783      1365      1363
 -1      1569    1    0    2
 -2      2530      2531      1321      1319      2783      2784      1367      1365
 -1      1570    1    0    2
 -2      2531      2532      1323      1321      2784      2785      1369      1367
 -1      1571    1    0    2
 -2      2532      2533      1325      1323      2785      2786      1371      1369
 -1      1572    1    0    2
 -2      2533      2534      1327      1325      2786      2787      1373      1371
 -1      1573    1    0    2
 -2      2534      2535      1329      1327      2787      2788      1375      1373
 -1      1574    1    0    2
 -2      2535      2536      1331      1329      2788      2789      1377      1375
 -1      1575    1    0    2
 -2      2536      2537      1333      1331      2789      2790      1379      1377
 -1      1576    1    0    2
 -2      2537      2538      1335      1333      2790      2791      1381      1379
 -1      1577    1    0    2
 -2      2538      2539      1337      1335      2791      2792      1383      1381
 -1      1578    1    0    2
 -2      2539      2540      1339      1337      2792      2793      1385      1383
 -1      1579    1    0    2
 -2      2540      2541      1341      1339      2793      2794      1387      1385
 -1      1580    1    0    2
 -2      2541      2542      1343      1341      2794      2795      1389      1387
 -1      1581    1    0    2
 -2      2542      2543      1345      1343      2795      2796      1391      1389
 -1      1582    1    0    2
 -2      2543      2544      1347      1345      2796      2797      1393      1391
 -1      1583    1    0    2
 -2      2544      2545      1349      1347      2797      2798      1395      1393
 -1      1584    1    0    2
 -2      2545      1105      1107      1349      2798      1131      1133      1395
 -1      1585    1    0    2
 -2      1108      1350      2546      1110      1134      1396      2799      1136
 -1      1586    1    0    2
 -2      1350      1352      2547      2546      1396      1398      2800      2799
 -1      1587    1    0    2
 -2      1352      1354      2548      2547      1398      1400      2801      2800
 -1      1588    1    0    2
 -2      1354      1356      2549      2548      1400      1402      2802      2801
 -1      1589    1    0    2
 -2      1356      1358      2550      2549      1402      1404      2803      2802
 -1      1590    1    0    2
 -2      1358      1360      2551      2550      1404      1406      2804      2803
 -1      1591    1    0    2
 -2      1360      1362      2552      2551      1406      1408      2805      2804
 -1      1592    1    0    2
 -2      1362      1364      2553      2552      1408      1410      2806      2805
 -1      1593    1    0    2
 -2      1364      1366      2554      2553      1410      1412      2807      2806
 -1      1594    1    0    2
 -2      1366      1368      2555      2554      1412      1414      2808      2807
 -1      1595    1    0    2
 -2      1368      1370      2556      2555      1414      1416      2809      2808
 -1      1596    1    0    2
 -2      1370      1372      2557      2556      1416      1418      2810      2809
 -1      1597    1    0    2
 -2      1372      1374      2558      2557      1418      1420      2811      2810
 -1      1598    1    0    2
 -2      1374      1376      2559      2558      1420      1422      2812      2811
 -1      1599    1    0    2
 -2      1376      1378      2560      2559      1422      1424      2813      2812
 -1      1600    1    0    2
 -2      1378      1380      2561      2560      1424      1426      2814      2813
 -1      1601    1    0    2
 -2      1380      1382      2562      2561      1426      1428      2815      2814
 -1      1602    1    0    2
 -2      1382      1384      2563      2562      1428      1430      2816      2815
 -1      1603    1    0    2
 -2      1384      1386      2564      2563      1430      1432      2817      2816
 -1      1604    1    0    2
 -2      1386      1388      2565      2564      1432      1434      2818      2817
 -1      1605    1    0    2
 -2      1388      1390      2566      2565      1434      1436      2819      2818
 -1      1606    1    0    2
 -2      1390      1392      2567      2566      1436      1438      2820      2819
 -1      1607    1    0    2
 -2      1392      1394      2568      2567      1438      1440      2821      2820
 -1      1608    1    0    2
 -2      1394      1109      1111      2568      1440      1135      1137      2821
 -1      1609    1    0    2
 -2      1110      2546      2569      1112      1136      2799      2822      1138
 -1      1610    1    0    2
 -2      2546      2547      2570      2569      2799      2800      2823      2822
 -1      1611    1    0    2
 -2      2547      2548      2571      2570      2800      2801      2824      2823
 -1      1612    1    0    2
 -2      2548      2549      2572      2571      2801      2802      2825      2824
 -1      1613    1    0    2
 -2      2549      2550      2573      2572      2802      2803      2826      2825
 -1      1614    1    0    2
 -2      2550      2551      2574      2573      2803      2804      2827      2826
 -1      1615    1    0    2
 -2      2551      2552      2575      2574      2804      2805      2828      2827
 -1      1616    1    0    2
 -2      2552      2553      2576      2575      2805      2806      2829      2828
 -1      1617    1    0    2
 -2      2553      2554      2577      2576      2806      2807      2830      2829
 -1      1618    1    0    2
 -2      2554      2555      2578      2577      2807      2808      2831      2830
 -1      1619    1    0    2
 -2      2555      2556      2579      2578      2808      2809      2832      2831
 -1      1620    1    0    2
 -2      2556      2557      2580      2579      2809      2810      2833      2832
 -1      1621    1    0    2
 -2      2557      2558      2581      2580      2810      2811      2834      2833
 -1      1622    1    0    2
 -2      2558      2559      2582      2581      2811      2812      2835      2834
 -1      1623    1    0    2
 -2      2559      2560      2583      2582      2812      2813      2836      2835
 -1      1624    1    0    2
 -2      2560      2561      2584      2583      2813      2814      2837      2836
 -1      1625    1    0    2
 -2      2561      2562      2585      2584      2814      2815      2838      2837
 -1      1626    1    0    2
 -2      2562      2563      2586      2585      2815      2816      2839      2838
 -1      1627    1    0    2
 -2      2563      2564      2587      2586      2816      2817      2840      2839
 -1      1628    1    0    2
 -2      2564      2565      2588      2587      2817      2818      2841      2840
 -1      1629    1    0    2
 -2      2565      2566      2589      2588      2818      2819      2842      2841
 -1      1630    1    0    2
 -2      2566      2567      2590      2589      2819      2820      2843      2842
 -1      1631    1    0    2
 -2      2567      2568      2591      2590      2820      2821      2844      2843
 -1      1632    1    0    2
 -2      2568      1111      1113      2591      2821      1137      1139      2844
 -1      1633    1    0    2
 -2      1112      2569      2592      1114      1138      2822      2845      1140
 -1      1634    1    0    2
 -2      2569      2570      2593      2592      2822      2823      2846      2845
 -1      1635    1    0    2
 -2      2570      2571      2594      2593      2823      2824      2847      2846
 -1      1636    1    0    2
 -2      2571      2572      2595      2594      2824      2825      2848      2847
 -1      1637    1    0    2
 -2      2572      2573      2596      2595      2825      2826      2849      2848
 -1      1638    1    0    2
 -2      2573      2574      2597      2596      2826      2827      2850      2849
 -1      1639    1    0    2
 -2      2574      2575      2598      2597      2827      2828      2851      2850
 -1      1640    1    0    2
 -2      2575      2576      2599      2598      2828      2829      2852      2851
 -1      1641    1    0    2
 -2      2576      2577      2600      2599      2829      2830      2853      2852
 -1      1642    1    0    2
 -2      2577      2578      2601      2600      2830      2831      2854      2853
 -1      1643    1    0    2
 -2      2578      2579      2602      2601      2831      2832      2855      2854
 -1      1644    1    0    2
 -2      2579      2580      2603      2602      2832      2833      2856      2855
 -1      1645    1    0    2
 -2      2580      2581      2604      2603      2833      2834      2857      2856
 -1      1646    1    0    2
 -2      2581      2582      2605      2604      2834      2835      2858      2857
 -1      1647    1    0    2
 -2      2582      2583      2606      2605      2835      2836      2859      2858
 -1      1648    1    0    2
 -2      2583      2584      2607      2606      2836      2837      2860      2859
 -1      1649    1    0    2
 -2      2584      2585      2608      2607      2837      2838      2861      2860
 -1      1650    1    0    2
 -2      2585      2586      2609      2608      2838      2839      2862      2861
 -1      1651    1    0    2
 -2      2586      2587      2610      2609      2839      2840      2863      2862
 -1      1652    1    0    2
 -2      2587      2588      2611      2610      2840      2841      2864      2863
 -1      1653    1    0    2
 -2      2588      2589      2612      2611      2841      2842      2865      2864
 -1      1654    1    0    2
 -2      2589      2590      2613      2612      2842      2843      2866      2865
 -1      1655    1    0    2
 -2      2590      2591      2614      2613      2843      2844      2867      2866
 -1      1656    1    0    2
 -2      2591      1113      1115      2614      2844      1139      1141      2867
 -1      1657    1    0    2
 -2      1114      2592      2615      1116      1140      2845      2868      1142
 -1      1658    1    0    2
 -2      2592      2593      2616      2615      2845      2846      2869      2868
 -1      1659    1    0    2
 -2      2593      2594      2617      2616      2846      2847      2870      2869
 -1      1660    1    0    2
 -2      2594      2595      2618      2617      2847      2848      2871      2870
 -1      1661    1    0    2
 -2      2595      2596      2619      2618      2848      2849      2872      2871
 -1      1662    1    0    2
 -2      2596      2597      2620      2619      2849      2850      2873      2872
 -1      1663    1    0    2
 -2      2597      2598      2621      2620      2850      2851      2874      2873
 -1      1664    1    0    2
 -2      2598      2599      2622      2621      2851      2852      2875      2874
 -1      1665    1    0    2
 -2      2599      2600      2623      2622      2852      2853      2876      2875
 -1      1666    1    0    2
 -2      2600      2601      2624      2623      2853      2854      2877      2876
 -1      1667    1    0    2
 -2      2601      2602      2625      2624      2854      2855      2878      2877
 -1      1668    1    0    2
 -2      2602      2603      2626      2625      2855      2856      2879      2878
 -1      1669    1    0    2
 -2      2603      2604      2627      2626      2856      2857      2880      2879
 -1      1670    1    0    2
 -2      2604      2605      2628      2627      2857      2858      2881      2880
 -1      1671    1    0    2
 -2      2605      2606      2629      2628      2858      2859      2882      2881
 -1      1672    1    0    2
 -2      2606      2607      2630      2629      2859      2860      2883      2882
 -1      1673    1    0    2
 -2      2607      2608      2631      2630      2860      2861      2884      2883
 -1      1674    1    0    2
 -2      2608      2609      2632      2631      2861      2862      2885      2884
 -1      1675    1    0    2
 -2      2609      2610      2633      2632      2862      2863      2886      2885
 -1      1676    1    0    2
 -2      2610      2611      2634      2633      2863      2864      2887      2886
 -1      1677    1    0    2
 -2      2611      2612      2635      2634      2864      2865      2888      2887
 -1      1678    1    0    2
 -2      2612      2613      2636      2635      2865      2866      2889      2888
 -1      1679    1    0    2
 -2      2613      2614      2637      2636      2866      2867      2890      2889
 -1      1680    1    0    2
 -2      2614      1115      1117      2637      2867      1141      1143      2890
 -1      1681    1    0    2
 -2      1116      2615      2638      1118      1142      2868      2891      1144
 -1      1682    1    0    2
 -2      2615      2616      2639      2638      2868      2869      2892      2891
 -1      1683    1    0    2
 -2      2616      2617      2640      2639      2869      2870      2893      2892
 -1      1684    1    0    2
 -2      2617      2618      2641      2640      2870      2871      2894      2893
 -1      1685    1    0    2
 -2      2618      2619      2642      2641      2871      2872      2895      2894
 -1      1686    1    0    2
 -2      2619      2620      2643      2642      2872      2873      2896      2895
 -1      1687    1    0    2
 -2      2620      2621      2644      2643      2873      2874      2897      2896
 -1      1688    1    0    2
 -2      2621      2622      2645      2644      2874      2875      2898      2897
 -1      1689    1    0    2
 -2      2622      2623      2646      2645      2875      2876      2899      2898
 -1      1690    1    0    2
 -2      2623      2624      2647      2646      2876      2877      2900      2899
 -1      1691    1    0    2
 -2      2624      2625      2648      2647      2877      2878      2901      2900
 -1      1692    1    0    2
 -2      2625      2626      2649      2648      2878      2879      2902      2901
 -1      1693    1    0    2
 -2      2626      2627      2650      2649      2879      2880      2903      2902
 -1      1694    1    0    2
 -2      2627      2628      2651      2650      2880      2881      2904      2903
 -1      1695    1    0    2
 -2      2628      2629      2652      2651      2881      2882      2905      2904
 -1      1696    1    0    2
 -2      2629      2630      2653      2652      2882      2883      2906      2905
 -1      1697    1    0    2
 -2      2630      2631      2654      2653      2883      2884      2907      2906
 -1      1698    1    0    2
 -2      2631      2632      2655      2654      2884      2885      2908      2907
 -1      1699    1    0    2
 -2      2632      2633      2656      2655      2885      2886      2909      2908
 -1      1700    1    0    2
 -2      2633      2634      2657      2656      2886      2887      2910      2909
 -1      1701    1    0    2
 -2      2634      2635      2658      2657      2887      2888      2911      2910
 -1      1702    1    0    2
 -2      2635      2636      2659      2658      2888      2889      2912      2911
 -1      1703    1    0    2
 -2      2636      2637      2660      2659      2889      2890      2913      2912
 -1      1704    1    0    2
 -2      2637      1117      1119      2660      2890      1143      1145      2913
 -1      1705    1    0    2
 -2      1118      2638      2661      1120      1144      2891      2914      1146
 -1      1706    1    0    2
 -2      2638      2639      2662      2661      2891      2892      2915      2914
 -1      1707    1    0    2
 -2      2639      2640      2663      2662      2892      2893      2916      2915
 -1      1708    1    0    2
 -2      2640      2641      2664      2663      2893      2894      2917      2916
 -1      1709    1    0    2
 -2      2641      2642      2665      2664      2894      2895      2918      2917
 -1      1710    1    0    2
 -2      2642      2643      2666      2665      2895      2896      2919      2918
 -1      1711    1    0    2
 -2      2643      2644      2667      2666      2896      2897      2920      2919
 -1      1712    1    0    2
 -2      2644      2645      2668      2667      2897      2898      2921      2920
 -1      1713    1    0    2
 -2      2645      2646      2669      2668      2898      2899      2922      2921
 -1      1714    1    0    2
 -2      2646      2647      2670      2669      2899      2900      2923      2922
 -1      1715    1    0    2
 -2      2647      2648      2671      2670      2900      2901      2924      2923
 -1      1716    1    0    2
 -2      2648      2649      2672      2671      2901      2902      2925      2924
 -1      1717    1    0    2
 -2      2649      2650      2673      2672      2902      2903      2926      2925
 -1      1718    1    0    2
 -2      2650      2651      2674      2673      2903      2904      2927      2926
 -1      1719    1    0    2
 -2      2651      2652      2675      2674      2904      2905      2928      2927
 -1      1720    1    0    2
 -2      2652      2653      2676      2675      2905      2906      2929      2928
 -1      1721    1    0    2
 -2      2653      2654      2677      2676      2906      2907      2930      2929
 -1      1722    1    0    2
 -2      2654      2655      2678      2677      2907      2908      2931      2930
 -1      1723    1    0    2
 -2      2655      2656      2679      2678      2908      2909      2932      2931
 -1      1724    1    0    2
 -2      2656      2657      2680      2679      2909      2910      2933      2932
 -1      1725    1    0    2
 -2      2657      2658      2681      2680      2910      2911      2934      2933
 -1      1726    1    0    2
 -2      2658      2659      2682      2681      2911      2912      2935      2934
 -1      1727    1    0    2
 -2      2659      2660      2683      2682      2912      2913      2936      2935
 -1      1728    1    0    2
 -2      2660      1119      1121      2683      2913      1145      1147      2936
 -1      1729    1    0    2
 -2      1120      2661      2684      1122      1146      2914      2937      1148
 -1      1730    1    0    2
 -2      2661      2662      2685      2684      2914      2915      2938      2937
 -1      1731    1    0    2
 -2      2662      2663      2686      2685      2915      2916      2939      2938
 -1      1732    1    0    2
 -2      2663      2664      2687      2686      2916      2917      2940      2939
 -1      1733    1    0    2
 -2      2664      2665      2688      2687      2917      2918      2941      2940
 -1      1734    1    0    2
 -2      2665      2666      2689      2688      2918      2919      2942      2941
 -1      1735    1    0    2
 -2      2666      2667      2690      2689      2919      2920      2943      2942
 -1      1736    1    0    2
 -2      2667      2668      2691      2690      2920      2921      2944      2943
 -1      1737    1    0    2
 -2      2668      2669      2692      2691      2921      2922      2945      2944
 -1      1738    1    0    2
 -2      2669      2670      2693      2692      2922      2923      2946      2945
 -1      1739    1    0    2
 -2      2670      2671      2694      2693      2923      2924      2947      2946
 -1      1740    1    0    2
 -2      2671      2672      2695      2694      2924      2925      2948      2947
 -1      1741    1    0    2
 -2      2672      2673      2696      2695      2925      2926      2949      2948
 -1      1742    1    0    2
 -2      2673      2674      2697      2696      2926      2927      2950      2949
 -1      1743    1    0    2
 -2      2674      2675      2698      2697      2927      2928      2951      2950
 -1      1744    1    0    2
 -2      2675      2676      2699      2698      2928      2929      2952      2951
 -1      1745    1    0    2
 -2      2676      2677      2700      2699      2929      2930      2953      2952
 -1      1746    1    0    2
 -2      2677      2678      2701      2700      2930      2931      2954      2953
 -1      1747    1    0    2
 -2      2678      2679      2702      2701      2931      2932      2955      2954
 -1      1748    1    0    2
 -2      2679      2680      2703      2702      2932      2933      2956      2955
 -1      1749    1    0    2
 -2      2680      2681      2704      2703      2933      2934      2957      2956
 -1      1750    1    0    2
 -2      2681      2682      2705      2704      2934      2935      2958      2957
 -1      1751    1    0    2
 -2      2682      2683      2706      2705      2935      2936      2959      2958
 -1      1752    1    0    2
 -2      2683      1121      1123      2706      2936      1147      1149      2959
 -1      1753    1    0    2
 -2      1122      2684      2707      1124      1148      2937      2960      1150
 -1      1754    1    0    2
 -2      2684      2685      2708      2707      2937      2938      2961      2960
 -1      1755    1    0    2
 -2      2685      2686      2709      2708      2938      2939      2962      2961
 -1      1756    1    0    2
 -2      2686      2687      2710      2709      2939      2940      2963      2962
 -1      1757    1    0    2
 -2      2687      2688      2711      2710      2940      2941      2964      2963
 -1      1758    1    0    2
 -2      2688      2689      2712      2711      2941      2942      2965      2964
 -1      1759    1    0    2
 -2      2689      2690      2713      2712      2942      2943      2966      2965
 -1      1760    1    0    2
 -2      2690      2691      2714      2713      2943      2944      2967      2966
 -1      1761    1    0    2
 -2      2691      2692      2715      2714      2944      2945      2968      2967
 -1      1762    1    0    2
 -2      2692      2693      2716      2715      2945      2946      2969      2968
 -1      1763    1    0    2
 -2      2693      2694      2717      2716      2946      2947      2970      2969
 -1      1764    1    0    2
 -2      2694      2695      2718      2717      2947      2948      2971      2970
 -1      1765    1    0    2
 -2      2695      2696      2719      2718      2948      2949      2972      2971
 -1      1766    1    0    2
 -2      2696      2697      2720      2719      2949      2950      2973      2972
 -1      1767    1    0    2
 -2      2697      2698      2721      2720      2950      2951      2974      2973
 -1      1768    1    0    2
 -2      2698      2699      2722      2721      2951      2952      2975      2974
 -1      1769    1    0    2
 -2      2699      2700      2723      2722      2952      2953      2976      2975
 -1      1770    1    0    2
 -2      2700      2701      2724      2723      2953      2954      2977      2976
 -1      1771    1    0    2
 -2      2701      2702      2725      2724      2954      2955      2978      2977
 -1      1772    1    0    2
 -2      2702      2703      2726      2725      2955      2956      2979      2978
 -1      1773    1    0    2
 -2      2703      2704      2727      2726      2956      2957      2980      2979
 -1      1774    1    0    2
 -2      2704      2705      2728      2727      2957      2958      2981      2980
 -1      1775    1    0    2
 -2      2705      2706      2729      2728      2958      2959      2982      2981
 -1      1776    1    0    2
 -2      2706      1123      1125      2729      2959      1149      1151      2982
 -1      1777    1    0    2
 -2      1124      2707      2730      1126      1150      2960      2983      1152
 -1      1778    1    0    2
 -2      2707      2708      2731      2730      2960      2961      2984      2983
 -1      1779    1    0    2
 -2      2708      2709      2732      2731      2961      2962      2985      2984
 -1      1780    1    0    2
 -2      2709      2710      2733      2732      2962      2963      2986      2985
 -1      1781    1    0    2
 -2      2710      2711      2734      2733      2963      2964      2987      2986
 -1      1782    1    0    2
 -2      2711      2712      2735      2734      2964      2965      2988      2987
 -1      1783    1    0    2
 -2      2712      2713      2736      2735      2965      2966      2989      2988
 -1      1784    1    0    2
 -2      2713      2714      2737      2736      2966      2967      2990      2989
 -1      1785    1    0    2
 -2      2714      2715      2738      2737      2967      2968      2991      2990
 -1      1786    1    0    2
 -2      2715      2716      2739      2738      2968      2969      2992      2991
 -1      1787    1    0    2
 -2      2716      2717      2740      2739      2969      2970      2993      2992
 -1      1788    1    0    2
 -2      2717      2718      2741      2740      2970      2971      2994      2993
 -1      1789    1    0    2
 -2      2718      2719      2742      2741      2971      2972      2995      2994
 -1      1790    1    0    2
 -2      2719      2720      2743      2742      2972      2973      2996      2995
 -1      1791    1    0    2
 -2      2720      2721      2744      2743      2973      2974      2997      2996
 -1      1792    1    0    2
 -2      2721      2722      2745      2744      2974      2975      2998      2997
 -1      1793    1    0    2
 -2      2722      2723      2746      2745      2975      2976      2999      2998
 -1      1794    1    0    2
 -2      2723      2724      2747      2746      2976      2977      3000      2999
 -1      1795    1    0    2
 -2      2724      2725      2748      2747      2977      2978      3001      3000
 -1      1796    1    0    2
 -2      2725      2726      2749      2748      2978      2979      3002      3001
 -1      1797    1    0    2
 -2      2726      2727      2750      2749      2979      2980      3003      3002
 -1      1798    1    0    2
 -2      2727      2728      2751      2750      2980      2981      3004      3003
 -1      1799    1    0    2
 -2      2728      2729      2752      2751      2981      2982      3005      3004
 -1      1800    1    0    2
 -2      2729      1125      1127      2752      2982      1151      1153      3005
 -1      1801    1    0    2
 -2      1126      2730      2753      1128      1152      2983      3006      1154
 -1      1802    1    0    2
 -2      2730      2731      2754      2753      2983      2984      3007      3006
 -1      1803    1    0    2
 -2      2731      2732      2755      2754      2984      2985      3008      3007
 -1      1804    1    0    2
 -2      2732      2733      2756      2755      2985      2986      3009      3008
 -1      1805    1    0    2
 -2      2733      2734      2757      2756      2986      2987      3010      3009
 -1      1806    1    0    2
 -2      2734      2735      2758      2757      2987      2988      3011      3010
 -1      1807    1    0    2
 -2      2735      2736      2759      2758      2988      2989      3012      3011
 -1      1808    1    0    2
 -2      2736      2737      2760      2759      2989      2990      3013      3012
 -1      1809    1    0    2
 -2      2737      2738      2761      2760      2990      2991      3014      3013
 -1      1810    1    0    2
 -2      2738      2739      2762      2761      2991      2992      3015      3014
 -1      1811    1    0    2
 -2      2739      2740      2763      2762      2992      2993      3016      3015
 -1      1812    1    0    2
 -2      2740      2741      2764      2763      2993      2994      3017      3016
 -1      1813    1    0    2
 -2      2741      2742      2765      2764      2994      2995      3018      3017
 -1      1814    1    0    2
 -2      2742      2743      2766      2765      2995      2996      3019      3018
 -1      1815    1    0    2
 -2      2743      2744      2767      2766      2996      2997      3020      3019
 -1      1816    1    0    2
 -2      2744      2745      2768      2767      2997      2998      3021      3020
 -1      1817    1    0    2
 -2      2745      2746      2769      2768      2998      2999      3022      3021
 -1      1818    1    0    2
 -2      2746      2747      2770      2769      2999      3000      3023      3022
 -1      1819    1    0    2
 -2      2747      2748      2771      2770      3000      3001      3024      3023
 -1      1820    1    0    2
 -2      2748      2749      2772      2771      3001      3002      3025      3024
 -1      1821    1    0    2
 -2      2749      2750      2773      2772      3002      3003      3026      3025
 -1      1822    1    0    2
 -2      2750      2751      2774      2773      3003      3004      3027      3026
 -1      1823    1    0    2
 -2      2751      2752      2775      2774      3004      3005      3028      3027
 -1      1824    1    0    2
 -2      2752      1127      1129      2775      3005      1153      1155      3028
 -1      1825    1    0    2
 -2      1128      2753      2776      1130      1154      3006      3029      1156
 -1      1826    1    0    2
 -2      2753      2754      2777      2776      3006      3007      3030      3029
 -1      1827    1    0    2
 -2      2754      2755      2778      2777      3007      3008      3031      3030
 -1      1828    1    0    2
 -2      2755      2756      2779      2778      3008      3009      3032      3031
 -1      1829    1    0    2
 -2      2756      2757      2780      2779      3009      3010      3033      3032
 -1      1830    1    0    2
 -2      2757      2758      2781      2780      3010      3011      3034      3033
 -1      1831    1    0    2
 -2      2758      2759      2782      2781      3011      3012      3035      3034
 -1      1832    1    0    2
 -2      2759      2760      2783      2782      3012      3013      3036      3035
 -1      1833    1    0    2
 -2      2760      2761      2784      2783      3013      3014      3037      3036
 -1      1834    1    0    2
 -2      2761      2762      2785      2784      3014      3015      3038      3037
 -1      1835    1    0    2
 -2      2762      2763      2786      2785      3015      3016      3039      3038
 -1      1836    1    0    2
 -2      2763      2764      2787      2786      3016      3017      3040      3039
 -1      1837    1    0    2
 -2      2764      2765      2788      2787      3017      3018      3041      3040
 -1      1838    1    0    2
 -2      2765      2766      2789      2788      3018      3019      3042      3041
 -1      1839    1    0    2
 -2      2766      2767      2790      2789      3019      3020      3043      3042
 -1      1840    1    0    2
 -2      2767      2768      2791      2790      3020      3021      3044      3043
 -1      1841    1    0    2
 -2      2768      2769      2792      2791      3021      3022      3045      3044
 -1      1842    1    0    2
 -2      2769      2770      2793      2792      3022      3023      3046      3045
 -1      1843    1    0    2
 -2      2770      2771      2794      2793      3023      3024      3047      3046
 -1      1844    1    0    2
 -2      2771      2772      2795      2794      3024      3025      3048      3047
 -1      1845    1    0    2
 -2      2772      2773      2796      2795      3025      3026      3049      3048
 -1      1846    1    0    2
 -2      2773      2774      2797      2796      3026      3027      3050      3049
 -1      1847    1    0    2
 -2      2774      2775      2798      2797      3027      3028      3051      3050
 -1      1848    1    0    2
 -2      2775      1129      1131      2798      3028      1155      1157      3051
 -1      1849    1    0    2
 -2      1130      2776      1351      1132      1156      3029      1397      1158
 -1      1850    1    0    2
 -2      2776      2777      1353      1351      3029      3030      1399      1397
 -1      1851    1    0    2
 -2      2777      2778      1355      1353      3030      3031      1401      1399
 -1      1852    1    0    2
 -2      2778      2779      1357      1355      3031      3032      1403      1401
 -1      1853    1    0    2
 -2      2779      2780      1359      1357      3032      3033      1405      1403
 -1      1854    1    0    2
 -2      2780      2781      1361      1359      3033      3034      1407      1405
 -1      1855    1    0    2
 -2      2781      2782      1363      1361      3034      3035      1409      1407
 -1      1856    1    0    2
 -2      2782      2783      1365      1363      3035      3036      1411      1409
 -1      1857    1    0    2
 -2      2783      2784      1367      1365      3036      3037      1413      1411
 -1      1858    1    0    2
 -2      2784      2785      1369      1367      3037      3038      1415      1413
 -1      1859    1    0    2
 -2      2785      2786      1371      1369      3038      3039      1417      1415
 -1      1860    1    0    2
 -2      2786      2787      1373      1371      3039      3040      1419      1417
 -1      1861    1    0    2
 -2      2787      2788      1375      1373      3040      3041      1421      1419
 -1      1862    1    0    2
 -2      2788      2789      1377      1375      3041      3042      1423      1421
 -1      1863    1    0    2
 -2      2789      2790      1379      1377      3042      3043      1425      1423
 -1      1864    1    0    2
 -2      2790      2791      1381      1379      3043      3044      1427      1425
 -1      1865    1    0    2
 -2      2791      2792      1383      1381      3044      3045      1429      1427
 -1      1866    1    0    2
 -2      2792      2793      1385      1383      3045      3046      1431      1429
 -1      1867    1    0    2
 -2      2793      2794      1387      1385      3046      3047      1433      1431
 -1      1868    1    0    2
 -2      2794      2795      1389      1387      3047      3048      1435      1433
 -1      1869    1    0    2
 -2      2795      2796      1391      1389      3048      3049      1437      1435
 -1      1870    1    0    2
 -2      2796      2797      1393      1391      3049      3050      1439      1437
 -1      1871    1    0    2
 -2      2797      2798      1395      1393      3050      3051      1441      1439
 -1      1872    1    0    2
 -2      2798      1131      1133      1395      3051      1157      1159      1441
 -1      1873    1    0    2
 -2      1134      1396      2799      1136      1160      1442      3052      1162
 -1      1874    1    0    2
 -2      1396      1398      2800      2799      1442      1444      3053      3052
 -1      1875    1    0    2
 -2      1398      1400      2801      2800      1444      1446      3054      3053
 -1      1876    1    0    2
 -2      1400      1402      2802      2801      1446      1448      3055      3054
 -1      1877    1    0    2
 -2      1402      1404      2803      2802      1448      1450      3056      3055
 -1      1878    1    0    2
 -2      1404      1406      2804      2803      1450      1452      3057      3056
 -1      1879    1    0    2
 -2      1406      1408      2805      2804      1452      1454      3058      3057
 -1      1880    1    0    2
 -2      1408      1410      2806      2805      1454      1456      3059      3058
 -1      1881    1    0    2
 -2      1410      1412      2807      2806      1456      1458      3060      3059
 -1      1882    1    0    2
 -2      1412      1414      2808      2807      1458      1460      3061      3060
 -1      1883    1    0    2
 -2      1414      1416      2809      2808      1460      1462      3062      3061
 -1      1884    1    0    2
 -2      1416      1418      2810      2809      1462      1464      3063      3062
 -1      1885    1    0    2
 -2      1418      1420      2811      2810      1464      1466      3064      3063
 -1      1886    1    0    2
 -2      1420      1422      2812      2811      1466      1468      3065      3064
 -1      1887    1    0    2
 -2      1422      1424      2813      2812      1468      1470      3066      3065
 -1      1888    1    0    2
 -2      1424      1426      2814      2813      1470      1472      3067      3066
 -1      1889    1    0    2
 -2      1426      1428      2815      2814      1472      1474      3068      3067
 -1      1890    1    0    2
 -2      1428      1430      2816      2815      1474      1476      3069      3068
 -1      1891    1    0    2
 -2      1430      1432      2817      2816      1476      1478      3070      3069
 -1      1892    1    0    2
 -2      1432      1434      2818      2817      1478      1480      3071      3070
 -1      1893    1    0    2
 -2      1434      1436      2819      2818      1480      1482      3072      3071
 -1      1894    1    0    2
 -2      1436      1438      2820      2819      1482      1484      3073      3072
 -1      1895    1    0    2
 -2      1438      1440      2821      2820      1484      1486      3074      3073
 -1      1896    1    0    2
 -2      1440      1135      1137      2821      1486      1161      1163      3074
 -1      1897    1    0    2
 -2      1136      2799      2822      1138      1162      3052      3075      1164
 -1      1898    1    0    2
 -2      2799      2800      2823      2822      3052      3053      3076      3075
 -1      1899    1    0    2
 -2      2800      2801      2824      2823      3053      3054      3077      3076
 -1      1900    1    0    2
 -2      2801      2802      2825      2824      3054      3055      3078      3077
 -1      1901    1    0    2
 -2      2802      2803      2826      2825      3055      3056      3079      3078
 -1      1902    1    0    2
 -2      2803      2804      2827      2826      3056      3057      3080      3079
 -1      1903    1    0    2
 -2      2804      2805      2828      2827      3057      3058      3081      3080
 -1      1904    1    0    2
 -2      2805      2806      2829      2828      3058      3059      3082      3081
 -1      1905    1    0    2
 -2      2806      2807      2830      2829      3059      3060      3083      3082
 -1      1906    1    0    2
 -2      2807      2808      2831      2830      3060      3061      3084      3083
 -1      1907    1    0    2
 -2      2808      2809      2832      2831      3061      3062      3085      3084
 -1      1908    1    0    2
 -2      2809      2810      2833      2832      3062      3063      3086      3085
 -1      1909    1    0    2
 -2      2810      2811      2834      2833      3063      3064      3087      3086
 -1      1910    1    0    2
 -2      2811      2812      2835      2834      3064      3065      3088      3087
 -1      1911    1    0    2
 -2      2812      2813      2836      2835      3065      3066      3089      3088
 -1      1912    1    0    2
 -2      2813      2814      2837      2836      3066      3067      3090      3089
 -1      1913    1    0    2
 -2      2814      2815      2838      2837      3067      3068      3091      3090
 -1      1914    1    0    2
 -2      2815      2816      2839      2838      3068      3069      3092      3091
 -1      1915    1    0    2
 -2      2816      2817      2840      2839      3069      3070      3093      3092
 -1      1916    1    0    2
 -2      2817      2818      2841      2840      3070      3071      3094      3093
 -1      1917    1    0    2
 -2      2818      2819      2842      2841      3071      3072      3095      3094
 -1      1918    1    0    2
 -2      2819      2820      2843      2842      3072      3073      3096      3095
 -1      1919    1    0    2
 -2      2820      2821      2844      2843      3073      3074      3097      3096
 -1      1920    1    0    2
 -2      2821      1137      1139      2844      3074      1163      1165      3097
 -1      1921    1    0    2
 -2      1138      2822      2845      1140      1164      3075      3098      1166
 -1      1922    1    0    2
 -2      2822      2823      2846      2845      3075      3076      3099      3098
 -1      1923    1    0    2
 -2      2823      2824      2847      2846      3076      3077      3100      3099
 -1      1924    1    0    2
 -2      2824      2825      2848      2847      3077      3078      3101      3100
 -1      1925    1    0    2
 -2      2825      2826      2849      2848      3078      3079      3102      3101
 -1      1926    1    0    2
 -2      2826      2827      2850      2849      3079      3080      3103      3102
 -1      1927    1    0    2
 -2      2827      2828      2851      2850      3080      3081      3104      3103
 -1      1928    1    0    2
 -2      2828      2829      2852      2851      3081      3082      3105      3104
 -1      1929    1    0    2
 -2      2829      2830      2853      2852      3082      3083      3106      3105
 -1      1930    1    0    2
 -2      2830      2831      2854      2853      3083      3084      3107      3106
 -1      1931    1    0    2
 -2      2831      2832      2855      2854      3084      3085      3108      3107
 -1      1932    1    0    2
 -2      2832      2833      2856      2855      3085      3086      3109      3108
 -1      1933    1    0    2
 -2      2833      2834      2857      2856      3086      3087      3110      3109
 -1      1934    1    0    2
 -2      2834      2835      2858      2857      3087      3088      3111      3110
 -1      1935    1    0    2
 -2      2835      2836      2859      2858      3088      3089      3112      3111
 -1      1936    1    0    2
 -2      2836      2837      2860      2859      3089      3090      3113      3112
 -1      1937    1    0    2
 -2      2837      2838      2861      2860      3090      3091      3114      3113
 -1      1938    1    0    2
 -2      2838      2839      2862      2861      3091      3092      3115      3114
 -1      1939    1    0    2
 -2      2839      2840      2863      2862      3092      3093      3116      3115
 -1      1940    1    0    2
 -2      2840      2841      2864      2863      3093      3094      3117      3116
 -1      1941    1    0    2
 -2      2841      2842      2865      2864      3094      3095      3118      3117
 -1      1942    1    0    2
 -2      2842      2843      2866      2865      3095      3096      3119      3118
 -1      1943    1    0    2
 -2      2843      2844      2867      2866      3096      3097      3120      3119
 -1      1944    1    0    2
 -2      2844      1139      1141      2867      3097      1165      1167      3120
 -1      1945    1    0    2
 -2      1140      2845      2868      1142      1166      3098      3121      1168
 -1      1946    1    0    2
 -2      2845      2846      2869      2868      3098      3099      3122      3121
 -1      1947    1    0    2
 -2      2846      2847      2870      2869      3099      3100      3123      3122
 -1      1948    1    0    2
 -2      2847      2848      2871      2870      3100      3101      3124      3123
 -1      1949    1    0    2
 -2      2848      2849      2872      2871      3101      3102      3125      3124
 -1      1950    1    0    2
 -2      2849      2850      2873      2872      3102      3103      3126      3125
 -1      1951    1    0    2
 -2      2850      2851      2874      2873      3103      3104      3127      3126
 -1      1952    1    0    2
 -2      2851      2852      2875      2874      3104      3105      3128      3127
 -1      1953    1    0    2
 -2      2852      2853      2876      2875      3105      3106      3129      3128
 -1      1954    1    0    2
 -2      2853      2854      2877      2876      3106      3107      3130      3129
 -1      1955    1    0    2
 -2      2854      2855      2878      2877      3107      3108      3131      3130
 -1      1956    1    0    2
 -2      2855      2856      2879      2878      3108      3109      3132      3131
 -1      1957    1    0    2
 -2      2856      2857      2880      2879      3109      3110      3133      3132
 -1      1958    1    0    2
 -2      2857      2858      2881      2880      3110      3111      3134      3133
 -1      1959    1    0    2
 -2      2858      2859      2882      2881      3111      3112      3135      3134
 -1      1960    1    0    2
 -2      2859      2860      2883      2882      3112      3113      3136      3135
 -1      1961    1    0    2
 -2      2860      2861      2884      2883      3113      3114      3137      3136
 -1      1962    1    0    2
 -2      2861      2862      2885      2884      3114      3115      3138      3137
 -1      1963    1    0    2
 -2      2862      2863      2886      2885      3115      3116      3139      3138
 -1      1964    1    0    2
 -2      2863      2864      2887      2886      3116      3117      3140      3139
 -1      1965    1    0    2
 -2      2864      2865      2888      2887      3117      3118      3141      3140
 -1      1966    1    0    2
 -2      2865      2866      2889      2888      3118      3119      3142      3141
 -1      1967    1    0    2
 -2      2866      2867      2890      2889      3119      3120      3143      3142
 -1      1968    1    0    2
 -2      2867      1141      1143      2890      3120      1167      1169      3143
 -1      1969    1    0    2
 -2      1142      2868      2891      1144      1168      3121      3144      1170
 -1      1970    1    0    2
 -2      2868      2869      2892      2891      3121      3122      3145      3144
 -1      1971    1    0    2
 -2      2869      2870      2893      2892      3122      3123      3146      3145
 -1      1972    1    0    2
 -2      2870      2871      2894      2893      3123      3124      3147      3146
 -1      1973    1    0    2
 -2      2871      2872      2895      2894      3124      3125      3148      3147
 -1      1974    1    0    2
 -2      2872      2873      2896      2895      3125      3126      3149      3148
 -1      1975    1    0    2
 -2      2873      2874      2897      2896      3126      3127      3150      3149
 -1      1976    1    0    2
 -2      2874      2875      2898      2897      3127      3128      3151      3150
 -1      1977    1    0    2
 -2      2875      2876      2899      2898      3128      3129      3152      3151
 -1      1978    1    0    2
 -2      2876      2877      2900      2899      3129      3130      3153      3152
 -1      1979    1    0    2
 -2      2877      2878      2901      2900      3130      3131      3154      3153
 -1      1980    1    0    2
 -2      2878      2879      2902      2901      3131      3132      3155      3154
 -1      1981    1    0    2
 -2      2879      2880      2903      2902      3132      3133      3156      3155
 -1      1982    1    0    2
 -2      2880      2881      2904      2903      3133      3134      3157      3156
 -1      1983    1    0    2
 -2      2881      2882      2905      2904      3134      3135      3158      3157
 -1      1984    1    0    2
 -2      2882      2883      2906      2905      3135      3136      3159      3158
 -1      1985    1    0    2
 -2      2883      2884      2907      2906      3136      3137      3160      3159
 -1      1986    1    0    2
 -2      2884      2885      2908      2907      3137      3138      3161      3160
 -1      1987    1    0    2
 -2      2885      2886      2909      2908      3138      3139      3162      3161
 -1      1988    1    0    2
 -2      2886      2887      2910      2909      3139      3140      3163      3162
 -1      1989    1    0    2
 -2      2887      2888      2911      2910      3140      3141      3164      3163
 -1      1990    1    0    2
 -2      2888      2889      2912      2911      3141      3142      3165      3164
 -1      1991    1    0    2
 -2      2889      2890      2913      2912      3142      3143      3166      3165
 -1      1992    1    0    2
 -2      2890      1143      1145      2913      3143      1169      1171      3166
 -1      1993    1    0    2
 -2      1144      2891      2914      1146      1170      3144      3167      1172
 -1      1994    1    0    2
 -2      2891      2892      2915      2914      3144      3145      3168      3167
 -1      1995    1    0    2
 -2      2892      2893      2916      2915      3145      3146      3169      3168
 -1      1996    1    0    2
 -2      2893      2894      2917      2916      3146      3147      3170      3169
 -1      1997    1    0    2
 -2      2894      2895      2918      2917      3147      3148      3171      3170
 -1      1998    1    0    2
 -2      2895      2896      2919      2918      3148      3149      3172      3171
 -1      1999    1    0    2
 -2      2896      2897      2920      2919      3149      3150      3173      3172
 -1      2000    1    0    2
 -2      2897      2898      2921      2920      3150      3151      3174      3173
 -1      2001    1    0    2
 -2      2898      2899      2922      2921      3151      3152      3175      3174
 -1      2002    1    0    2
 -2      2899      2900      2923      2922      3152      3153      3176      3175
 -1      2003    1    0    2
 -2      2900      2901      2924      2923      3153      3154      3177      3176
 -1      2004    1    0    2
 -2      2901      2902      2925      2924      3154      3155      3178      3177
 -1      2005    1    0    2
 -2      2902      2903      2926      2925      3155      3156      3179      3178
 -1      2006    1    0    2
 -2      2903      2904      2927      2926      3156      3157      3180      3179
 -1      2007    1    0    2
 -2      2904      2905      2928      2927      3157      3158      3181      3180
 -1      2008    1    0    2
 -2      2905      2906      2929      2928      3158      3159      3182      3181
 -1      2009    1    0    2
 -2      2906      2907      2930      2929      3159      3160      3183      3182
 -1      2010    1    0    2
 -2      2907      2908      2931      2930      3160      3161      3184      3183
 -1      2011    1    0    2
 -2      2908      2909      2932      2931      3161      3162      3185      3184
 -1      2012    1    0    2
 -2      2909      2910      2933      2932      3162      3163      3186      3185
 -1      2013    1    0    2
 -2      2910      2911      2934      2933      3163      3164      3187      3186
 -1      2014    1    0    2
 -2      2911      2912      2935      2934      3164      3165      3188      3187
 -1      2015    1    0    2
 -2      2912      2913      2936      2935      3165      3166      3189      3188
 -1      2016    1    0    2
 -2      2913      1145      1147      2936      3166      1171      1173      3189
 -1      2017    1    0    2
 -2      1146      2914      2937      1148      1172      3167      3190      1174
 -1      2018    1    0    2
 -2      2914      2915      2938      2937      3167      3168      3191      3190
 -1      2019    1    0    2
 -2      2915      2916      2939      2938      3168      3169      3192      3191
 -1      2020    1    0    2
 -2      2916      2917      2940      2939      3169      3170      3193      3192
 -1      2021    1    0    2
 -2      2917      2918      2941      2940      3170      3171      3194      3193
 -1      2022    1    0    2
 -2      2918      2919      2942      2941      3171      3172      3195      3194
 -1      2023    1    0    2
 -2      2919      2920      2943      2942      3172      3173      3196      3195
 -1      2024    1    0    2
 -2      2920      2921      2944      2943      3173      3174      3197      3196
 -1      2025    1    0    2
 -2      2921      2922      2945      2944      3174      3175      3198      3197
 -1      2026    1    0    2
 -2      2922      2923      2946      2945      3175      3176      3199      3198
 -1      2027    1    0    2
 -2      2923      2924      2947      2946      3176      3177      3200      3199
 -1      2028    1    0    2
 -2      2924      2925      2948      2947      3177      3178      3201      3200
 -1      2029    1    0    2
 -2      2925      2926      2949      2948      3178      3179      3202      3201
 -1      2030    1    0    2
 -2      2926      2927      2950      2949      3179      3180      3203      3202
 -1      2031    1    0    2
 -2      2927      2928      2951      2950      3180      3181      3204      3203
 -1      2032    1    0    2
 -2      2928      2929      2952      2951      3181      3182      3205      3204
 -1      2033    1    0    2
 -2      2929      2930      2953      2952      3182      3183      3206      3205
 -1      2034    1    0    2
 -2      2930      2931      2954      2953      3183      3184      3207      3206
 -1      2035    1    0    2
 -2      2931      2932      2955      2954      3184      3185      3208      3207
 -1      2036    1    0    2
 -2      2932      2933      2956      2955      3185      3186      3209      3208
 -1      2037    1    0    2
 -2      2933      2934      2957      2956      3186      3187      3210      3209
 -1      2038    1    0    2
 -2      2934      2935      2958      2957      3187      3188      3211      3210
 -1      2039    1    0    2
 -2      2935      2936      2959      2958      3188      3189      3212      3211
 -1      2040    1    0    2
 -2      2936      1147      1149      2959      3189      1173      1175      3212
 -1      2041    1    0    2
 -2      1148      2937      2960      1150      1174      3190      3213      1176
 -1      2042    1    0    2
 -2      2937      2938      2961      2960      3190      3191      3214      3213
 -1      2043    1    0    2
 -2      2938      2939      2962      2961      3191      3192      3215      3214
 -1      2044    1    0    2
 -2      2939      2940      2963      2962      3192      3193      3216      3215
 -1      2045    1    0    2
 -2      2940      2941      2964      2963      3193      3194      3217      3216
 -1      2046    1    0    2
 -2      2941      2942      2965      2964      3194      3195      3218      3217
 -1      2047    1    0    2
 -2      2942      2943      2966      2965      3195      3196      3219      3218
 -1      2048    1    0    2
 -2      2943      2944      2967      2966      3196      3197      3220      3219
 -1      2049    1    0    2
 -2      2944      2945      2968      2967      3197      3198      3221      3220
 -1      2050    1    0    2
 -2      2945      2946      2969      2968      3198      3199      3222      3221
 -1      2051    1    0    2
 -2      2946      2947      2970      2969      3199      3200      3223      3222
 -1      2052    1    0    2
 -2      2947      2948      2971      2970      3200      3201      3224      3223
 -1      2053    1    0    2
 -2      2948      2949      2972      2971      3201      3202      3225      3224
 -1      2054    1    0    2
 -2      2949      2950      2973      2972      3202      3203      3226      3225
 -1      2055    1    0    2
 -2      2950      2951      2974      2973      3203      3204      3227      3226
 -1      2056    1    0    2
 -2      2951      2952      2975      2974      3204      3205      3228      3227
 -1      2057    1    0    2
 -2      2952      2953      2976      2975      3205      3206      3229      3228
 -1      2058    1    0    2
 -2      2953      2954      2977      2976      3206      3207      3230      3229
 -1      2059    1    0    2
 -2      2954      2955      2978      2977      3207      3208      3231      3230
 -1      2060    1    0    2
 -2      2955      2956      2979      2978      3208      3209      3232      3231
 -1      2061    1    0    2
 -2      2956      2957      2980      2979      3209      3210      3233      3232
 -1      2062    1    0    2
 -2      2957      2958      2981      2980      3210      3211      3234      3233
 -1      2063    1    0    2
 -2      2958      2959      2982      2981      3211      3212      3235      3234
 -1      2064    1    0    2
 -2      2959      1149      1151      2982      3212      1175      1177      3235
 -1      2065    1    0    2
 -2      1150      2960      2983      1152      1176      3213      3236      1178
 -1      2066    1    0    2
 -2      2960      2961      2984      2983      3213      3214      3237      3236
 -1      2067    1    0    2
 -2      2961      2962      2985      2984      3214      3215      3238      3237
 -1      2068    1    0    2
 -2      2962      2963      2986      2985      3215      3216      3239      3238
 -1      2069    1    0    2
 -2      2963      2964      2987      2986      3216      3217      3240      3239
 -1      2070    1    0    2
 -2      2964      2965      2988      2987      3217      3218      3241      3240
 -1      2071    1    0    2
 -2      2965      2966      2989      2988      3218      3219      3242      3241
 -1      2072    1    0    2
 -2      2966      2967      2990      2989      3219      3220      3243      3242
 -1      2073    1    0    2
 -2      2967      2968      2991      2990      3220      3221      3244      3243
 -1      2074    1    0    2
 -2      2968      2969      2992      2991      3221      3222      3245      3244
 -1      2075    1    0    2
 -2      2969      2970      2993      2992      3222      3223      3246      3245
 -1      2076    1    0    2
 -2      2970      2971      2994      2993      3223      3224      3247      3246
 -1      2077    1    0    2
 -2      2971      2972      2995      2994      3224      3225      3248      3247
 -1      2078    1    0    2
 -2      2972      2973      2996      2995      3225      3226      3249      3248
 -1      2079    1    0    2
 -2      2973      2974      2997      2996      3226      3227      3250      3249
 -1      2080    1    0    2
 -2      2974      2975      2998      2997      3227      3228      3251      3250
 -1      2081    1    0    2
 -2      2975      2976      2999      2998      3228      3229      3252      3251
 -1      2082    1    0    2
 -2      2976      2977      3000      2999      3229      3230      3253      3252
 -1      2083    1    0    2
 -2      2977      2978      3001      3000      3230      3231      3254      3253
 -1      2084    1    0    2
 -2      2978      2979      3002      3001      3231      3232      3255      3254
 -1      2085    1    0    2
 -2      2979      2980      3003      3002      3232      3233      3256      3255
 -1      2086    1    0    2
 -2      2980      2981      3004      3003      3233      3234      3257      3256
 -1      2087    1    0    2
 -2      2981      2982      3005      3004      3234      3235      3258      3257
 -1      2088    1    0    2
 -2      2982      1151      1153      3005      3235      1177      1179      3258
 -1      2089    1    0    2
 -2      1152      2983      3006      1154      1178      3236      3259      1180
 -1      2090    1    0    2
 -2      2983      2984      3007      3006      3236      3237      3260      3259
 -1      2091    1    0    2
 -2      2984      2985      3008      3007      3237      3238      3261      3260
 -1      2092    1    0    2
 -2      2985      2986      3009      3008      3238      3239      3262      3261
 -1      2093    1    0    2
 -2      2986      2987      3010      3009      3239      3240      3263      3262
 -1      2094    1    0    2
 -2      2987      2988      3011      3010      3240      3241      3264      3263
 -1      2095    1    0    2
 -2      2988      2989      3012      3011      3241      3242      3265      3264
 -1      2096    1    0    2
 -2      2989      2990      3013      3012      3242      3243      3266      3265
 -1      2097    1    0    2
 -2      2990      2991      3014      3013      3243      3244      3267      3266
 -1      2098    1    0    2
 -2      2991      2992      3015      3014      3244      3245      3268      3267
 -1      2099    1    0    2
 -2      2992      2993      3016      3015      3245      3246      3269      3268
 -1      2100    1    0    2
 -2      2993      2994      3017      3016      3246      3247      3270      3269
 -1      2101    1    0    2
 -2      2994      2995      3018      3017      3247      3248      3271      3270
 -1      2102    1    0    2
 -2      2995      2996      3019      3018      3248      3249      3272      3271
 -1      2103    1    0    2
 -2      2996      2997      3020      3019      3249      3250      3273      3272
 -1      2104    1    0    2
 -2      2997      2998      3021      3020      3250      3251      3274      3273
 -1      2105    1    0    2
 -2      2998      2999      3022      3021      3251      3252      3275      3274
 -1      2106    1    0    2
 -2      2999      3000      3023      3022      3252      3253      3276      3275
 -1      2107    1    0    2
 -2      3000      3001      3024      3023      3253      3254      3277      3276
 -1      2108    1    0    2
 -2      3001      3002      3025      3024      3254      3255      3278      3277
 -1      2109    1    0    2
 -2      3002      3003      3026      3025      3255      3256      3279      3278
 -1      2110    1    0    2
 -2      3003      3004      3027      3026      3256      3257      3280      3279
 -1      2111    1    0    2
 -2      3004      3005      3028      3027      3257      3258      3281      3280
 -1      2112    1    0    2
 -2      3005      1153      1155      3028      3258      1179      1181      3281
 -1      2113    1    0    2
 -2      1154      3006      3029      1156      1180      3259      3282      1182
 -1      2114    1    0    2
 -2      3006      3007      3030      3029      3259      3260      3283      3282
 -1      2115    1    0    2
 -2      3007      3008      3031      3030      3260      3261      3284      3283
 -1      2116    1    0    2
 -2      3008      3009      3032      3031      3261      3262      3285      3284
 -1      2117    1    0    2
 -2      3009      3010      3033      3032      3262      3263      3286      3285
 -1      2118    1    0    2
 -2      3010      3011      3034      3033      3263      3264      3287      3286
 -1      2119    1    0    2
 -2      3011      3012      3035      3034      3264      3265      3288      3287
 -1      2120    1    0    2
 -2      3012      3013      3036      3035      3265      3266      3289      3288
 -1      2121    1    0    2
 -2      3013      3014      3037      3036      3266      3267      3290      3289
 -1      2122    1    0    2
 -2      3014      3015      3038      3037      3267      3268      3291      3290
 -1      2123    1    0    2
 -2      3015      3016      3039      3038      3268      3269      3292      3291
 -1      2124    1    0    2
 -2      3016      3017      3040      3039      3269      3270      3293      3292
 -1      2125    1    0    2
 -2      3017      3018      3041      3040      3270      3271      3294      3293
 -1      2126    1    0    2
 -2      3018      3019      3042      3041      3271      3272      3295      3294
 -1      2127    1    0    2
 -2      3019      3020      3043      3042      3272      3273      3296      3295
 -1      2128    1    0    2
 -2      3020      3021      3044      3043      3273      3274      3297      3296
 -1      2129    1    0    2
 -2      3021      3022      3045      3044      3274      3275      3298      3297
 -1      2130    1    0    2
 -2      3022      3023      3046      3045      3275      3276      3299      3298
 -1      2131    1    0    2
 -2      3023      3024      3047      3046      3276      3277      3300      3299
 -1      2132    1    0    2
 -2      3024      3025      3048      3047      3277      3278      3301      3300
 -1      2133    1    0    2
 -2      3025      3026      3049      3048      3278      3279      3302      3301
 -1      2134    1    0    2
 -2      3026      3027      3050      3049      3279      3280      3303      3302
 -1      2135    1    0    2
 -2      3027      3028      3051      3050      3280      3281      3304      3303
 -1      2136    1    0    2
 -2      3028      1155      1157      3051      3281      1181      1183      3304
 -1      2137    1    0    2
 -2      1156      3029      1397      1158      1182      3282      1443      1184
 -1      2138    1    0    2
 -2      3029      3030      1399      1397      3282      3283      1445      1443
 -1      2139    1    0    2
 -2      3030      3031      1401      1399      3283      3284      1447      1445
 -1      2140    1    0    2
 -2      3031      3032      1403      1401      3284      3285      1449      1447
 -1      2141    1    0    2
 -2      3032      3033      1405      1403      3285      3286      1451      1449
 -1      2142    1    0    2
 -2      3033      3034      1407      1405      3286      3287      1453      1451
 -1      2143    1    0    2
 -2      3034      3035      1409      1407      3287      3288      1455      1453
 -1      2144    1    0    2
 -2      3035      3036      1411      1409      3288      3289      1457      1455
 -1      2145    1    0    2
 -2      3036      3037      1413      1411      3289      3290      1459      1457
 -1      2146    1    0    2
 -2      3037      3038      1415      1413      3290      3291      1461      1459
 -1      2147    1    0    2
 -2      3038      3039      1417      1415      3291      3292      1463      1461
 -1      2148    1    0    2
 -2      3039      3040      1419      1417      3292      3293      1465      1463
 -1      2149    1    0    2
 -2      3040      3041      1421      1419      3293      3294      1467      1465
 -1      2150    1    0    2
 -2      3041      3042      1423      1421      3294      3295      1469      1467
 -1      2151    1    0    2
 -2      3042      3043      1425      1423      3295      3296      1471      1469
 -1      2152    1    0    2
 -2      3043      3044      1427      1425      3296      3297      1473      1471
 -1      2153    1    0    2
 -2      3044      3045      1429      1427      3297      3298      1475      1473
 -1      2154    1    0    2
 -2      3045      3046      1431      1429      3298      3299      1477      1475
 -1      2155    1    0    2
 -2      3046      3047      1433      1431      3299      3300      1479      1477
 -1      2156    1    0    2
 -2      3047      3048      1435      1433      3300      3301      1481      1479
 -1      2157    1    0    2
 -2      3048      3049      1437      1435      3301      3302      1483      1481
 -1      2158    1    0    2
 -2      3049      3050      1439      1437      3302      3303      1485      1483
 -1      2159    1    0    2
 -2      3050      3051      1441      1439      3303      3304      1487      1485
 -1      2160    1    0    2
 -2      3051      1157      1159      1441      3304      1183      1185      1487
 -1      2161    1    0    2
 -2      1160      1442      3052      1162      1186      1488      1535      1188
 -1      2162    1    0    2
 -2      1442      1444      3053      3052      1488      1490      1537      1535
 -1      2163    1    0    2
 -2      1444      1446      3054      3053      1490      1492      1539      1537
 -1      2164    1    0    2
 -2      1446      1448      3055      3054      1492      1494      1541      1539
 -1      2165    1    0    2
 -2      1448      1450      3056      3055      1494      1496      1543      1541
 -1      2166    1    0    2
 -2      1450      1452      3057      3056      1496      1498      1545      1543
 -1      2167    1    0    2
 -2      1452      1454      3058      3057      1498      1500      1547      1545
 -1      2168    1    0    2
 -2      1454      1456      3059      3058      1500      1502      1549      1547
 -1      2169    1    0    2
 -2      1456      1458      3060      3059      1502      1504      1551      1549
 -1      2170    1    0    2
 -2      1458      1460      3061      3060      1504      1506      1553      1551
 -1      2171    1    0    2
 -2      1460      1462      3062      3061      1506      1508      1555      1553
 -1      2172    1    0    2
 -2      1462      1464      3063      3062      1508      1510      1557      1555
 -1      2173    1    0    2
 -2      1464      1466      3064      3063      1510      1512      1559      1557
 -1      2174    1    0    2
 -2      1466      1468      3065      3064      1512      1514      1561      1559
 -1      2175    1    0    2
 -2      1468      1470      3066      3065      1514      1516      1563      1561
 -1      2176    1    0    2
 -2      1470      1472      3067      3066      1516      1518      1565      1563
 -1      2177    1    0    2
 -2      1472      1474      3068      3067      1518      1520      1567      1565
 -1      2178    1    0    2
 -2      1474      1476      3069      3068      1520      1522      1569      1567
 -1      2179    1    0    2
 -2      1476      1478      3070      3069      1522      1524      1571      1569
 -1      2180    1    0    2
 -2      1478      1480      3071      3070      1524      1526      1573      1571
 -1      2181    1    0    2
 -2      1480      1482      3072      3071      1526      1528      1575      1573
 -1      2182    1    0    2
 -2      1482      1484      3073      3072      1528      1530      1577      1575
 -1      2183    1    0    2
 -2      1484      1486      3074      3073      1530      1532      1579      1577
 -1      2184    1    0    2
 -2      1486      1161      1163      3074      1532      1187      1189      1579
 -1      2185    1    0    2
 -2      1162      3052      3075      1164      1188      1535      1581      1190
 -1      2186    1    0    2
 -2      3052      3053      3076      3075      1535      1537      1583      1581
 -1      2187    1    0    2
 -2      3053      3054      3077      3076      1537      1539      1585      1583
 -1      2188    1    0    2
 -2      3054      3055      3078      3077      1539      1541      1587      1585
 -1      2189    1    0    2
 -2      3055      3056      3079      3078      1541      1543      1589      1587
 -1      2190    1    0    2
 -2      3056      3057      3080      3079      1543      1545      1591      1589
 -1      2191    1    0    2
 -2      3057      3058      3081      3080      1545      1547      1593      1591
 -1      2192    1    0    2
 -2      3058      3059      3082      3081      1547      1549      1595      1593
 -1      2193    1    0    2
 -2      3059      3060      3083      3082      1549      1551      1597      1595
 -1      2194    1    0    2
 -2      3060      3061      3084      3083      1551      1553      1599      1597
 -1      2195    1    0    2
 -2      3061      3062      3085      3084      1553      1555      1601      1599
 -1      2196    1    0    2
 -2      3062      3063      3086      3085      1555      1557      1603      1601
 -1      2197    1    0    2
 -2      3063      3064      3087      3086      1557      1559      1605      1603
 -1      2198    1    0    2
 -2      3064      3065      3088      3087      1559      1561      1607      1605
 -1      2199    1    0    2
 -2      3065      3066      3089      3088      1561      1563      1609      1607
 -1      2200    1    0    2
 -2      3066      3067      3090      3089      1563      1565      1611      1609
 -1      2201    1    0    2
 -2      3067      3068      3091      3090      1565      1567      1613      1611
 -1      2202    1    0    2
 -2      3068      3069      3092      3091      1567      1569      1615      1613
 -1      2203    1    0    2
 -2      3069      3070      3093      3092      1569      1571      1617      1615
 -1      2204    1    0    2
 -2      3070      3071      3094      3093      1571      1573      1619      1617
 -1      2205    1    0    2
 -2      3071      3072      3095      3094      1573      1575      1621      1619
 -1      2206    1    0    2
 -2      3072      3073      3096      3095      1575      1577      1623      1621
 -1      2207    1    0    2
 -2      3073      3074      3097      3096      1577      1579      1625      1623
 -1      2208    1    0    2
 -2      3074      1163      1165      3097      1579      1189      1191      1625
 -1      2209    1    0    2
 -2      1164      3075      3098      1166      1190      1581      1627      1192
 -1      2210    1    0    2
 -2      3075      3076      3099      3098      1581      1583      1629      1627
 -1      2211    1    0    2
 -2      3076      3077      3100      3099      1583      1585      1631      1629
 -1      2212    1    0    2
 -2      3077      3078      3101      3100      1585      1587      1633      1631
 -1      2213    1    0    2
 -2      3078      3079      3102      3101      1587      1589      1635      1633
 -1      2214    1    0    2
 -2      3079      3080      3103      3102      1589      1591      1637      1635
 -1      2215    1    0    2
 -2      3080      3081      3104      3103      1591      1593      1639      1637
 -1      2216    1    0    2
 -2      3081      3082      3105      3104      1593      1595      1641      1639
 -1      2217    1    0    2
 -2      3082      3083      3106      3105      1595      1597      1643      1641
 -1      2218    1    0    2
 -2      3083      3084      3107      3106      1597      1599      1645      1643
 -1      2219    1    0    2
 -2      3084      3085      3108      3107      1599      1601      1647      1645
 -1      2220    1    0    2
 -2      3085      3086      3109      3108      1601      1603      1649      1647
 -1      2221    1    0    2
 -2      3086      3087      3110      3109      1603      1605      1651      1649
 -1      2222    1    0    2
 -2      3087      3088      3111      3110      1605      1607      1653      1651
 -1      2223    1    0    2
 -2      3088      3089      3112      3111      1607      1609      1655      1653
 -1      2224    1    0    2
 -2      3089      3090      3113      3112      1609      1611      1657      1655
 -1      2225    1    0    2
 -2      3090      3091      3114      3113      1611      1613      1659      1657
 -1      2226    1    0    2
 -2      3091      3092      3115      3114      1613      1615      1661      1659
 -1      2227    1    0    2
 -2      3092      3093      3116      3115      1615      1617      1663      1661
 -1      2228    1    0    2
 -2      3093      3094      3117      3116      1617      1619      1665      1663
 -1      2229    1    0    2
 -2      3094      3095      3118      3117      1619      1621      1667      1665
 -1      2230    1    0    2
 -2      3095      3096      3119      3118      1621      1623      1669      1667
 -1      2231    1    0    2
 -2      3096      3097      3120      3119      1623      1625      1671      1669
 -1      2232    1    0    2
 -2      3097      1165      1167      3120      1625      1191      1193      1671
 -1      2233    1    0    2
 -2      1166      3098      3121      1168      1192      1627      1673      1194
 -1      2234    1    0    2
 -2      3098      3099      3122      3121      1627      1629      1675      1673
 -1      2235    1    0    2
 -2      3099      3100      3123      3122      1629      1631      1677      1675
 -1      2236    1    0    2
 -2      3100      3101      3124      3123      1631      1633      1679      1677
 -1      2237    1    0    2
 -2      3101      3102      3125      3124      1633      1635      1681      1679
 -1      2238    1    0    2
 -2      3102      3103      3126      3125      1635      1637      1683      1681
 -1      2239    1    0    2
 -2      3103      3104      3127      3126      1637      1639      1685      1683
 -1      2240    1    0    2
 -2      3104      3105      3128      3127      1639      1641      1687      1685
 -1      2241    1    0    2
 -2      3105      3106      3129      3128      1641      1643      1689      1687
 -1      2242    1    0    2
 -2      3106      3107      3130      3129      1643      1645      1691      1689
 -1      2243    1    0    2
 -2      3107      3108      3131      3130      1645      1647      1693      1691
 -1      2244    1    0    2
 -2      3108      3109      3132      3131      1647      1649      1695      1693
 -1      2245    1    0    2
 -2      3109      3110      3133      3132      1649      1651      1697      1695
 -1      2246    1    0    2
 -2      3110      3111      3134      3133      1651      1653      1699      1697
 -1      2247    1    0    2
 -2      3111      3112      3135      3134      1653      1655      1701      1699
 -1      2248    1    0    2
 -2      3112      3113      3136      3135      1655      1657      1703      1701
 -1      2249    1    0    2
 -2      3113      3114      3137      3136      1657      1659      1705      1703
 -1      2250    1    0    2
 -2      3114      3115      3138      3137      1659      1661      1707      1705
 -1      2251    1    0    2
 -2      3115      3116      3139      3138      1661      1663      1709      1707
 -1      2252    1    0    2
 -2      3116      3117      3140      3139      1663      1665      1711      1709
 -1      2253    1    0    2
 -2      3117      3118      3141      3140      1665      1667      1713      1711
 -1      2254    1    0    2
 -2      3118      3119      3142      3141      1667      1669      1715      1713
 -1      2255    1    0    2
 -2      3119      3120      3143      3142      1669      1671      1717      1715
 -1      2256    1    0    2
 -2      3120      1167      1169      3143      1671      1193      1195      1717
 -1      2257    1    0    2
 -2      1168      3121      3144      1170      1194      1673      1719      1196
 -1      2258    1    0    2
 -2      3121      3122      3145      3144      1673      1675      1721      1719
 -1      2259    1    0    2
 -2      3122      3123      3146      3145      1675      1677      1723      1721
 -1      2260    1    0    2
 -2      3123      3124      3147      3146      1677      1679      1725      1723
 -1      2261    1    0    2
 -2      3124      3125      3148      3147      1679      1681      1727      1725
 -1      2262    1    0    2
 -2      3125      3126      3149      3148      1681      1683      1729      1727
 -1      2263    1    0    2
 -2      3126      3127      3150      3149      1683      1685      1731      1729
 -1      2264    1    0    2
 -2      3127      3128      3151      3150      1685      1687      1733      1731
 -1      2265    1    0    2
 -2      3128      3129      3152      3151      1687      1689      1735      1733
 -1      2266    1    0    2
 -2      3129      3130      3153      3152      1689      1691      1737      1735
 -1      2267    1    0    2
 -2      3130      3131      3154      3153      1691      1693      1739      1737
 -1      2268    1    0    2
 -2      3131      3132      3155      3154      1693      1695      1741      1739
 -1      2269    1    0    2
 -2      3132      3133      3156      3155      1695      1697      1743      1741
 -1      2270    1    0    2
 -2      3133      3134      3157      3156      1697      1699      1745      1743
 -1      2271    1    0    2
 -2      3134      3135      3158      3157      1699      1701      1747      1745
 -1      2272    1    0    2
 -2      3135      3136      3159      3158      1701      1703      1749      1747
 -1      2273    1    0    2
 -2      3136      3137      3160      3159      1703      1705      1751      1749
 -1      2274    1    0    2
 -2      3137      3138      3161      3160      1705      1707      1753      1751
 -1      2275    1    0    2
 -2      3138      3139      3162      3161      1707      1709      1755      1753
 -1      2276    1    0    2
 -2      3139      3140      3163      3162      1709      1711      1757      1755
 -1      2277    1    0    2
 -2      3140      3141      3164      3163      1711      1713      1759      1757
 -1      2278    1    0    2
 -2      3141      3142      3165      3164      1713      1715      1761      1759
 -1      2279    1    0    2
 -2      3142      3143      3166      3165      1715      1717      1763      1761
 -1      2280    1    0    2
 -2      3143      1169      1171      3166      1717      1195      1197      1763
 -1      2281    1    0    2
 -2      1170      3144      3167      1172      1196      1719      1765      1198
 -1      2282    1    0    2
 -2      3144      3145      3168      3167      1719      1721      1767      1765
 -1      2283    1    0    2
 -2      3145      3146      3169      3168      1721      1723      1769      1767
 -1      2284    1    0    2
 -2      3146      3147      3170      3169      1723      1725      1771      1769
 -1      2285    1    0    2
 -2      3147      3148      3171      3170      1725      1727      1773      1771
 -1      2286    1    0    2
 -2      3148      3149      3172      3171      1727      1729      1775      1773
 -1      2287    1    0    2
 -2      3149      3150      3173      3172      1729      1731      1777      1775
 -1      2288    1    0    2
 -2      3150      3151      3174      3173      1731      1733      1779      1777
 -1      2289    1    0    2
 -2      3151      3152      3175      3174      1733      1735      1781      1779
 -1      2290    1    0    2
 -2      3152      3153      3176      3175      1735      1737      1783      1781
 -1      2291    1    0    2
 -2      3153      3154      3177      3176      1737      1739      1785      1783
 -1      2292    1    0    2
 -2      3154      3155      3178      3177      1739      1741      1787      1785
 -1      2293    1    0    2
 -2      3155      3156      3179      3178      1741      1743      1789      1787
 -1      2294    1    0    2
 -2      3156      3157      3180      3179      1743      1745      1791      1789
 -1      2295    1    0    2
 -2      3157      3158      3181      3180      1745      1747      1793      1791
 -1      2296    1    0    2
 -2      3158      3159      3182      3181      1747      1749      1795      1793
 -1      2297    1    0    2
 -2      3159      3160      3183      3182      1749      1751      1797      1795
 -1      2298    1    0    2
 -2      3160      3161      3184      3183      1751      1753      1799      1797
 -1      2299    1    0    2
 -2      3161      3162      3185      3184      1753      1755      1801      1799
 -1      2300    1    0    2
 -2      3162      3163      3186      3185      1755      1757      1803      1801
 -1      2301    1    0    2
 -2      3163      3164      3187      3186      1757      1759      1805      1803
 -1      2302    1    0    2
 -2      3164      3165      3188      3187      1759      1761      1807      1805
 -1      2303    1    0    2
 -2      3165      3166      3189      3188      1761      1763      1809      1807
 -1      2304    1    0    2
 -2      3166      1171      1173      3189      1763      1197      1199      1809
 -1      2305    1    0    2
 -2      1172      3167      3190      1174      1198      1765      1811      1200
 -1      2306    1    0    2
 -2      3167      3168      3191      3190      1765      1767      1813      1811
 -1      2307    1    0    2
 -2      3168      3169      3192      3191      1767      1769      1815      1813
 -1      2308    1    0    2
 -2      3169      3170      3193      3192      1769      1771      1817      1815
 -1      2309    1    0    2
 -2      3170      3171      3194      3193      1771      1773      1819      1817
 -1      2310    1    0    2
 -2      3171      3172      3195      3194      1773      1775      1821      1819
 -1      2311    1    0    2
 -2      3172      3173      3196      3195      1775      1777      1823      1821
 -1      2312    1    0    2
 -2      3173      3174      3197      3196      1777      1779      1825      1823
 -1      2313    1    0    2
 -2      3174      3175      3198      3197      1779      1781      1827      1825
 -1      2314    1    0    2
 -2      3175      3176      3199      3198      1781      1783      1829      1827
 -1      2315    1    0    2
 -2      3176      3177      3200      3199      1783      1785      1831      1829
 -1      2316    1    0    2
 -2      3177      3178      3201      3200      1785      1787      1833      1831
 -1      2317    1    0    2
 -2      3178      3179      3202      3201      1787      1789      1835      1833
 -1      2318    1    0    2
 -2      3179      3180      3203      3202      1789      1791      1837      1835
 -1      2319    1    0    2
 -2      3180      3181      3204      3203      1791      1793      1839      1837
 -1      2320    1    0    2
 -2      3181      3182      3205      3204      1793      1795      1841      1839
 -1      2321    1    0    2
 -2      3182      3183      3206      3205      1795      1797      1843      1841
 -1      2322    1    0    2
 -2      3183      3184      3207      3206      1797      1799      1845      1843
 -1      2323    1    0    2
 -2      3184      3185      3208      3207      1799      1801      1847      1845
 -1      2324    1    0    2
 -2      3185      3186      3209      3208      1801      1803      1849      1847
 -1      2325    1    0    2
 -2      3186      3187      3210      3209      1803      1805      1851      1849
 -1      2326    1    0    2
 -2      3187      3188      3211      3210      1805      1807      1853      1851
 -1      2327    1    0    2
 -2      3188      3189      3212      3211      1807      1809      1855      1853
 -1      2328    1    0    2
 -2      3189      1173      1175      3212      1809      1199      1201      1855
 -1      2329    1    0    2
 -2      1174      3190      3213      1176      1200      1811      1857      1202
 -1      2330    1    0    2
 -2      3190      3191      3214      3213      1811      1813      1859      1857
 -1      2331    1    0    2
 -2      3191      3192      3215      3214      1813      1815      1861      1859
 -1      2332    1    0    2
 -2      3192      3193      3216      3215      1815      1817      1863      1861
 -1      2333    1    0    2
 -2      3193      3194      3217      3216      1817      1819      1865      1863
 -1      2334    1    0    2
 -2      3194      3195      3218      3217      1819      1821      1867      1865
 -1      2335    1    0    2
 -2      3195      3196      3219      3218      1821      1823      1869      1867
 -1      2336    1    0    2
 -2      3196      3197      3220      3219      1823      1825      1871      1869
 -1      2337    1    0    2
 -2      3197      3198      3221      3220      1825      1827      1873      1871
 -1      2338    1    0    2
 -2      3198      3199      3222      3221      1827      1829      1875      1873
 -1      2339    1    0    2
 -2      3199      3200      3223      3222      1829      1831      1877      1875
 -1      2340    1    0    2
 -2      3200      3201      3224      3223      1831      1833      1879      1877
 -1      2341    1    0    2
 -2      3201      3202      3225      3224      1833      1835      1881      1879
 -1      2342    1    0    2
 -2      3202      3203      3226      3225      1835      1837      1883      1881
 -1      2343    1    0    2
 -2      3203      3204      3227      3226      1837      1839      1885      1883
 -1      2344    1    0    2
 -2      3204      3205      3228      3227      1839      1841      1887      1885
 -1      2345    1    0    2
 -2      3205      3206      3229      3228      1841      1843      1889      1887
 -1      2346    1    0    2
 -2      3206      3207      3230      3229      1843      1845      1891      1889
 -1      2347    1    0    2
 -2      3207      3208      3231      3230      1845      1847      1893      1891
 -1      2348    1    0    2
 -2      3208      3209      3232      3231      1847      1849      1895      1893
 -1      2349    1    0    2
 -2      3209      3210      3233      3232      1849      1851      1897      1895
 -1      2350    1    0    2
 -2      3210      3211      3234      3233      1851      1853      1899      1897
 -1      2351    1    0    2
 -2      3211      3212      3235      3234      1853      1855      1901      1899
 -1      2352    1    0    2
 -2      3212      1175      1177      3235      1855      1201      1203      1901
 -1      2353    1    0    2
 -2      1176      3213      3236      1178      1202      1857      1903      1204
 -1      2354    1    0    2
 -2      3213      3214      3237      3236      1857      1859      1905      1903
 -1      2355    1    0    2
 -2      3214      3215      3238      3237      1859      1861      1907      1905
 -1      2356    1    0    2
 -2      3215      3216      3239      3238      1861      1863      1909      1907
 -1      2357    1    0    2
 -2      3216      3217      3240      3239      1863      1865      1911      1909
 -1      2358    1    0    2
 -2      3217      3218      3241      3240      1865      1867      1913      1911
 -1      2359    1    0    2
 -2      3218      3219      3242      3241      1867      1869      1915      1913
 -1      2360    1    0    2
 -2      3219      3220      3243      3242      1869      1871      1917      1915
 -1      2361    1    0    2
 -2      3220      3221      3244      3243      1871      1873      1919      1917
 -1      2362    1    0    2
 -2      3221      3222      3245      3244      1873      1875      1921      1919
 -1      2363    1    0    2
 -2      3222      3223      3246      3245      1875      1877      1923      1921
 -1      2364    1    0    2
 -2      3223      3224      3247      3246      1877      1879      1925      1923
 -1      2365    1    0    2
 -2      3224      3225      3248      3247      1879      1881      1927      1925
 -1      2366    1    0    2
 -2      3225      3226      3249      3248      1881      1883      1929      1927
 -1      2367    1    0    2
 -2      3226      3227      3250      3249      1883      1885      1931      1929
 -1      2368    1    0    2
 -2      3227      3228      3251      3250      1885      1887      1933      1931
 -1      2369    1    0    2
 -2      3228      3229      3252      3251      1887      1889      1935      1933
 -1      2370    1    0    2
 -2      3229      3230      3253      3252      1889      1891      1937      1935
 -1      2371    1    0    2
 -2      3230      3231      3254      3253      1891      1893      1939      1937
 -1      2372    1    0    2
 -2      3231      3232      3255      3254      1893      1895      1941      1939
 -1      2373    1    0    2
 -2      3232      3233      3256      3255      1895      1897      1943      1941
 -1      2374    1    0    2
 -2      3233      3234      3257      3256      1897      1899      1945      1943
 -1      2375    1    0    2
 -2      3234      3235      3258      3257      1899      1901      1947      1945
 -1      2376    1    0    2
 -2      3235      1177      1179      3258      1901      1203      1205      1947
 -1      2377    1    0    2
 -2      1178      3236      3259      1180      1204      1903      1949      1206
 -1      2378    1    0    2
 -2      3236      3237      3260      3259      1903      1905      1951      1949
 -1      2379    1    0    2
 -2      3237      3238      3261      3260      1905      1907      1953      1951
 -1      2380    1    0    2
 -2      3238      3239      3262      3261      1907      1909      1955      1953
 -1      2381    1    0    2
 -2      3239      3240      3263      3262      1909      1911      1957      1955
 -1      2382    1    0    2
 -2      3240      3241      3264      3263      1911      1913      1959      1957
 -1      2383    1    0    2
 -2      3241      3242      3265      3264      1913      1915      1961      1959
 -1      2384    1    0    2
 -2      3242      3243      3266      3265      1915      1917      1963      1961
 -1      2385    1    0    2
 -2      3243      3244      3267      3266      1917      1919      1965      1963
 -1      2386    1    0    2
 -2      3244      3245      3268      3267      1919      1921      1967      1965
 -1      2387    1    0    2
 -2      3245      3246      3269      3268      1921      1923      1969      1967
 -1      2388    1    0    2
 -2      3246      3247      3270      3269      1923      1925      1971      1969
 -1      2389    1    0    2
 -2      3247      3248      3271      3270      1925      1927      1973      1971
 -1      2390    1    0    2
 -2      3248      3249      3272      3271      1927      1929      1975      1973
 -1      2391    1    0    2
 -2      3249      3250      3273      3272      1929      1931      1977      1975
 -1      2392    1    0    2
 -2      3250      3251      3274      3273      1931      1933      1979      1977
 -1      2393    1    0    2
 -2      3251      3252      3275      3274      1933      1935      1981      1979
 -1      2394    1    0    2
 -2      3252      3253      3276      3275      1935      1937      1983      1981
 -1      2395    1    0    2
 -2      3253      3254      3277      3276      1937      1939      1985      1983
 -1      2396    1    0    2
 -2      3254      3255      3278      3277      1939      1941      1987      1985
 -1      2397    1    0    2
 -2      3255      3256      3279      3278      1941      1943      1989      1987
 -1      2398    1    0    2
 -2      3256      3257      3280      3279      1943      1945      1991      1989
 -1      2399    1    0    2
 -2      3257      3258      3281      3280      1945      1947      1993      1991
 -1      2400    1    0    2
 -2      3258      1179      1181      3281      1947      1205      1207      1993
 -1      2401    1    0    2
 -2      1180      3259      3282      1182      1206      1949      1995      1208
 -1      2402    1    0    2
 -2      3259      3260      3283      3282      1949      1951      1997      1995
 -1      2403    1    0    2
 -2      3260      3261      3284      3283      1951      1953      1999      1997
 -1      2404    1    0    2
 -2      3261      3262      3285      3284      1953      1955      2001      1999
 -1      2405    1    0    2
 -2      3262      3263      3286      3285      1955      1957      2003      2001
 -1      2406    1    0    2
 -2      3263      3264      3287      3286      1957      1959      2005      2003
 -1      2407    1    0    2
 -2      3264      3265      3288      3287      1959      1961      2007      2005
 -1      2408    1    0    2
 -2      3265      3266      3289      3288      1961      1963      2009      2007
 -1      2409    1    0    2
 -2      3266      3267      3290      3289      1963      1965      2011      2009
 -1      2410    1    0    2
 -2      3267      3268      3291      3290      1965      1967      2013      2011
 -1      2411    1    0    2
 -2      3268      3269      3292      3291      1967      1969      2015      2013
 -1      2412    1    0    2
 -2      3269      3270      3293      3292      1969      1971      2017      2015
 -1      2413    1    0    2
 -2      3270      3271      3294      3293      1971      1973      2019      2017
 -1      2414    1    0    2
 -2      3271      3272      3295      3294      1973      1975      2021      2019
 -1      2415    1    0    2
 -2      3272      3273      3296      3295      1975      1977      2023      2021
 -1      2416    1    0    2
 -2      3273      3274      3297      3296      1977      1979      2025      2023
 -1      2417    1    0    2
 -2      3274      3275      3298      3297      1979      1981      2027      2025
 -1      2418    1    0    2
 -2      3275      3276      3299      3298      1981      1983      2029      2027
 -1      2419    1    0    2
 -2      3276      3277      3300      3299      1983      1985      2031      2029
 -1      2420    1    0    2
 -2      3277      3278      3301      3300      1985      1987      2033      2031
 -1      2421    1    0    2
 -2      3278      3279      3302      3301      1987      1989      2035      2033
 -1      2422    1    0    2
 -2      3279      3280      3303      3302      1989      1991      2037      2035
 -1      2423    1    0    2
 -2      3280      3281      3304      3303      1991      1993      2039      2037
 -1      2424    1    0    2
 -2      3281      1181      1183      3304      1993      1207      1209      2039
 -1      2425    1    0    2
 -2      1182      3282      1443      1184      1208      1995      1489      1210
 -1      2426    1    0    2
 -2      3282      3283      1445      1443      1995      1997      1491      1489
 -1      2427    1    0    2
 -2      3283      3284      1447      1445      1997      1999      1493      1491
 -1      2428    1    0    2
 -2      3284      3285      1449      1447      1999      2001      1495      1493
 -1      2429    1    0    2
 -2      3285      3286      1451      1449      2001      2003      1497      1495
 -1      2430    1    0    2
 -2      3286      3287      1453      1451      2003      2005      1499      1497
 -1      2431    1    0    2
 -2      3287      3288      1455      1453      2005      2007      1501      1499
 -1      2432    1    0    2
 -2      3288      3289      1457      1455      2007      2009      1503      1501
 -1      2433    1    0    2
 -2      3289      3290      1459      1457      2009      2011      1505      1503
 -1      2434    1    0    2
 -2      3290      3291      1461      1459      2011      2013      1507      1505
 -1      2435    1    0    2
 -2      3291      3292      1463      1461      2013      2015      1509      1507
 -1      2436    1    0    2
 -2      3292      3293      1465      1463      2015      2017      1511      1509
 -1      2437    1    0    2
 -2      3293      3294      1467      1465      2017      2019      1513      1511
 -1      2438    1    0    2
 -2      3294      3295      1469      1467      2019      2021      1515      1513
 -1      2439    1    0    2
 -2      3295      3296      1471      1469      2021      2023      1517      1515
 -1      2440    1    0    2
 -2      3296      3297      1473      1471      2023      2025      1519      1517
 -1      2441    1    0    2
 -2      3297      3298      1475      1473      2025      2027      1521      1519
 -1      2442    1    0    2
 -2      3298      3299      1477      1475      2027      2029      1523      1521
 -1      2443    1    0    2
 -2      3299      3300      1479      1477      2029      2031      1525      1523
 -1      2444    1    0    2
 -2      3300      3301      1481      1479      2031      2033      1527      1525
 -1      2445    1    0    2
 -2      3301      3302      1483      1481      2033      2035      1529      1527
 -1      2446    1    0    2
 -2      3302      3303      1485      1483      2035      2037      1531      1529
 -1      2447    1    0    2
 -2      3303      3304      1487      1485      2037      2039      1533      1531
 -1      2448    1    0    2
 -2      3304      1183      1185      1487      2039      1209      1211      1533
 -3
    1PSTEP                         1           1           1          
  100CL  101 1.00000E-01        3304                     0    1           1
 -4  DISP        4    1
 -5  D1          1    2    1    0
 -5  D2          1    2    2    0
 -5  D3          1    2    3    0
 -5  ALL         1    2    0    0    1ALL
 -1         1 0.00000E+00 0.00000E+00 0.00000E+00
 -1         2 5.63450E-03 4.47439E-05-3.97859E-06
 -1         3 0.00000E+00 0.00000E+00 0.00000E+00
 -1         4 5.52434E-03 2.44784E-05-4.54989E-06
 -1         5 0.00000E+00 0.00000E+00 0.00000E+00
 -1         6 5.50200E-03 1.14661E-05-4.93046E-06
 -1         7 0.00000E+00 0.00000E+00 0.00000E+00
 -1         8 5.49583E-03 7.92582E-18-4.95048E-06
 -1         9 0.00000E+00 0.00000E+00 0.00000E+00
 -1        10 5.50200E-03-1.14661E-05-4.93046E-06
 -1        11 0.00000E+00 0.00000E+00 0.00000E+00
 -1        12 5.52434E-03-2.44784E-05-4.54989E-06
 -1        13 0.00000E+00 0.00000E+00 0.00000E+00
 -1        14 5.63450E-03-4.47439E-05-3.97859E-06
 -1        15 0.00000E+00 0.00000E+00 0.00000E+00
 -1        16 5.53325E-03 2.70437E-05-1.15824E-04
 -1        17 0.00000E+00 0.00000E+00 0.00000E+00
 -1        18 5.47850E-03 1.94054E-05-1.09965E-04
 -1        19 0.00000E+00 0.00000E+00 0.00000E+00
 -1        20 5.45516E-03 1.02928E-05-1.10505E-04
 -1        21 0.00000E+00 0.00000E+00 0.00000E+00
 -1        22 5.44962E-03 7.89130E-18-1.10491E-04
 -1        23 0.00000E+00 0.00000E+00 0.00000E+00
 -1        24 5.45516E-03-1.02928E-05-1.10505E-04
 -1        25 0.00000E+00 0.00000E+00 0.00000E+00
 -1        26 5.47850E-03-1.94054E-05-1.09965E-04
 -1        27 0.00000E+00 0.00000E+00 0.00000E+00
 -1        28 5.53325E-03-2.70437E-05-1.15824E-04
 -1        29 0.00000E+00 0.00000E+00 0.00000E+00
 -1        30 5.51604E-03 1.44265E-05-2.28679E-04
 -1        31 0.00000E+00 0.00000E+00 0.00000E+00
 -1        32 5.46387E-03 1.30676E-05-2.23134E-04
 -1        33 0.00000E+00 0.00000E+00 0.00000E+00
 -1        34 5.44631E-03 8.77810E-06-2.19835E-04
 -1        35 0.00000E+00 0.00000E+00 0.00000E+00
 -1        36 5.44111E-03 7.95703E-18-2.18510E-04
 -1        37 0.00000E+00 0.00000E+00 0.00000E+00
 -1        38 5.44631E-03-8.77810E-06-2.19835E-04
 -1        39 0.00000E+00 0.00000E+00 0.00000E+00
 -1        40 5.46387E-03-1.30676E-05-2.23134E-04
 -1        41 0.00000E+00 0.00000E+00 0.00000E+00
 -1        42 5.51604E-03-1.44265E-05-2.28679E-04
 -1        43 0.00000E+00 0.00000E+00 0.00000E+00
 -1        44 5.52297E-03 1.08644E-05-3.51212E-04
 -1        45 0.00000E+00 0.00000E+00 0.00000E+00
 -1        46 5.47344E-03 1.35257E-05-3.44944E-04
 -1        47 0.00000E+00 0.00000E+00 0.00000E+00
 -1        48 5.45622E-03 1.01335E-05-3.34688E-04
 -1        49 0.00000E+00 0.00000E+00 0.00000E+00
 -1        50 5.45138E-03 7.85339E-18-3.30093E-04
 -1        51 0.00000E+00 0.00000E+00 0.00000E+00
 -1        52 5.45622E-03-1.01335E-05-3.34688E-04
 -1        53 0.00000E+00 0.00000E+00 0.00000E+00
 -1        54 5.47344E-03-1.35257E-05-3.44944E-04
 -1        55 0.00000E+00 0.00000E+00 0.00000E+00
 -1        56 5.52297E-03-1.08644E-05-3.51212E-04
 -1        57 0.00000E+00 0.00000E+00 0.00000E+00
 -1        58 5.55647E-03 1.28973E-05-4.92974E-04
 -1        59 0.00000E+00 0.00000E+00 0.00000E+00
 -1        60 5.50566E-03 1.99300E-05-4.76230E-04
 -1        61 0.00000E+00 0.00000E+00 0.00000E+00
 -1        62 5.48695E-03 1.37555E-05-4.52175E-04
 -1        63 0.00000E+00 0.00000E+00 0.00000E+00
 -1        64 5.48114E-03 7.71214E-18-4.42968E-04
 -1        65 0.00000E+00 0.00000E+00 0.00000E+00
 -1        66 5.48695E-03-1.37555E-05-4.52175E-04
 -1        67 0.00000E+00 0.00000E+00 0.00000E+00
 -1        68 5.50566E-03-1.99300E-05-4.76230E-04
 -1        69 0.00000E+00 0.00000E+00 0.00000E+00
 -1        70 5.55647E-03-1.28973E-05-4.92974E-04
 -1        71 0.00000E+00 0.00000E+00 0.00000E+00
 -1        72 5.62726E-03 1.36331E-05-6.73970E-04
 -1        73 0.00000E+00 0.00000E+00 0.00000E+00
 -1        74 5.57602E-03 2.18923E-05-6.12736E-04
 -1        75 0.00000E+00 0.00000E+00 0.00000E+00
 -1        76 5.54838E-03 8.59390E-06-5.70144E-04
 -1        77 0.00000E+00 0.00000E+00 0.00000E+00
 -1        78 5.54044E-03 7.46296E-18-5.60365E-04
 -1        79 0.00000E+00 0.00000E+00 0.00000E+00
 -1        80 5.54838E-03-8.59390E-06-5.70144E-04
 -1        81 0.00000E+00 0.00000E+00 0.00000E+00
 -1        82 5.57602E-03-2.18923E-05-6.12736E-04
 -1        83 0.00000E+00 0.00000E+00 0.00000E+00
 -1        84 5.62726E-03-1.36331E-05-6.73970E-04
 -1        85 0.00000E+00 0.00000E+00 0.00000E+00
 -1        86 5.83956E-03-5.81775E-05-9.31535E-04
 -1        87 0.00000E+00 0.00000E+00 0.00000E+00
 -1        88 5.71824E-03-3.32098E-05-7.45512E-04
 -1        89 0.00000E+00 0.00000E+00 0.00000E+00
 -1        90 5.67998E-03-1.37106E-05-7.05050E-04
 -1        91 0.00000E+00 0.00000E+00 0.00000E+00
 -1        92 5.66953E-03 7.19887E-18-6.92208E-04
 -1        93 0.00000E+00 0.00000E+00 0.00000E+00
 -1        94 5.67998E-03 1.37106E-05-7.05050E-04
 -1        95 0.00000E+00 0.00000E+00 0.00000E+00
 -1        96 5.71824E-03 3.32098E-05-7.45512E-04
 -1        97 0.00000E+00 0.00000E+00 0.00000E+00
 -1        98 5.83956E-03 5.81775E-05-9.31535E-04
 -1        99 1.96924E-04 5.30750E-05-1.13858E-06
 -1       100 1.96924E-04-5.30750E-05-1.13858E-06
 -1       101 4.54207E-04 3.74695E-05-2.82736E-06
 -1       102 4.54207E-04-3.74695E-05-2.82736E-06
 -1       103 7.40667E-04 3.06158E-05-3.00480E-06
 -1       104 7.40667E-04-3.06158E-05-3.00480E-06
 -1       105 1.02436E-03 2.89273E-05-3.02978E-06
 -1       106 1.02436E-03-2.89273E-05-3.02978E-06
 -1       107 1.30216E-03 2.90024E-05-2.95525E-06
 -1       108 1.30216E-03-2.90024E-05-2.95525E-06
 -1       109 1.57764E-03 2.93337E-05-2.92444E-06
 -1       110 1.57764E-03-2.93337E-05-2.92444E-06
 -1       111 1.85295E-03 2.96422E-05-2.91239E-06
 -1       112 1.85295E-03-2.96422E-05-2.91239E-06
 -1       113 2.12884E-03 2.98959E-05-2.91050E-06
 -1       114 2.12884E-03-2.98959E-05-2.91050E-06
 -1       115 2.40547E-03 3.01182E-05-2.91084E-06
 -1       116 2.40547E-03-3.01182E-05-2.91084E-06
 -1       117 2.68284E-03 3.03276E-05-2.91155E-06
 -1       118 2.68284E-03-3.03276E-05-2.91155E-06
 -1       119 2.96093E-03 3.05343E-05-2.91233E-06
 -1       120 2.96093E-03-3.05343E-05-2.91233E-06
 -1       121 3.23976E-03 3.07465E-05-2.91330E-06
 -1       122 3.23976E-03-3.07465E-05-2.91330E-06
 -1       123 3.51937E-03 3.09822E-05-2.91394E-06
 -1       124 3.51937E-03-3.09822E-05-2.91394E-06
 -1       125 3.79974E-03 3.12712E-05-2.90885E-06
 -1       126 3.79974E-03-3.12712E-05-2.90885E-06
 -1       127 4.08059E-03 3.16436E-05-2.88976E-06
 -1       128 4.08059E-03-3.16436E-05-2.88976E-06
 -1       129 4.36038E-03 3.20840E-05-2.81559E-06
 -1       130 4.36038E-03-3.20840E-05-2.81559E-06
 -1       131 4.63470E-03 3.19511E-05-2.75713E-06
 -1       132 4.63470E-03-3.19511E-05-2.75713E-06
 -1       133 4.89805E-03 2.80358E-05-2.65701E-06
 -1       134 4.89805E-03-2.80358E-05-2.65701E-06
 -1       135 5.16392E-03 3.88765E-06-3.95402E-06
 -1       136 5.16392E-03-3.88765E-06-3.95402E-06
 -1       137 1.98646E-04 5.31165E-05-4.61310E-05
 -1       138 1.98646E-04-5.31165E-05-4.61310E-05
 -1       139 4.57209E-04 3.74992E-05-7.10974E-05
 -1       140 4.57209E-04-3.74992E-05-7.10974E-05
 -1       141 7.43252E-04 3.08957E-05-7.65549E-05
 -1       142 7.43252E-04-3.08957E-05-7.65549E-05
 -1       143 1.02605E-03 2.93668E-05-7.55190E-05
 -1       144 1.02605E-03-2.93668E-05-7.55190E-05
 -1       145 1.30339E-03 2.95240E-05-7.41630E-05
 -1       146 1.30339E-03-2.95240E-05-7.41630E-05
 -1       147 1.57875E-03 2.98709E-05-7.35764E-05
 -1       148 1.57875E-03-2.98709E-05-7.35764E-05
 -1       149 1.85405E-03 3.01767E-05-7.34478E-05
 -1       150 1.85405E-03-3.01767E-05-7.34478E-05
 -1       151 2.12995E-03 3.04263E-05-7.34887E-05
 -1       152 2.12995E-03-3.04263E-05-7.34887E-05
 -1       153 2.40659E-03 3.06458E-05-7.35702E-05
 -1       154 2.40659E-03-3.06458E-05-7.35702E-05
 -1       155 2.68396E-03 3.08537E-05-7.36539E-05
 -1       156 2.68396E-03-3.08537E-05-7.36539E-05
 -1       157 2.96205E-03 3.10593E-05-7.37383E-05
 -1       158 2.96205E-03-3.10593E-05-7.37383E-05
 -1       159 3.24087E-03 3.12697E-05-7.38293E-05
 -1       160 3.24087E-03-3.12697E-05-7.38293E-05
 -1       161 3.52047E-03 3.15017E-05-7.39166E-05
 -1       162 3.52047E-03-3.15017E-05-7.39166E-05
 -1       163 3.80083E-03 3.17855E-05-7.39197E-05
 -1       164 3.80083E-03-3.17855E-05-7.39197E-05
 -1       165 4.08167E-03 3.21527E-05-7.36130E-05
 -1       166 4.08167E-03-3.21527E-05-7.36130E-05
 -1       167 4.36170E-03 3.26518E-05-7.23587E-05
 -1       168 4.36170E-03-3.26518E-05-7.23587E-05
 -1       169 4.63701E-03 3.26328E-05-7.01530E-05
 -1       170 4.63701E-03-3.26328E-05-7.01530E-05
 -1       171 4.90003E-03 2.90952E-05-6.83136E-05
 -1       172 4.90003E-03-2.90952E-05-6.83136E-05
 -1       173 5.17909E-03 6.16378E-06-9.12133E-05
 -1       174 5.17909E-03-6.16378E-06-9.12133E-05
 -1       175 2.02183E-04 5.29809E-05-9.37376E-05
 -1       176 2.02183E-04-5.29809E-05-9.37376E-05
 -1       177 4.63867E-04 3.73948E-05-1.41135E-04
 -1       178 4.63867E-04-3.73948E-05-1.41135E-04
 -1       179 7.48342E-04 3.14780E-05-1.50686E-04
 -1       180 7.48342E-04-3.14780E-05-1.50686E-04
 -1       181 1.02850E-03 3.04777E-05-1.48511E-04
 -1       182 1.02850E-03-3.04777E-05-1.48511E-04
 -1       183 1.30459E-03 3.08627E-05-1.46065E-04
 -1       184 1.30459E-03-3.08627E-05-1.46065E-04
 -1       185 1.57965E-03 3.12551E-05-1.45022E-04
 -1       186 1.57965E-03-3.12551E-05-1.45022E-04
 -1       187 1.85493E-03 3.15572E-05-1.44802E-04
 -1       188 1.85493E-03-3.15572E-05-1.44802E-04
 -1       189 2.13086E-03 3.17988E-05-1.44891E-04
 -1       190 2.13086E-03-3.17988E-05-1.44891E-04
 -1       191 2.40752E-03 3.20135E-05-1.45052E-04
 -1       192 2.40752E-03-3.20135E-05-1.45052E-04
 -1       193 2.68490E-03 3.22195E-05-1.45217E-04
 -1       194 2.68490E-03-3.22195E-05-1.45217E-04
 -1       195 2.96299E-03 3.24237E-05-1.45382E-04
 -1       196 2.96299E-03-3.24237E-05-1.45382E-04
 -1       197 3.24180E-03 3.26306E-05-1.45561E-04
 -1       198 3.24180E-03-3.26306E-05-1.45561E-04
 -1       199 3.52135E-03 3.28548E-05-1.45732E-04
 -1       200 3.52135E-03-3.28548E-05-1.45732E-04
 -1       201 3.80166E-03 3.31226E-05-1.45757E-04
 -1       202 3.80166E-03-3.31226E-05-1.45757E-04
 -1       203 4.08253E-03 3.34950E-05-1.45184E-04
 -1       204 4.08253E-03-3.34950E-05-1.45184E-04
 -1       205 4.36328E-03 3.40685E-05-1.43097E-04
 -1       206 4.36328E-03-3.40685E-05-1.43097E-04
 -1       207 4.64069E-03 3.46686E-05-1.38412E-04
 -1       208 4.64069E-03-3.46686E-05-1.38412E-04
 -1       209 4.90976E-03 3.14808E-05-1.36917E-04
 -1       210 4.90976E-03-3.14808E-05-1.36917E-04
 -1       211 5.17711E-03 1.05765E-05-1.68075E-04
 -1       212 5.17711E-03-1.05765E-05-1.68075E-04
 -1       213 2.08527E-04 5.22752E-05-1.47152E-04
 -1       214 2.08527E-04-5.22752E-05-1.47152E-04
 -1       215 4.74842E-04 3.66655E-05-2.14872E-04
 -1       216 4.74842E-04-3.66655E-05-2.14872E-04
 -1       217 7.55433E-04 3.19996E-05-2.26378E-04
 -1       218 7.55433E-04-3.19996E-05-2.26378E-04
 -1       219 1.03123E-03 3.19276E-05-2.23094E-04
 -1       220 1.03123E-03-3.19276E-05-2.23094E-04
 -1       221 1.30567E-03 3.26520E-05-2.19946E-04
 -1       222 1.30567E-03-3.26520E-05-2.19946E-04
 -1       223 1.58034E-03 3.31027E-05-2.18599E-04
 -1       224 1.58034E-03-3.31027E-05-2.18599E-04
 -1       225 1.85560E-03 3.33982E-05-2.18335E-04
 -1       226 1.85560E-03-3.33982E-05-2.18335E-04
 -1       227 2.13158E-03 3.36271E-05-2.18482E-04
 -1       228 2.13158E-03-3.36271E-05-2.18482E-04
 -1       229 2.40827E-03 3.38348E-05-2.18720E-04
 -1       230 2.40827E-03-3.38348E-05-2.18720E-04
 -1       231 2.68566E-03 3.40383E-05-2.18962E-04
 -1       232 2.68566E-03-3.40383E-05-2.18962E-04
 -1       233 2.96375E-03 3.42410E-05-2.19206E-04
 -1       234 2.96375E-03-3.42410E-05-2.19206E-04
 -1       235 3.24253E-03 3.44432E-05-2.19466E-04
 -1       236 3.24253E-03-3.44432E-05-2.19466E-04
 -1       237 3.52203E-03 3.46536E-05-2.19720E-04
 -1       238 3.52203E-03-3.46536E-05-2.19720E-04
 -1       239 3.80225E-03 3.49024E-05-2.19779E-04
 -1       240 3.80225E-03-3.49024E-05-2.19779E-04
 -1       241 4.08319E-03 3.52567E-05-2.19054E-04
 -1       242 4.08319E-03-3.52567E-05-2.19054E-04
 -1       243 4.36465E-03 3.59887E-05-2.16351E-04
 -1       244 4.36465E-03-3.59887E-05-2.16351E-04
 -1       245 4.64591E-03 3.73081E-05-2.10361E-04
 -1       246 4.64591E-03-3.73081E-05-2.10361E-04
 -1       247 4.92138E-03 3.55473E-05-2.06696E-04
 -1       248 4.92138E-03-3.55473E-05-2.06696E-04
 -1       249 5.18581E-03 1.64573E-05-2.41916E-04
 -1       250 5.18581E-03-1.64573E-05-2.41916E-04
 -1       251 2.20023E-04 4.96137E-05-2.11597E-04
 -1       252 2.20023E-04-4.96137E-05-2.11597E-04
 -1       253 4.91112E-04 3.34947E-05-2.94778E-04
 -1       254 4.91112E-04-3.34947E-05-2.94778E-04
 -1       255 7.63214E-04 3.09497E-05-3.05522E-04
 -1       256 7.63214E-04-3.09497E-05-3.05522E-04
 -1       257 1.03361E-03 3.22016E-05-3.01705E-04
 -1       258 1.03361E-03-3.22016E-05-3.01705E-04
 -1       259 1.30648E-03 3.33118E-05-2.98315E-04
 -1       260 1.30648E-03-3.33118E-05-2.98315E-04
 -1       261 1.58076E-03 3.38177E-05-2.96826E-04
 -1       262 1.58076E-03-3.38177E-05-2.96826E-04
 -1       263 1.85607E-03 3.41030E-05-2.96586E-04
 -1       264 1.85607E-03-3.41030E-05-2.96586E-04
 -1       265 2.13211E-03 3.43121E-05-2.96794E-04
 -1       266 2.13211E-03-3.43121E-05-2.96794E-04
 -1       267 2.40884E-03 3.45115E-05-2.97106E-04
 -1       268 2.40884E-03-3.45115E-05-2.97106E-04
 -1       269 2.68625E-03 3.47122E-05-2.97422E-04
 -1       270 2.68625E-03-3.47122E-05-2.97422E-04
 -1       271 2.96433E-03 3.49134E-05-2.97740E-04
 -1       272 2.96433E-03-3.49134E-05-2.97740E-04
 -1       273 3.24309E-03 3.51101E-05-2.98076E-04
 -1       274 3.24309E-03-3.51101E-05-2.98076E-04
 -1       275 3.52252E-03 3.53032E-05-2.98404E-04
 -1       276 3.52252E-03-3.53032E-05-2.98404E-04
 -1       277 3.80261E-03 3.55194E-05-2.98521E-04
 -1       278 3.80261E-03-3.55194E-05-2.98521E-04
 -1       279 4.08354E-03 3.58631E-05-2.97741E-04
 -1       280 4.08354E-03-3.58631E-05-2.97741E-04
 -1       281 4.36572E-03 3.66960E-05-2.94771E-04
 -1       282 4.36572E-03-3.66960E-05-2.94771E-04
 -1       283 4.65036E-03 3.89430E-05-2.88537E-04
 -1       284 4.65036E-03-3.89430E-05-2.88537E-04
 -1       285 4.93584E-03 3.95179E-05-2.81864E-04
 -1       286 4.93584E-03-3.95179E-05-2.81864E-04
 -1       287 5.20795E-03 2.33573E-05-3.15244E-04
 -1       288 5.20795E-03-2.33573E-05-3.15244E-04
 -1       289 2.43218E-04 4.01303E-05-2.96975E-04
 -1       290 2.43218E-04-4.01303E-05-2.96975E-04
 -1       291 5.12881E-04 2.28038E-05-3.83887E-04
 -1       292 5.12881E-04-2.28038E-05-3.83887E-04
 -1       293 7.68668E-04 2.35677E-05-3.92546E-04
 -1       294 7.68668E-04-2.35677E-05-3.92546E-04
 -1       295 1.03539E-03 2.64727E-05-3.89611E-04
 -1       296 1.03539E-03-2.64727E-05-3.89611E-04
 -1       297 1.30675E-03 2.78795E-05-3.86145E-04
 -1       298 1.30675E-03-2.78795E-05-3.86145E-04
 -1       299 1.58094E-03 2.84745E-05-3.84752E-04
 -1       300 1.58094E-03-2.84745E-05-3.84752E-04
 -1       301 1.85634E-03 2.87238E-05-3.84565E-04
 -1       302 1.85634E-03-2.87238E-05-3.84565E-04
 -1       303 2.13248E-03 2.89126E-05-3.84839E-04
 -1       304 2.13248E-03-2.89126E-05-3.84839E-04
 -1       305 2.40924E-03 2.91012E-05-3.85220E-04
 -1       306 2.40924E-03-2.91012E-05-3.85220E-04
 -1       307 2.68666E-03 2.92994E-05-3.85606E-04
 -1       308 2.68666E-03-2.92994E-05-3.85606E-04
 -1       309 2.96474E-03 2.94993E-05-3.85994E-04
 -1       310 2.96474E-03-2.94993E-05-3.85994E-04
 -1       311 3.24348E-03 2.96896E-05-3.86400E-04
 -1       312 3.24348E-03-2.96896E-05-3.86400E-04
 -1       313 3.52283E-03 2.98649E-05-3.86797E-04
 -1       314 3.52283E-03-2.98649E-05-3.86797E-04
 -1       315 3.80278E-03 3.00331E-05-3.86968E-04
 -1       316 3.80278E-03-3.00331E-05-3.86968E-04
 -1       317 4.08351E-03 3.03596E-05-3.86260E-04
 -1       318 4.08351E-03-3.03596E-05-3.86260E-04
 -1       319 4.36624E-03 3.12853E-05-3.83281E-04
 -1       320 4.36624E-03-3.12853E-05-3.83281E-04
 -1       321 4.65264E-03 3.42562E-05-3.77398E-04
 -1       322 4.65264E-03-3.42562E-05-3.77398E-04
 -1       323 4.94907E-03 3.88686E-05-3.70890E-04
 -1       324 4.94907E-03-3.88686E-05-3.70890E-04
 -1       325 5.24604E-03 2.51176E-05-3.90610E-04
 -1       326 5.24604E-03-2.51176E-05-3.90610E-04
 -1       327 3.11443E-04-4.17073E-06-4.20462E-04
 -1       328 3.11443E-04 4.17073E-06-4.20462E-04
 -1       329 5.24396E-04-2.14109E-05-4.83101E-04
 -1       330 5.24396E-04 2.14109E-05-4.83101E-04
 -1       331 7.72086E-04-1.47479E-05-4.98327E-04
 -1       332 7.72086E-04 1.47479E-05-4.98327E-04
 -1       333 1.03528E-03-1.10211E-05-4.95132E-04
 -1       334 1.03528E-03 1.10211E-05-4.95132E-04
 -1       335 1.30642E-03-9.00896E-06-4.92301E-04
 -1       336 1.30642E-03 9.00896E-06-4.92301E-04
 -1       337 1.58086E-03-8.43026E-06-4.91013E-04
 -1       338 1.58086E-03 8.43026E-06-4.91013E-04
 -1       339 1.85647E-03-8.20700E-06-4.90916E-04
 -1       340 1.85647E-03 8.20700E-06-4.90916E-04
 -1       341 2.13269E-03-8.04797E-06-4.91248E-04
 -1       342 2.13269E-03 8.04797E-06-4.91248E-04
 -1       343 2.40948E-03-7.86975E-06-4.91693E-04
 -1       344 2.40948E-03 7.86975E-06-4.91693E-04
 -1       345 2.68690E-03-7.67443E-06-4.92146E-04
 -1       346 2.68690E-03 7.67443E-06-4.92146E-04
 -1       347 2.96498E-03-7.47573E-06-4.92602E-04
 -1       348 2.96498E-03 7.47573E-06-4.92602E-04
 -1       349 3.24371E-03-7.29099E-06-4.93074E-04
 -1       350 3.24371E-03 7.29099E-06-4.93074E-04
 -1       351 3.52302E-03-7.13928E-06-4.93525E-04
 -1       352 3.52302E-03 7.13928E-06-4.93525E-04
 -1       353 3.80280E-03-7.01071E-06-4.93764E-04
 -1       354 3.80280E-03 7.01071E-06-4.93764E-04
 -1       355 4.08320E-03-6.78074E-06-4.93092E-04
 -1       356 4.08320E-03 6.78074E-06-4.93092E-04
 -1       357 4.36541E-03-5.63188E-06-4.90634E-04
 -1       358 4.36541E-03 5.63188E-06-4.90634E-04
 -1       359 4.65313E-03-2.19592E-06-4.84147E-04
 -1       360 4.65313E-03 2.19592E-06-4.84147E-04
 -1       361 4.95195E-03 6.18571E-06-4.84556E-04
 -1       362 4.95195E-03-6.18571E-06-4.84556E-04
 -1       363 5.28499E-03 5.23258E-06-4.78331E-04
 -1       364 5.28499E-03-5.23258E-06-4.78331E-04
 -1       365 1.90817E-04 3.41568E-05-1.07714E-06
 -1       366 3.09406E-04 1.78936E-07-3.37262E-04
 -1       367 4.57733E-04 2.68844E-05-2.82189E-06
 -1       368 5.26614E-04-9.81514E-06-4.11138E-04
 -1       369 7.41688E-04 2.06853E-05-3.09055E-06
 -1       370 7.71269E-04-7.83922E-06-4.26990E-04
 -1       371 1.02448E-03 1.97292E-05-3.10390E-06
 -1       372 1.03475E-03-4.74656E-06-4.25724E-04
 -1       373 1.30206E-03 1.97886E-05-3.04266E-06
 -1       374 1.30614E-03-3.44279E-06-4.23109E-04
 -1       375 1.57754E-03 2.00156E-05-3.01091E-06
 -1       376 1.58076E-03-3.02252E-06-4.21888E-04
 -1       377 1.85287E-03 2.02181E-05-2.99908E-06
 -1       378 1.85641E-03-2.88009E-06-4.21751E-04
 -1       379 2.12878E-03 2.03880E-05-2.99666E-06
 -1       380 2.13263E-03-2.77323E-06-4.22063E-04
 -1       381 2.40541E-03 2.05366E-05-2.99683E-06
 -1       382 2.40942E-03-2.65518E-06-4.22498E-04
 -1       383 2.68278E-03 2.06766E-05-2.99742E-06
 -1       384 2.68684E-03-2.52516E-06-4.22948E-04
 -1       385 2.96087E-03 2.08146E-05-2.99812E-06
 -1       386 2.96493E-03-2.39294E-06-4.23403E-04
 -1       387 3.23970E-03 2.09565E-05-2.99899E-06
 -1       388 3.24366E-03-2.27021E-06-4.23869E-04
 -1       389 3.51930E-03 2.11140E-05-2.99921E-06
 -1       390 3.52297E-03-2.16952E-06-4.24305E-04
 -1       391 3.79965E-03 2.13066E-05-2.99388E-06
 -1       392 3.80274E-03-2.08503E-06-4.24493E-04
 -1       393 4.08045E-03 2.15393E-05-2.97330E-06
 -1       394 4.08302E-03-1.94114E-06-4.23816E-04
 -1       395 4.36025E-03 2.18658E-05-2.90687E-06
 -1       396 4.36492E-03-1.12891E-06-4.21237E-04
 -1       397 4.63519E-03 2.19240E-05-2.84628E-06
 -1       398 4.65220E-03 1.28524E-06-4.16445E-04
 -1       399 4.90066E-03 1.93143E-05-2.78290E-06
 -1       400 4.95087E-03 8.75820E-06-4.15605E-04
 -1       401 5.17587E-03-2.28418E-06-4.10379E-06
 -1       402 5.30370E-03-7.23733E-06-4.37714E-04
 -1       403 1.89207E-04 1.67984E-05-9.81296E-07
 -1       404 3.05776E-04 1.32726E-06-3.24030E-04
 -1       405 4.57751E-04 1.40324E-05-2.80443E-06
 -1       406 5.27346E-04-3.37882E-06-3.94670E-04
 -1       407 7.42698E-04 1.06661E-05-3.06695E-06
 -1       408 7.71854E-04-3.07154E-06-4.12379E-04
 -1       409 1.02455E-03 1.00879E-05-3.09973E-06
 -1       410 1.03452E-03-1.48698E-06-4.11736E-04
 -1       411 1.30200E-03 1.01683E-05-3.03624E-06
 -1       412 1.30600E-03-7.78417E-07-4.09432E-04
 -1       413 1.57748E-03 1.02736E-05-3.00675E-06
 -1       414 1.58068E-03-5.70554E-07-4.08227E-04
 -1       415 1.85283E-03 1.03755E-05-2.99447E-06
 -1       416 1.85637E-03-4.96520E-07-4.08082E-04
 -1       417 2.12874E-03 1.04601E-05-2.99206E-06
 -1       418 2.13260E-03-4.43745E-07-4.08381E-04
 -1       419 2.40538E-03 1.05345E-05-2.99213E-06
 -1       420 2.40939E-03-3.84761E-07-4.08811E-04
 -1       421 2.68275E-03 1.06046E-05-2.99272E-06
 -1       422 2.68681E-03-3.19924E-07-4.09260E-04
 -1       423 2.96084E-03 1.06737E-05-2.99340E-06
 -1       424 2.96489E-03-2.53944E-07-4.09713E-04
 -1       425 3.23967E-03 1.07447E-05-2.99424E-06
 -1       426 3.24363E-03-1.92854E-07-4.10176E-04
 -1       427 3.51926E-03 1.08238E-05-2.99430E-06
 -1       428 3.52294E-03-1.42090E-07-4.10601E-04
 -1       429 3.79961E-03 1.09181E-05-2.98892E-06
 -1       430 3.80269E-03-1.03829E-07-4.10770E-04
 -1       431 4.08036E-03 1.10372E-05-2.96786E-06
 -1       432 4.08289E-03-1.42201E-08-4.10064E-04
 -1       433 4.36015E-03 1.11672E-05-2.90624E-06
 -1       434 4.36468E-03 3.17745E-07-4.07593E-04
 -1       435 4.63561E-03 1.14963E-05-2.83463E-06
 -1       436 4.65170E-03 2.02736E-06-4.03273E-04
 -1       437 4.90399E-03 9.18236E-06-2.83187E-06
 -1       438 4.95582E-03 4.87615E-06-4.04754E-04
 -1       439 5.16803E-03-1.23617E-06-4.05637E-06
 -1       440 5.29317E-03-5.75717E-06-4.26457E-04
 -1       441 1.88850E-04 1.08938E-19-9.49225E-07
 -1       442 3.04680E-04-6.86304E-20-3.20023E-04
 -1       443 4.57603E-04 3.50741E-19-2.78351E-06
 -1       444 5.27357E-04-1.64836E-20-3.89515E-04
 -1       445 7.42986E-04 5.93171E-19-3.05498E-06
 -1       446 7.72139E-04 2.14425E-19-4.07687E-04
 -1       447 1.02461E-03 1.11111E-18-3.08949E-06
 -1       448 1.03449E-03 7.73306E-19-4.07266E-04
 -1       449 1.30197E-03 1.47980E-18-3.02764E-06
 -1       450 1.30595E-03 1.14516E-18-4.05061E-04
 -1       451 1.57747E-03 1.99974E-18-2.99803E-06
 -1       452 1.58065E-03 1.71299E-18-4.03870E-04
 -1       453 1.85282E-03 2.39648E-18-2.98594E-06
 -1       454 1.85635E-03 2.10912E-18-4.03720E-04
 -1       455 2.12873E-03 2.93400E-18-2.98341E-06
 -1       456 2.13259E-03 2.65812E-18-4.04016E-04
 -1       457 2.40537E-03 3.68284E-18-2.98347E-06
 -1       458 2.40938E-03 3.37014E-18-4.04444E-04
 -1       459 2.68274E-03 4.25776E-18-2.98404E-06
 -1       460 2.68680E-03 3.78061E-18-4.04892E-04
 -1       461 2.96084E-03 4.90920E-18-2.98472E-06
 -1       462 2.96488E-03 4.76963E-18-4.05345E-04
 -1       463 3.23966E-03 5.56438E-18-2.98552E-06
 -1       464 3.24362E-03 5.15889E-18-4.05807E-04
 -1       465 3.51925E-03 6.08713E-18-2.98560E-06
 -1       466 3.52293E-03 5.84952E-18-4.06228E-04
 -1       467 3.79959E-03 6.01295E-18-2.97991E-06
 -1       468 3.80267E-03 5.61907E-18-4.06393E-04
 -1       469 4.08034E-03 5.86637E-18-2.95970E-06
 -1       470 4.08288E-03 5.39268E-18-4.05672E-04
 -1       471 4.36006E-03 5.94348E-18-2.89668E-06
 -1       472 4.36448E-03 5.18550E-18-4.03256E-04
 -1       473 4.63604E-03 5.98238E-18-2.83011E-06
 -1       474 4.65201E-03 5.58618E-18-3.99104E-04
 -1       475 4.90448E-03 6.53021E-18-2.82646E-06
 -1       476 4.95694E-03 6.14865E-18-4.01296E-04
 -1       477 5.16529E-03 7.49481E-18-4.07837E-06
 -1       478 5.28883E-03 6.64303E-18-4.22333E-04
 -1       479 1.89207E-04-1.67984E-05-9.81296E-07
 -1       480 3.05776E-04-1.32726E-06-3.24030E-04
 -1       481 4.57751E-04-1.40324E-05-2.80443E-06
 -1       482 5.27346E-04 3.37882E-06-3.94670E-04
 -1       483 7.42698E-04-1.06661E-05-3.06695E-06
 -1       484 7.71854E-04 3.07154E-06-4.12379E-04
 -1       485 1.02455E-03-1.00879E-05-3.09973E-06
 -1       486 1.03452E-03 1.48698E-06-4.11736E-04
 -1       487 1.30200E-03-1.01683E-05-3.03624E-06
 -1       488 1.30600E-03 7.78417E-07-4.09432E-04
 -1       489 1.57748E-03-1.02736E-05-3.00675E-06
 -1       490 1.58068E-03 5.70554E-07-4.08227E-04
 -1       491 1.85283E-03-1.03755E-05-2.99447E-06
 -1       492 1.85637E-03 4.96520E-07-4.08082E-04
 -1       493 2.12874E-03-1.04601E-05-2.99206E-06
 -1       494 2.13260E-03 4.43745E-07-4.08381E-04
 -1       495 2.40538E-03-1.05345E-05-2.99213E-06
 -1       496 2.40939E-03 3.84761E-07-4.08811E-04
 -1       497 2.68275E-03-1.06046E-05-2.99272E-06
 -1       498 2.68681E-03 3.19924E-07-4.09260E-04
 -1       499 2.96084E-03-1.06737E-05-2.99340E-06
 -1       500 2.96489E-03 2.53944E-07-4.09713E-04
 -1       501 3.23967E-03-1.07447E-05-2.99424E-06
 -1       502 3.24363E-03 1.92854E-07-4.10176E-04
 -1       503 3.51926E-03-1.08238E-05-2.99430E-06
 -1       504 3.52294E-03 1.42090E-07-4.10601E-04
 -1       505 3.79961E-03-1.09181E-05-2.98892E-06
 -1       506 3.80269E-03 1.03829E-07-4.10770E-04
 -1       507 4.08036E-03-1.10372E-05-2.96786E-06
 -1       508 4.08289E-03 1.42201E-08-4.10064E-04
 -1       509 4.36015E-03-1.11672E-05-2.90624E-06
 -1       510 4.36468E-03-3.17745E-07-4.07593E-04
 -1       511 4.63561E-03-1.14963E-05-2.83463E-06
 -1       512 4.65170E-03-2.02736E-06-4.03273E-04
 -1       513 4.90399E-03-9.18236E-06-2.83187E-06
 -1       514 4.95582E-03-4.87615E-06-4.04754E-04
 -1       515 5.16803E-03 1.23617E-06-4.05637E-06
 -1       516 5.29317E-03 5.75717E-06-4.26457E-04
 -1       517 1.90817E-04-3.41568E-05-1.07714E-06
 -1       518 3.09406E-04-1.78936E-07-3.37262E-04
 -1       519 4.57733E-04-2.68844E-05-2.82189E-06
 -1       520 5.26614E-04 9.81514E-06-4.11138E-04
 -1       521 7.41688E-04-2.06853E-05-3.09055E-06
 -1       522 7.71269E-04 7.83922E-06-4.26990E-04
 -1       523 1.02448E-03-1.97292E-05-3.10390E-06
 -1       524 1.03475E-03 4.74656E-06-4.25724E-04
 -1       525 1.30206E-03-1.97886E-05-3.04266E-06
 -1       526 1.30614E-03 3.44279E-06-4.23109E-04
 -1       527 1.57754E-03-2.00156E-05-3.01091E-06
 -1       528 1.58076E-03 3.02252E-06-4.21888E-04
 -1       529 1.85287E-03-2.02181E-05-2.99908E-06
 -1       530 1.85641E-03 2.88009E-06-4.21751E-04
 -1       531 2.12878E-03-2.03880E-05-2.99666E-06
 -1       532 2.13263E-03 2.77323E-06-4.22063E-04
 -1       533 2.40541E-03-2.05366E-05-2.99683E-06
 -1       534 2.40942E-03 2.65518E-06-4.22498E-04
 -1       535 2.68278E-03-2.06766E-05-2.99742E-06
 -1       536 2.68684E-03 2.52516E-06-4.22948E-04
 -1       537 2.96087E-03-2.08146E-05-2.99812E-06
 -1       538 2.96493E-03 2.39294E-06-4.23403E-04
 -1       539 3.23970E-03-2.09565E-05-2.99899E-06
 -1       540 3.24366E-03 2.27021E-06-4.23869E-04
 -1       541 3.51930E-03-2.11140E-05-2.99921E-06
 -1       542 3.52297E-03 2.16952E-06-4.24305E-04
 -1       543 3.79965E-03-2.13066E-05-2.99388E-06
 -1       544 3.80274E-03 2.08503E-06-4.24493E-04
 -1       545 4.08045E-03-2.15393E-05-2.97330E-06
 -1       546 4.08302E-03 1.94114E-06-4.23816E-04
 -1       547 4.36025E-03-2.18658E-05-2.90687E-06
 -1       548 4.36492E-03 1.12891E-06-4.21237E-04
 -1       549 4.63519E-03-2.19240E-05-2.84628E-06
 -1       550 4.65220E-03-1.28524E-06-4.16445E-04
 -1       551 4.90066E-03-1.93143E-05-2.78290E-06
 -1       552 4.95087E-03-8.75820E-06-4.15605E-04
 -1       553 5.17587E-03 2.28418E-06-4.10379E-06
 -1       554 5.30370E-03 7.23733E-06-4.37714E-04
 -1       555 1.92570E-04 3.43538E-05-4.55201E-05
 -1       556 4.60719E-04 2.71261E-05-7.04514E-05
 -1       557 7.44215E-04 2.10869E-05-7.62717E-05
 -1       558 1.02614E-03 2.02477E-05-7.55261E-05
 -1       559 1.30328E-03 2.03594E-05-7.42994E-05
 -1       560 1.57865E-03 2.05958E-05-7.37411E-05
 -1       561 1.85398E-03 2.07959E-05-7.36116E-05
 -1       562 2.12989E-03 2.09626E-05-7.36479E-05
 -1       563 2.40653E-03 2.11092E-05-7.37266E-05
 -1       564 2.68390E-03 2.12480E-05-7.38089E-05
 -1       565 2.96199E-03 2.13852E-05-7.38923E-05
 -1       566 3.24081E-03 2.15256E-05-7.39814E-05
 -1       567 3.52040E-03 2.16812E-05-7.40635E-05
 -1       568 3.80074E-03 2.18676E-05-7.40616E-05
 -1       569 4.08152E-03 2.21089E-05-7.37456E-05
 -1       570 4.36158E-03 2.24227E-05-7.26049E-05
 -1       571 4.63719E-03 2.27536E-05-7.04757E-05
 -1       572 4.90417E-03 1.97714E-05-6.98018E-05
 -1       573 5.18176E-03 1.37071E-07-9.08047E-05
 -1       574 1.91009E-04 1.69688E-05-4.44733E-05
 -1       575 4.60742E-04 1.42431E-05-6.92882E-05
 -1       576 7.45186E-04 1.09528E-05-7.52910E-05
 -1       577 1.02618E-03 1.04390E-05-7.47220E-05
 -1       578 1.30321E-03 1.05445E-05-7.35696E-05
 -1       579 1.57859E-03 1.06542E-05-7.30303E-05
 -1       580 1.85393E-03 1.07549E-05-7.29013E-05
 -1       581 2.12985E-03 1.08378E-05-7.29353E-05
 -1       582 2.40650E-03 1.09113E-05-7.30124E-05
 -1       583 2.68387E-03 1.09807E-05-7.30941E-05
 -1       584 2.96196E-03 1.10494E-05-7.31770E-05
 -1       585 3.24078E-03 1.11198E-05-7.32649E-05
 -1       586 3.52036E-03 1.11974E-05-7.33445E-05
 -1       587 3.80069E-03 1.12907E-05-7.33381E-05
 -1       588 4.08144E-03 1.14059E-05-7.30281E-05
 -1       589 4.36142E-03 1.15587E-05-7.19230E-05
 -1       590 4.63773E-03 1.19250E-05-6.99424E-05
 -1       591 4.90693E-03 9.72040E-06-6.97010E-05
 -1       592 5.17547E-03-4.26710E-07-8.95170E-05
 -1       593 1.90671E-04 9.30495E-20-4.39888E-05
 -1       594 4.60599E-04 3.07395E-19-6.87370E-05
 -1       595 7.45459E-04 5.42804E-19-7.47933E-05
 -1       596 1.02624E-03 1.06907E-18-7.42821E-05
 -1       597 1.30317E-03 1.43891E-18-7.31542E-05
 -1       598 1.57857E-03 1.97733E-18-7.26214E-05
 -1       599 1.85392E-03 2.35512E-18-7.24928E-05
 -1       600 2.12984E-03 2.90067E-18-7.25261E-05
 -1       601 2.40649E-03 3.66149E-18-7.26028E-05
 -1       602 2.68386E-03 4.17980E-18-7.26842E-05
 -1       603 2.96195E-03 4.93627E-18-7.27669E-05
 -1       604 3.24077E-03 5.48762E-18-7.28545E-05
 -1       605 3.52035E-03 6.07337E-18-7.29331E-05
 -1       606 3.80067E-03 5.96664E-18-7.29260E-05
 -1       607 4.08141E-03 5.80173E-18-7.26166E-05
 -1       608 4.36134E-03 5.85706E-18-7.15273E-05
 -1       609 4.63810E-03 5.96103E-18-6.95920E-05
 -1       610 4.90749E-03 6.49757E-18-6.94834E-05
 -1       611 5.17271E-03 7.43682E-18-8.89216E-05
 -1       612 1.91009E-04-1.69688E-05-4.44733E-05
 -1       613 4.60742E-04-1.42431E-05-6.92882E-05
 -1       614 7.45186E-04-1.09528E-05-7.52910E-05
 -1       615 1.02618E-03-1.04390E-05-7.47220E-05
 -1       616 1.30321E-03-1.05445E-05-7.35696E-05
 -1       617 1.57859E-03-1.06542E-05-7.30303E-05
 -1       618 1.85393E-03-1.07549E-05-7.29013E-05
 -1       619 2.12985E-03-1.08378E-05-7.29353E-05
 -1       620 2.40650E-03-1.09113E-05-7.30124E-05
 -1       621 2.68387E-03-1.09807E-05-7.30941E-05
 -1       622 2.96196E-03-1.10494E-05-7.31770E-05
 -1       623 3.24078E-03-1.11198E-05-7.32649E-05
 -1       624 3.52036E-03-1.11974E-05-7.33445E-05
 -1       625 3.80069E-03-1.12907E-05-7.33381E-05
 -1       626 4.08144E-03-1.14059E-05-7.30281E-05
 -1       627 4.36142E-03-1.15587E-05-7.19230E-05
 -1       628 4.63773E-03-1.19250E-05-6.99424E-05
 -1       629 4.90693E-03-9.72040E-06-6.97010E-05
 -1       630 5.17547E-03 4.26710E-07-8.95170E-05
 -1       631 1.92570E-04-3.43538E-05-4.55201E-05
 -1       632 4.60719E-04-2.71261E-05-7.04514E-05
 -1       633 7.44215E-04-2.10869E-05-7.62717E-05
 -1       634 1.02614E-03-2.02477E-05-7.55261E-05
 -1       635 1.30328E-03-2.03594E-05-7.42994E-05
 -1       636 1.57865E-03-2.05958E-05-7.37411E-05
 -1       637 1.85398E-03-2.07959E-05-7.36116E-05
 -1       638 2.12989E-03-2.09626E-05-7.36479E-05
 -1       639 2.40653E-03-2.11092E-05-7.37266E-05
 -1       640 2.68390E-03-2.12480E-05-7.38089E-05
 -1       641 2.96199E-03-2.13852E-05-7.38923E-05
 -1       642 3.24081E-03-2.15256E-05-7.39814E-05
 -1       643 3.52040E-03-2.16812E-05-7.40635E-05
 -1       644 3.80074E-03-2.18676E-05-7.40616E-05
 -1       645 4.08152E-03-2.21089E-05-7.37456E-05
 -1       646 4.36158E-03-2.24227E-05-7.26049E-05
 -1       647 4.63719E-03-2.27536E-05-7.04757E-05
 -1       648 4.90417E-03-1.97714E-05-6.98018E-05
 -1       649 5.18176E-03-1.37071E-07-9.08047E-05
 -1       650 1.96272E-04 3.49106E-05-9.19547E-05
 -1       651 4.67295E-04 2.77343E-05-1.39164E-04
 -1       652 7.49114E-04 2.21648E-05-1.49439E-04
 -1       653 1.02848E-03 2.16998E-05-1.47862E-04
 -1       654 1.30446E-03 2.19610E-05-1.45653E-04
 -1       655 1.57955E-03 2.22259E-05-1.44660E-04
 -1       656 1.85486E-03 2.24227E-05-1.44438E-04
 -1       657 2.13080E-03 2.25837E-05-1.44519E-04
 -1       658 2.40746E-03 2.27269E-05-1.44675E-04
 -1       659 2.68484E-03 2.28643E-05-1.44838E-04
 -1       660 2.96293E-03 2.30005E-05-1.45002E-04
 -1       661 3.24174E-03 2.31386E-05-1.45177E-04
 -1       662 3.52129E-03 2.32880E-05-1.45340E-04
 -1       663 3.80158E-03 2.34668E-05-1.45350E-04
 -1       664 4.08240E-03 2.36972E-05-1.44781E-04
 -1       665 4.36303E-03 2.41019E-05-1.42798E-04
 -1       666 4.64091E-03 2.47132E-05-1.38636E-04
 -1       667 4.91277E-03 2.23162E-05-1.38155E-04
 -1       668 5.18270E-03 3.70997E-06-1.69056E-04
 -1       669 1.94912E-04 1.75087E-05-8.92455E-05
 -1       670 4.67315E-04 1.48204E-05-1.36063E-04
 -1       671 7.49983E-04 1.17764E-05-1.46706E-04
 -1       672 1.02846E-03 1.14581E-05-1.45470E-04
 -1       673 1.30437E-03 1.16378E-05-1.43402E-04
 -1       674 1.57949E-03 1.17607E-05-1.42442E-04
 -1       675 1.85482E-03 1.18597E-05-1.42221E-04
 -1       676 2.13076E-03 1.19396E-05-1.42297E-04
 -1       677 2.40743E-03 1.20113E-05-1.42451E-04
 -1       678 2.68481E-03 1.20800E-05-1.42612E-04
 -1       679 2.96290E-03 1.21481E-05-1.42776E-04
 -1       680 3.24170E-03 1.22173E-05-1.42948E-04
 -1       681 3.52125E-03 1.22921E-05-1.43106E-04
 -1       682 3.80152E-03 1.23804E-05-1.43110E-04
 -1       683 4.08230E-03 1.24925E-05-1.42545E-04
 -1       684 4.36285E-03 1.26844E-05-1.40639E-04
 -1       685 4.64132E-03 1.31952E-05-1.36748E-04
 -1       686 4.91530E-03 1.13088E-05-1.37020E-04
 -1       687 5.17700E-03 1.64326E-06-1.66581E-04
 -1       688 1.94657E-04 7.34420E-20-8.80320E-05
 -1       689 4.67180E-04 2.46832E-19-1.34659E-04
 -1       690 7.50224E-04 4.76197E-19-1.45414E-04
 -1       691 1.02850E-03 1.00082E-18-1.44285E-04
 -1       692 1.30433E-03 1.39707E-18-1.42264E-04
 -1       693 1.57947E-03 1.89448E-18-1.41317E-04
 -1       694 1.85480E-03 2.29540E-18-1.41096E-04
 -1       695 2.13075E-03 2.84063E-18-1.41171E-04
 -1       696 2.40742E-03 3.58754E-18-1.41324E-04
 -1       697 2.68480E-03 4.08878E-18-1.41485E-04
 -1       698 2.96289E-03 4.88374E-18-1.41648E-04
 -1       699 3.24169E-03 5.43729E-18-1.41820E-04
 -1       700 3.52124E-03 5.95978E-18-1.41976E-04
 -1       701 3.80151E-03 5.90925E-18-1.41977E-04
 -1       702 4.08227E-03 5.77693E-18-1.41415E-04
 -1       703 4.36276E-03 5.69635E-18-1.39534E-04
 -1       704 4.64164E-03 5.83649E-18-1.35745E-04
 -1       705 4.91579E-03 6.46441E-18-1.36219E-04
 -1       706 5.17463E-03 7.22217E-18-1.65319E-04
 -1       707 1.94912E-04-1.75087E-05-8.92455E-05
 -1       708 4.67315E-04-1.48204E-05-1.36063E-04
 -1       709 7.49983E-04-1.17764E-05-1.46706E-04
 -1       710 1.02846E-03-1.14581E-05-1.45470E-04
 -1       711 1.30437E-03-1.16378E-05-1.43402E-04
 -1       712 1.57949E-03-1.17607E-05-1.42442E-04
 -1       713 1.85482E-03-1.18597E-05-1.42221E-04
 -1       714 2.13076E-03-1.19396E-05-1.42297E-04
 -1       715 2.40743E-03-1.20113E-05-1.42451E-04
 -1       716 2.68481E-03-1.20800E-05-1.42612E-04
 -1       717 2.96290E-03-1.21481E-05-1.42776E-04
 -1       718 3.24170E-03-1.22173E-05-1.42948E-04
 -1       719 3.52125E-03-1.22921E-05-1.43106E-04
 -1       720 3.80152E-03-1.23804E-05-1.43110E-04
 -1       721 4.08230E-03-1.24925E-05-1.42545E-04
 -1       722 4.36285E-03-1.26844E-05-1.40639E-04
 -1       723 4.64132E-03-1.31952E-05-1.36748E-04
 -1       724 4.91530E-03-1.13088E-05-1.37020E-04
 -1       725 5.17700E-03-1.64326E-06-1.66581E-04
 -1       726 1.96272E-04-3.49106E-05-9.19547E-05
 -1       727 4.67295E-04-2.77343E-05-1.39164E-04
 -1       728 7.49114E-04-2.21648E-05-1.49439E-04
 -1       729 1.02848E-03-2.16998E-05-1.47862E-04
 -1       730 1.30446E-03-2.19610E-05-1.45653E-04
 -1       731 1.57955E-03-2.22259E-05-1.44660E-04
 -1       732 1.85486E-03-2.24227E-05-1.44438E-04
 -1       733 2.13080E-03-2.25837E-05-1.44519E-04
 -1       734 2.40746E-03-2.27269E-05-1.44675E-04
 -1       735 2.68484E-03-2.28643E-05-1.44838E-04
 -1       736 2.96293E-03-2.30005E-05-1.45002E-04
 -1       737 3.24174E-03-2.31386E-05-1.45177E-04
 -1       738 3.52129E-03-2.32880E-05-1.45340E-04
 -1       739 3.80158E-03-2.34668E-05-1.45350E-04
 -1       740 4.08240E-03-2.36972E-05-1.44781E-04
 -1       741 4.36303E-03-2.41019E-05-1.42798E-04
 -1       742 4.64091E-03-2.47132E-05-1.38636E-04
 -1       743 4.91277E-03-2.23162E-05-1.38155E-04
 -1       744 5.18270E-03-3.70997E-06-1.69056E-04
 -1       745 2.03096E-04 3.56164E-05-1.42529E-04
 -1       746 4.78121E-04 2.83438E-05-2.09743E-04
 -1       747 7.55870E-04 2.36657E-05-2.22449E-04
 -1       748 1.03106E-03 2.38525E-05-2.20076E-04
 -1       749 1.30549E-03 2.43358E-05-2.17240E-04
 -1       750 1.58023E-03 2.46374E-05-2.15954E-04
 -1       751 1.85553E-03 2.48293E-05-2.15686E-04
 -1       752 2.13152E-03 2.49812E-05-2.15820E-04
 -1       753 2.40821E-03 2.51196E-05-2.16051E-04
 -1       754 2.68561E-03 2.52554E-05-2.16291E-04
 -1       755 2.96369E-03 2.53906E-05-2.16534E-04
 -1       756 3.24248E-03 2.55255E-05-2.16789E-04
 -1       757 3.52197E-03 2.56659E-05-2.17031E-04
 -1       758 3.80217E-03 2.58297E-05-2.17069E-04
 -1       759 4.08304E-03 2.60511E-05-2.16341E-04
 -1       760 4.36432E-03 2.65470E-05-2.13769E-04
 -1       761 4.64578E-03 2.76379E-05-2.08472E-04
 -1       762 4.92388E-03 2.63552E-05-2.06423E-04
 -1       763 5.19252E-03 8.72940E-06-2.42197E-04
 -1       764 2.02182E-04 1.82362E-05-1.36559E-04
 -1       765 4.78140E-04 1.54740E-05-2.02997E-04
 -1       766 7.56563E-04 1.28932E-05-2.16296E-04
 -1       767 1.03095E-03 1.29166E-05-2.14416E-04
 -1       768 1.30538E-03 1.32036E-05-2.11775E-04
 -1       769 1.58017E-03 1.33453E-05-2.10534E-04
 -1       770 1.85549E-03 1.34412E-05-2.10265E-04
 -1       771 2.13149E-03 1.35165E-05-2.10392E-04
 -1       772 2.40818E-03 1.35857E-05-2.10620E-04
 -1       773 2.68557E-03 1.36536E-05-2.10858E-04
 -1       774 2.96366E-03 1.37213E-05-2.11100E-04
 -1       775 3.24244E-03 1.37888E-05-2.11353E-04
 -1       776 3.52193E-03 1.38591E-05-2.11587E-04
 -1       777 3.80212E-03 1.39392E-05-2.11614E-04
 -1       778 4.08293E-03 1.40481E-05-2.10888E-04
 -1       779 4.36410E-03 1.42804E-05-2.08421E-04
 -1       780 4.64595E-03 1.50283E-05-2.03509E-04
 -1       781 4.92624E-03 1.37849E-05-2.02481E-04
 -1       782 5.18783E-03 4.41213E-06-2.37375E-04
 -1       783 2.02089E-04 3.76960E-20-1.34082E-04
 -1       784 4.78019E-04 1.95379E-19-2.00159E-04
 -1       785 7.56753E-04 4.10665E-19-2.13639E-04
 -1       786 1.03096E-03 9.39502E-19-2.11909E-04
 -1       787 1.30533E-03 1.34118E-18-2.09335E-04
 -1       788 1.58015E-03 1.82726E-18-2.08111E-04
 -1       789 1.85547E-03 2.22163E-18-2.07842E-04
 -1       790 2.13147E-03 2.77574E-18-2.07967E-04
 -1       791 2.40817E-03 3.51022E-18-2.08194E-04
 -1       792 2.68556E-03 4.02727E-18-2.08432E-04
 -1       793 2.96365E-03 4.80959E-18-2.08672E-04
 -1       794 3.24243E-03 5.38464E-18-2.08924E-04
 -1       795 3.52192E-03 5.87506E-18-2.09157E-04
 -1       796 3.80211E-03 5.83802E-18-2.09180E-04
 -1       797 4.08289E-03 5.64146E-18-2.08456E-04
 -1       798 4.36399E-03 5.60787E-18-2.06028E-04
 -1       799 4.64620E-03 5.73166E-18-2.01240E-04
 -1       800 4.92672E-03 6.37785E-18-2.00549E-04
 -1       801 5.18574E-03 7.10575E-18-2.34982E-04
 -1       802 2.02182E-04-1.82362E-05-1.36559E-04
 -1       803 4.78140E-04-1.54740E-05-2.02997E-04
 -1       804 7.56563E-04-1.28932E-05-2.16296E-04
 -1       805 1.03095E-03-1.29166E-05-2.14416E-04
 -1       806 1.30538E-03-1.32036E-05-2.11775E-04
 -1       807 1.58017E-03-1.33453E-05-2.10534E-04
 -1       808 1.85549E-03-1.34412E-05-2.10265E-04
 -1       809 2.13149E-03-1.35165E-05-2.10392E-04
 -1       810 2.40818E-03-1.35857E-05-2.10620E-04
 -1       811 2.68557E-03-1.36536E-05-2.10858E-04
 -1       812 2.96366E-03-1.37213E-05-2.11100E-04
 -1       813 3.24244E-03-1.37888E-05-2.11353E-04
 -1       814 3.52193E-03-1.38591E-05-2.11587E-04
 -1       815 3.80212E-03-1.39392E-05-2.11614E-04
 -1       816 4.08293E-03-1.40481E-05-2.10888E-04
 -1       817 4.36410E-03-1.42804E-05-2.08421E-04
 -1       818 4.64595E-03-1.50283E-05-2.03509E-04
 -1       819 4.92624E-03-1.37849E-05-2.02481E-04
 -1       820 5.18783E-03-4.41213E-06-2.37375E-04
 -1       821 2.03096E-04-3.56164E-05-1.42529E-04
 -1       822 4.78121E-04-2.83438E-05-2.09743E-04
 -1       823 7.55870E-04-2.36657E-05-2.22449E-04
 -1       824 1.03106E-03-2.38525E-05-2.20076E-04
 -1       825 1.30549E-03-2.43358E-05-2.17240E-04
 -1       826 1.58023E-03-2.46374E-05-2.15954E-04
 -1       827 1.85553E-03-2.48293E-05-2.15686E-04
 -1       828 2.13152E-03-2.49812E-05-2.15820E-04
 -1       829 2.40821E-03-2.51196E-05-2.16051E-04
 -1       830 2.68561E-03-2.52554E-05-2.16291E-04
 -1       831 2.96369E-03-2.53906E-05-2.16534E-04
 -1       832 3.24248E-03-2.55255E-05-2.16789E-04
 -1       833 3.52197E-03-2.56659E-05-2.17031E-04
 -1       834 3.80217E-03-2.58297E-05-2.17069E-04
 -1       835 4.08304E-03-2.60511E-05-2.16341E-04
 -1       836 4.36432E-03-2.65470E-05-2.13769E-04
 -1       837 4.64578E-03-2.76379E-05-2.08472E-04
 -1       838 4.92388E-03-2.63552E-05-2.06423E-04
 -1       839 5.19252E-03-8.72940E-06-2.42197E-04
 -1       840 2.15821E-04 3.53124E-05-1.99678E-04
 -1       841 4.94106E-04 2.73449E-05-2.82011E-04
 -1       842 7.63144E-04 2.41876E-05-2.94603E-04
 -1       843 1.03326E-03 2.52986E-05-2.91968E-04
 -1       844 1.30626E-03 2.60255E-05-2.88914E-04
 -1       845 1.58066E-03 2.63697E-05-2.87494E-04
 -1       846 1.85600E-03 2.65512E-05-2.87241E-04
 -1       847 2.13206E-03 2.66905E-05-2.87433E-04
 -1       848 2.40879E-03 2.68229E-05-2.87737E-04
 -1       849 2.68619E-03 2.69569E-05-2.88050E-04
 -1       850 2.96428E-03 2.70911E-05-2.88366E-04
 -1       851 3.24304E-03 2.72223E-05-2.88698E-04
 -1       852 3.52246E-03 2.73511E-05-2.89011E-04
 -1       853 3.80254E-03 2.74924E-05-2.89098E-04
 -1       854 4.08339E-03 2.77042E-05-2.88308E-04
 -1       855 4.36529E-03 2.82713E-05-2.85465E-04
 -1       856 4.64984E-03 2.99335E-05-2.80001E-04
 -1       857 4.93744E-03 3.06070E-05-2.75705E-04
 -1       858 5.21600E-03 1.35184E-05-3.10845E-04
 -1       859 2.15700E-04 1.79465E-05-1.88092E-04
 -1       860 4.94066E-04 1.47341E-05-2.69269E-04
 -1       861 7.63627E-04 1.29678E-05-2.82757E-04
 -1       862 1.03305E-03 1.34502E-05-2.80716E-04
 -1       863 1.30611E-03 1.38638E-05-2.77905E-04
 -1       864 1.58059E-03 1.40264E-05-2.76530E-04
 -1       865 1.85596E-03 1.41169E-05-2.76274E-04
 -1       866 2.13202E-03 1.41858E-05-2.76457E-04
 -1       867 2.40875E-03 1.42520E-05-2.76757E-04
 -1       868 2.68616E-03 1.43190E-05-2.77068E-04
 -1       869 2.96424E-03 1.43861E-05-2.77383E-04
 -1       870 3.24300E-03 1.44517E-05-2.77711E-04
 -1       871 3.52243E-03 1.45162E-05-2.78016E-04
 -1       872 3.80250E-03 1.45845E-05-2.78089E-04
 -1       873 4.08327E-03 1.46896E-05-2.77292E-04
 -1       874 4.36501E-03 1.49523E-05-2.74580E-04
 -1       875 4.64976E-03 1.60020E-05-2.69541E-04
 -1       876 4.93968E-03 1.57904E-05-2.66647E-04
 -1       877 5.21190E-03 6.36947E-06-3.01741E-04
 -1       878 2.15750E-04 1.63234E-20-1.84109E-04
 -1       879 4.93972E-04 1.35223E-19-2.64749E-04
 -1       880 7.63764E-04 3.54827E-19-2.78470E-04
 -1       881 1.03303E-03 8.61365E-19-2.76625E-04
 -1       882 1.30605E-03 1.29760E-18-2.73895E-04
 -1       883 1.58057E-03 1.76114E-18-2.72538E-04
 -1       884 1.85595E-03 2.18099E-18-2.72281E-04
 -1       885 2.13201E-03 2.75198E-18-2.72462E-04
 -1       886 2.40874E-03 3.50809E-18-2.72760E-04
 -1       887 2.68615E-03 3.92384E-18-2.73071E-04
 -1       888 2.96423E-03 4.78554E-18-2.73385E-04
 -1       889 3.24299E-03 5.27574E-18-2.73712E-04
 -1       890 3.52242E-03 5.86195E-18-2.74014E-04
 -1       891 3.80248E-03 5.74579E-18-2.74082E-04
 -1       892 4.08323E-03 5.56566E-18-2.73285E-04
 -1       893 4.36488E-03 5.47977E-18-2.70620E-04
 -1       894 4.64993E-03 5.68706E-18-2.65723E-04
 -1       895 4.94022E-03 6.25797E-18-2.63308E-04
 -1       896 5.20982E-03 7.00821E-18-2.98017E-04
 -1       897 2.15700E-04-1.79465E-05-1.88092E-04
 -1       898 4.94066E-04-1.47341E-05-2.69269E-04
 -1       899 7.63627E-04-1.29678E-05-2.82757E-04
 -1       900 1.03305E-03-1.34502E-05-2.80716E-04
 -1       901 1.30611E-03-1.38638E-05-2.77905E-04
 -1       902 1.58059E-03-1.40264E-05-2.76530E-04
 -1       903 1.85596E-03-1.41169E-05-2.76274E-04
 -1       904 2.13202E-03-1.41858E-05-2.76457E-04
 -1       905 2.40875E-03-1.42520E-05-2.76757E-04
 -1       906 2.68616E-03-1.43190E-05-2.77068E-04
 -1       907 2.96424E-03-1.43861E-05-2.77383E-04
 -1       908 3.24300E-03-1.44517E-05-2.77711E-04
 -1       909 3.52243E-03-1.45162E-05-2.78016E-04
 -1       910 3.80250E-03-1.45845E-05-2.78089E-04
 -1       911 4.08327E-03-1.46896E-05-2.77292E-04
 -1       912 4.36501E-03-1.49523E-05-2.74580E-04
 -1       913 4.64976E-03-1.60020E-05-2.69541E-04
 -1       914 4.93968E-03-1.57904E-05-2.66647E-04
 -1       915 5.21190E-03-6.36947E-06-3.01741E-04
 -1       916 2.15821E-04-3.53124E-05-1.99678E-04
 -1       917 4.94106E-04-2.73449E-05-2.82011E-04
 -1       918 7.63144E-04-2.41876E-05-2.94603E-04
 -1       919 1.03326E-03-2.52986E-05-2.91968E-04
 -1       920 1.30626E-03-2.60255E-05-2.88914E-04
 -1       921 1.58066E-03-2.63697E-05-2.87494E-04
 -1       922 1.85600E-03-2.65512E-05-2.87241E-04
 -1       923 2.13206E-03-2.66905E-05-2.87433E-04
 -1       924 2.40879E-03-2.68229E-05-2.87737E-04
 -1       925 2.68619E-03-2.69569E-05-2.88050E-04
 -1       926 2.96428E-03-2.70911E-05-2.88366E-04
 -1       927 3.24304E-03-2.72223E-05-2.88698E-04
 -1       928 3.52246E-03-2.73511E-05-2.89011E-04
 -1       929 3.80254E-03-2.74924E-05-2.89098E-04
 -1       930 4.08339E-03-2.77042E-05-2.88308E-04
 -1       931 4.36529E-03-2.82713E-05-2.85465E-04
 -1       932 4.64984E-03-2.99335E-05-2.80001E-04
 -1       933 4.93744E-03-3.06070E-05-2.75705E-04
 -1       934 5.21600E-03-1.35184E-05-3.10845E-04
 -1       935 2.42650E-04 2.90971E-05-2.64541E-04
 -1       936 5.14676E-04 1.91074E-05-3.52081E-04
 -1       937 7.68205E-04 1.86152E-05-3.63290E-04
 -1       938 1.03480E-03 2.06649E-05-3.61603E-04
 -1       939 1.30650E-03 2.16744E-05-3.58514E-04
 -1       940 1.58083E-03 2.20552E-05-3.57170E-04
 -1       941 1.85629E-03 2.22204E-05-3.56963E-04
 -1       942 2.13243E-03 2.23438E-05-3.57218E-04
 -1       943 2.40919E-03 2.24695E-05-3.57590E-04
 -1       944 2.68660E-03 2.26016E-05-3.57973E-04
 -1       945 2.96469E-03 2.27348E-05-3.58359E-04
 -1       946 3.24343E-03 2.28620E-05-3.58760E-04
 -1       947 3.52279E-03 2.29770E-05-3.59140E-04
 -1       948 3.80272E-03 2.30910E-05-3.59276E-04
 -1       949 4.08336E-03 2.32769E-05-3.58543E-04
 -1       950 4.36570E-03 2.39495E-05-3.55653E-04
 -1       951 4.65180E-03 2.59952E-05-3.50707E-04
 -1       952 4.94912E-03 3.00183E-05-3.46211E-04
 -1       953 5.25594E-03 1.17658E-05-3.74487E-04
 -1       954 2.42607E-04 1.21710E-05-2.47117E-04
 -1       955 5.14644E-04 8.39202E-06-3.33360E-04
 -1       956 7.68584E-04 7.71311E-06-3.45689E-04
 -1       957 1.03453E-03 8.73481E-06-3.44695E-04
 -1       958 1.30634E-03 9.28543E-06-3.41870E-04
 -1       959 1.58076E-03 9.47005E-06-3.40566E-04
 -1       960 1.85625E-03 9.55237E-06-3.40351E-04
 -1       961 2.13239E-03 9.61342E-06-3.40597E-04
 -1       962 2.40916E-03 9.67606E-06-3.40963E-04
 -1       963 2.68657E-03 9.74206E-06-3.41344E-04
 -1       964 2.96465E-03 9.80868E-06-3.41730E-04
 -1       965 3.24340E-03 9.87212E-06-3.42127E-04
 -1       966 3.52275E-03 9.92970E-06-3.42497E-04
 -1       967 3.80267E-03 9.98385E-06-3.42618E-04
 -1       968 4.08324E-03 1.00807E-05-3.41860E-04
 -1       969 4.36537E-03 1.03777E-05-3.39118E-04
 -1       970 4.65154E-03 1.17178E-05-3.34595E-04
 -1       971 4.95170E-03 1.30350E-05-3.31880E-04
 -1       972 5.25128E-03 3.05459E-06-3.61278E-04
 -1       973 2.42482E-04-1.80270E-20-2.43839E-04
 -1       974 5.14557E-04 7.20286E-20-3.28917E-04
 -1       975 7.68757E-04 2.97853E-19-3.41661E-04
 -1       976 1.03449E-03 8.29734E-19-3.40861E-04
 -1       977 1.30627E-03 1.22941E-18-3.38132E-04
 -1       978 1.58073E-03 1.71259E-18-3.36844E-04
 -1       979 1.85623E-03 2.13601E-18-3.36628E-04
 -1       980 2.13238E-03 2.71564E-18-3.36870E-04
 -1       981 2.40915E-03 3.44728E-18-3.37235E-04
 -1       982 2.68656E-03 3.87025E-18-3.37615E-04
 -1       983 2.96464E-03 4.76116E-18-3.38000E-04
 -1       984 3.24339E-03 5.22964E-18-3.38396E-04
 -1       985 3.52274E-03 5.84890E-18-3.38763E-04
 -1       986 3.80266E-03 5.62587E-18-3.38879E-04
 -1       987 4.08321E-03 5.50682E-18-3.38117E-04
 -1       988 4.36520E-03 5.35313E-18-3.35427E-04
 -1       989 4.65172E-03 5.63240E-18-3.31042E-04
 -1       990 4.95245E-03 6.14310E-18-3.29035E-04
 -1       991 5.24853E-03 6.87739E-18-3.57544E-04
 -1       992 2.42607E-04-1.21710E-05-2.47117E-04
 -1       993 5.14644E-04-8.39202E-06-3.33360E-04
 -1       994 7.68584E-04-7.71311E-06-3.45689E-04
 -1       995 1.03453E-03-8.73481E-06-3.44695E-04
 -1       996 1.30634E-03-9.28543E-06-3.41870E-04
 -1       997 1.58076E-03-9.47005E-06-3.40566E-04
 -1       998 1.85625E-03-9.55237E-06-3.40351E-04
 -1       999 2.13239E-03-9.61342E-06-3.40597E-04
 -1      1000 2.40916E-03-9.67606E-06-3.40963E-04
 -1      1001 2.68657E-03-9.74206E-06-3.41344E-04
 -1      1002 2.96465E-03-9.80868E-06-3.41730E-04
 -1      1003 3.24340E-03-9.87212E-06-3.42127E-04
 -1      1004 3.52275E-03-9.92970E-06-3.42497E-04
 -1      1005 3.80267E-03-9.98385E-06-3.42618E-04
 -1      1006 4.08324E-03-1.00807E-05-3.41860E-04
 -1      1007 4.36537E-03-1.03777E-05-3.39118E-04
 -1      1008 4.65154E-03-1.17178E-05-3.34595E-04
 -1      1009 4.95170E-03-1.30350E-05-3.31880E-04
 -1      1010 5.25128E-03-3.05459E-06-3.61278E-04
 -1      1011 2.42650E-04-2.90971E-05-2.64541E-04
 -1      1012 5.14676E-04-1.91074E-05-3.52081E-04
 -1      1013 7.68205E-04-1.86152E-05-3.63290E-04
 -1      1014 1.03480E-03-2.06649E-05-3.61603E-04
 -1      1015 1.30650E-03-2.16744E-05-3.58514E-04
 -1      1016 1.58083E-03-2.20552E-05-3.57170E-04
 -1      1017 1.85629E-03-2.22204E-05-3.56963E-04
 -1      1018 2.13243E-03-2.23438E-05-3.57218E-04
 -1      1019 2.40919E-03-2.24695E-05-3.57590E-04
 -1      1020 2.68660E-03-2.26016E-05-3.57973E-04
 -1      1021 2.96469E-03-2.27348E-05-3.58359E-04
 -1      1022 3.24343E-03-2.28620E-05-3.58760E-04
 -1      1023 3.52279E-03-2.29770E-05-3.59140E-04
 -1      1024 3.80272E-03-2.30910E-05-3.59276E-04
 -1      1025 4.08336E-03-2.32769E-05-3.58543E-04
 -1      1026 4.36570E-03-2.39495E-05-3.55653E-04
 -1      1027 4.65180E-03-2.59952E-05-3.50707E-04
 -1      1028 4.94912E-03-3.00183E-05-3.46211E-04
 -1      1029 5.25594E-03-1.17658E-05-3.74487E-04
 -1      1030 0.00000E+00 0.00000E+00 0.00000E+00
 -1      1031 0.00000E+00 0.00000E+00 0.00000E+00
 -1      1032 0.00000E+00 0.00000E+00 0.00000E+00
 -1      1033 0.00000E+00 0.00000E+00 0.00000E+00
 -1      1034 0.00000E+00 0.00000E+00 0.00000E+00
 -1      1035 0.00000E+00 0.00000E+00 0.00000E+00
 -1      1036 0.00000E+00 0.00000E+00 0.00000E+00
 -1      1037 0.00000E+00 0.00000E+00 0.00000E+00
 -1      1038 0.00000E+00 0.00000E+00 0.00000E+00
 -1      1039 0.00000E+00 0.00000E+00 0.00000E+00
 -1      1040 0.00000E+00 0.00000E+00 0.00000E+00
 -1      1041 0.00000E+00 0.00000E+00 0.00000E+00
 -1      1042 0.00000E+00 0.00000E+00 0.00000E+00
 -1      1043 0.00000E+00 0.00000E+00 0.00000E+00
 -1      1044 0.00000E+00 0.00000E+00 0.00000E+00
 -1      1045 0.00000E+00 0.00000E+00 0.00000E+00
 -1      1046 0.00000E+00 0.00000E+00 0.00000E+00
 -1      1047 0.00000E+00 0.00000E+00 0.00000E+00
 -1      1048 0.00000E+00 0.00000E+00 0.00000E+00
 -1      1049 0.00000E+00 0.00000E+00 0.00000E+00
 -1      1050 0.00000E+00 0.00000E+00 0.00000E+00
 -1      1051 0.00000E+00 0.00000E+00 0.00000E+00
 -1      1052 0.00000E+00 0.00000E+00 0.00000E+00
 -1      1053 0.00000E+00 0.00000E+00 0.00000E+00
 -1      1054 0.00000E+00 0.00000E+00 0.00000E+00
 -1      1055 0.00000E+00 0.00000E+00 0.00000E+00
 -1      1056-1.09841E-08-8.78220E-09-7.94580E-09
 -1      1057 1.70693E-09-4.18361E-10-8.85319E-10
 -1      1058-1.08058E-08-7.18132E-09-5.65387E-09
 -1      1059 1.71724E-09-1.24754E-10-8.51584E-10
 -1      1060-1.18013E-08-6.71454E-09-6.37403E-09
 -1      1061 1.63849E-09 1.53892E-11-8.35165E-10
 -1      1062-1.33703E-08-5.92456E-09-7.46920E-09
 -1      1063 1.54089E-09 6.87379E-11-8.04137E-10
 -1      1064-1.49643E-08-4.46577E-09-8.55080E-09
 -1      1065 1.45299E-09 7.11329E-11-7.75934E-10
 -1      1066-1.61186E-08-2.40487E-09-9.31062E-09
 -1      1067 1.39305E-09 4.29124E-11-7.56041E-10
 -1      1068-1.65368E-08-1.00331E-20-9.58234E-09
 -1      1069 1.37186E-09-3.57729E-22-7.48903E-10
 -1      1070-1.61186E-08 2.40487E-09-9.31062E-09
 -1      1071 1.39305E-09-4.29124E-11-7.56041E-10
 -1      1072-1.49643E-08 4.46577E-09-8.55080E-09
 -1      1073 1.45299E-09-7.11329E-11-7.75934E-10
 -1      1074-1.33703E-08 5.92456E-09-7.46920E-09
 -1      1075 1.54089E-09-6.87379E-11-8.04137E-10
 -1      1076-1.18013E-08 6.71454E-09-6.37403E-09
 -1      1077 1.63849E-09-1.53892E-11-8.35165E-10
 -1      1078-1.08058E-08 7.18132E-09-5.65387E-09
 -1      1079 1.71724E-09 1.24754E-10-8.51584E-10
 -1      1080-1.09841E-08 8.78220E-09-7.94580E-09
 -1      1081 1.70693E-09 4.18361E-10-8.85319E-10
 -1      1082-1.71096E-08-1.17786E-08-9.59666E-09
 -1      1083 3.35955E-09-1.92978E-10-1.25742E-09
 -1      1084-1.70302E-08-1.16280E-08-9.02781E-09
 -1      1085 3.28716E-09-4.20199E-11-1.33615E-09
 -1      1086-1.85955E-08-1.08112E-08-1.03583E-08
 -1      1087 3.13827E-09 8.36762E-11-1.29297E-09
 -1      1088-2.10522E-08-9.38285E-09-1.25911E-08
 -1      1089 2.96820E-09 1.35898E-10-1.24346E-09
 -1      1090-2.35272E-08-6.99674E-09-1.47333E-08
 -1      1091 2.81658E-09 1.26489E-10-1.19782E-09
 -1      1092-2.53095E-08-3.74462E-09-1.62316E-08
 -1      1093 2.71326E-09 7.42307E-11-1.16605E-09
 -1      1094-2.59523E-08-1.84078E-20-1.67634E-08
 -1      1095 2.67672E-09-1.05056E-21-1.15456E-09
 -1      1096-2.53095E-08 3.74462E-09-1.62316E-08
 -1      1097 2.71326E-09-7.42307E-11-1.16605E-09
 -1      1098-2.35272E-08 6.99674E-09-1.47333E-08
 -1      1099 2.81658E-09-1.26489E-10-1.19782E-09
 -1      1100-2.10522E-08 9.38285E-09-1.25911E-08
 -1      1101 2.96820E-09-1.35898E-10-1.24346E-09
 -1      1102-1.85955E-08 1.08112E-08-1.03583E-08
 -1      1103 3.13827E-09-8.36762E-11-1.29297E-09
 -1      1104-1.70302E-08 1.16280E-08-9.02781E-09
 -1      1105 3.28716E-09 4.20199E-11-1.33615E-09
 -1      1106-1.71096E-08 1.17786E-08-9.59666E-09
 -1      1107 3.35955E-09 1.92978E-10-1.25742E-09
 -1      1108-1.98225E-08-1.18375E-08-8.08216E-09
 -1      1109 4.88252E-09 6.47977E-11-1.35632E-09
 -1      1110-1.95935E-08-1.22402E-08-9.86492E-09
 -1      1111 4.72290E-09 1.47868E-10-1.47598E-09
 -1      1112-2.14550E-08-1.17527E-08-1.25464E-08
 -1      1113 4.52069E-09 2.04755E-10-1.46486E-09
 -1      1114-2.43548E-08-1.02240E-08-1.58280E-08
 -1      1115 4.30948E-09 2.21617E-10-1.41914E-09
 -1      1116-2.72715E-08-7.59361E-09-1.89058E-08
 -1      1117 4.12575E-09 1.85187E-10-1.37260E-09
 -1      1118-2.93321E-08-4.04222E-09-2.10086E-08
 -1      1119 4.00060E-09 1.04762E-10-1.33791E-09
 -1      1120-3.00620E-08-2.46431E-20-2.17435E-08
 -1      1121 3.95594E-09-1.89544E-21-1.32510E-09
 -1      1122-2.93321E-08 4.04222E-09-2.10086E-08
 -1      1123 4.00060E-09-1.04762E-10-1.33791E-09
 -1      1124-2.72715E-08 7.59361E-09-1.89058E-08
 -1      1125 4.12575E-09-1.85187E-10-1.37260E-09
 -1      1126-2.43548E-08 1.02240E-08-1.58280E-08
 -1      1127 4.30948E-09-2.21617E-10-1.41914E-09
 -1      1128-2.14550E-08 1.17527E-08-1.25464E-08
 -1      1129 4.52069E-09-2.04755E-10-1.46486E-09
 -1      1130-1.95935E-08 1.22402E-08-9.86492E-09
 -1      1131 4.72290E-09-1.47868E-10-1.47598E-09
 -1      1132-1.98225E-08 1.18375E-08-8.08216E-09
 -1      1133 4.88252E-09-6.47977E-11-1.35632E-09
 -1      1134-1.92069E-08-8.96945E-09-5.60013E-09
 -1      1135 6.19873E-09 2.84141E-10-1.34496E-09
 -1      1136-1.89373E-08-9.54247E-09-9.42042E-09
 -1      1137 5.99446E-09 3.20192E-10-1.46140E-09
 -1      1138-2.05776E-08-9.38758E-09-1.33321E-08
 -1      1139 5.76011E-09 3.29734E-10-1.47619E-09
 -1      1140-2.33274E-08-8.28090E-09-1.75319E-08
 -1      1141 5.53013E-09 3.05444E-10-1.44159E-09
 -1      1142-2.60981E-08-6.13405E-09-2.12859E-08
 -1      1143 5.33602E-09 2.37813E-10-1.39340E-09
 -1      1144-2.79369E-08-3.23075E-09-2.37390E-08
 -1      1145 5.20387E-09 1.31040E-10-1.35469E-09
 -1      1146-2.85486E-08-2.87649E-20-2.45691E-08
 -1      1147 5.15715E-09-2.76495E-21-1.34102E-09
 -1      1148-2.79369E-08 3.23075E-09-2.37390E-08
 -1      1149 5.20387E-09-1.31040E-10-1.35469E-09
 -1      1150-2.60981E-08 6.13405E-09-2.12859E-08
 -1      1151 5.33602E-09-2.37813E-10-1.39340E-09
 -1      1152-2.33274E-08 8.28090E-09-1.75319E-08
 -1      1153 5.53013E-09-3.05444E-10-1.44159E-09
 -1      1154-2.05776E-08 9.38758E-09-1.33321E-08
 -1      1155 5.76011E-09-3.29734E-10-1.47619E-09
 -1      1156-1.89373E-08 9.54247E-09-9.42042E-09
 -1      1157 5.99446E-09-3.20192E-10-1.46140E-09
 -1      1158-1.92069E-08 8.96945E-09-5.60013E-09
 -1      1159 6.19873E-09-2.84141E-10-1.34496E-09
 -1      1160-1.62422E-08-3.92776E-09-3.79315E-09
 -1      1161 7.34908E-09 4.33296E-10-1.31785E-09
 -1      1162-1.59321E-08-4.25093E-09-8.79740E-09
 -1      1163 7.13041E-09 4.45644E-10-1.41213E-09
 -1      1164-1.63940E-08-4.26719E-09-1.34040E-08
 -1      1165 6.86406E-09 4.14186E-10-1.42415E-09
 -1      1166-1.79098E-08-3.81153E-09-1.80804E-08
 -1      1167 6.55356E-09 3.41954E-10-1.36860E-09
 -1      1168-1.95125E-08-2.77233E-09-2.21047E-08
 -1      1169 6.27664E-09 2.57553E-10-1.28915E-09
 -1      1170-2.02770E-08-1.41064E-09-2.45915E-08
 -1      1171 6.11614E-09 1.44919E-10-1.22611E-09
 -1      1172-2.05035E-08-3.19690E-20-2.53955E-08
 -1      1173 6.05887E-09-3.51079E-21-1.20407E-09
 -1      1174-2.02770E-08 1.41064E-09-2.45915E-08
 -1      1175 6.11614E-09-1.44919E-10-1.22611E-09
 -1      1176-1.95125E-08 2.77233E-09-2.21047E-08
 -1      1177 6.27664E-09-2.57553E-10-1.28915E-09
 -1      1178-1.79098E-08 3.81153E-09-1.80804E-08
 -1      1179 6.55356E-09-3.41954E-10-1.36860E-09
 -1      1180-1.63940E-08 4.26719E-09-1.34040E-08
 -1      1181 6.86406E-09-4.14186E-10-1.42415E-09
 -1      1182-1.59321E-08 4.25093E-09-8.79740E-09
 -1      1183 7.13041E-09-4.45644E-10-1.41213E-09
 -1      1184-1.62422E-08 3.92776E-09-3.79315E-09
 -1      1185 7.34908E-09-4.33296E-10-1.31785E-09
 -1      1186-1.32369E-08 1.82590E-09-3.24535E-09
 -1      1187 8.42115E-09 5.30030E-10-1.29486E-09
 -1      1188-1.23969E-08 1.68811E-09-8.62682E-09
 -1      1189 8.18777E-09 5.21201E-10-1.37602E-09
 -1      1190-1.06377E-08 1.69270E-09-1.35298E-08
 -1      1191 7.86747E-09 4.66467E-10-1.36154E-09
 -1      1192-8.80552E-09 1.64289E-09-1.83172E-08
 -1      1193 7.56918E-09 3.76619E-10-1.36798E-09
 -1      1194-7.34582E-09 1.27226E-09-2.23135E-08
 -1      1195 7.31789E-09 2.63286E-10-1.36232E-09
 -1      1196-6.53353E-09 6.58066E-10-2.47582E-08
 -1      1197 7.12054E-09 1.35361E-10-1.28068E-09
 -1      1198-6.29331E-09-3.50780E-20-2.55289E-08
 -1      1199 7.04551E-09-3.97968E-21-1.25551E-09
 -1      1200-6.53353E-09-6.58066E-10-2.47582E-08
 -1      1201 7.12054E-09-1.35361E-10-1.28068E-09
 -1      1202-7.34582E-09-1.27226E-09-2.23135E-08
 -1      1203 7.31789E-09-2.63286E-10-1.36232E-09
 -1      1204-8.80552E-09-1.64289E-09-1.83172E-08
 -1      1205 7.56918E-09-3.76619E-10-1.36798E-09
 -1      1206-1.06377E-08-1.69270E-09-1.35298E-08
 -1      1207 7.86747E-09-4.66467E-10-1.36154E-09
 -1      1208-1.23969E-08-1.68811E-09-8.62682E-09
 -1      1209 8.18777E-09-5.21201E-10-1.37602E-09
 -1      1210-1.32369E-08-1.82590E-09-3.24535E-09
 -1      1211 8.42115E-09-5.30030E-10-1.29486E-09
 -1      1212 0.00000E+00 0.00000E+00 0.00000E+00
 -1      1213 0.00000E+00 0.00000E+00 0.00000E+00
 -1      1214 0.00000E+00 0.00000E+00 0.00000E+00
 -1      1215 0.00000E+00 0.00000E+00 0.00000E+00
 -1      1216 0.00000E+00 0.00000E+00 0.00000E+00
 -1      1217 0.00000E+00 0.00000E+00 0.00000E+00
 -1      1218 0.00000E+00 0.00000E+00 0.00000E+00
 -1      1219 0.00000E+00 0.00000E+00 0.00000E+00
 -1      1220 0.00000E+00 0.00000E+00 0.00000E+00
 -1      1221 0.00000E+00 0.00000E+00 0.00000E+00
 -1      1222 0.00000E+00 0.00000E+00 0.00000E+00
 -1      1223 0.00000E+00 0.00000E+00 0.00000E+00
 -1      1224 0.00000E+00 0.00000E+00 0.00000E+00
 -1      1225 0.00000E+00 0.00000E+00 0.00000E+00
 -1      1226 0.00000E+00 0.00000E+00 0.00000E+00
 -1      1227 0.00000E+00 0.00000E+00 0.00000E+00
 -1      1228 0.00000E+00 0.00000E+00 0.00000E+00
 -1      1229 0.00000E+00 0.00000E+00 0.00000E+00
 -1      1230 0.00000E+00 0.00000E+00 0.00000E+00
 -1      1231 0.00000E+00 0.00000E+00 0.00000E+00
 -1      1232 0.00000E+00 0.00000E+00 0.00000E+00
 -1      1233 0.00000E+00 0.00000E+00 0.00000E+00
 -1      1234 0.00000E+00 0.00000E+00 0.00000E+00
 -1      1235 0.00000E+00 0.00000E+00 0.00000E+00
 -1      1236 0.00000E+00 0.00000E+00 0.00000E+00
 -1      1237 0.00000E+00 0.00000E+00 0.00000E+00
 -1      1238 0.00000E+00 0.00000E+00 0.00000E+00
 -1      1239 0.00000E+00 0.00000E+00 0.00000E+00
 -1      1240 0.00000E+00 0.00000E+00 0.00000E+00
 -1      1241 0.00000E+00 0.00000E+00 0.00000E+00
 -1      1242 0.00000E+00 0.00000E+00 0.00000E+00
 -1      1243 0.00000E+00 0.00000E+00 0.00000E+00
 -1      1244 0.00000E+00 0.00000E+00 0.00000E+00
 -1      1245 0.00000E+00 0.00000E+00 0.00000E+00
 -1      1246 0.00000E+00 0.00000E+00 0.00000E+00
 -1      1247 0.00000E+00 0.00000E+00 0.00000E+00
 -1      1248 0.00000E+00 0.00000E+00 0.00000E+00
 -1      1249 0.00000E+00 0.00000E+00 0.00000E+00
 -1      1250 0.00000E+00 0.00000E+00 0.00000E+00
 -1      1251 0.00000E+00 0.00000E+00 0.00000E+00
 -1      1252 0.00000E+00 0.00000E+00 0.00000E+00
 -1      1253 0.00000E+00 0.00000E+00 0.00000E+00
 -1      1254 0.00000E+00 0.00000E+00 0.00000E+00
 -1      1255 0.00000E+00 0.00000E+00 0.00000E+00
 -1      1256 0.00000E+00 0.00000E+00 0.00000E+00
 -1      1257 0.00000E+00 0.00000E+00 0.00000E+00
 -1      1258-9.72581E-09-1.16729E-08-7.60631E-09
 -1      1259-9.72581E-09 1.16729E-08-7.60631E-09
 -1      1260-8.98604E-09-1.95197E-08-1.31348E-08
 -1      1261-8.98604E-09 1.95197E-08-1.31348E-08
 -1      1262-5.43283E-09-2.47397E-08-1.65275E-08
 -1      1263-5.43283E-09 2.47397E-08-1.65275E-08
 -1      1264-2.34560E-09-2.68767E-08-1.78591E-08
 -1      1265-2.34560E-09 2.68767E-08-1.78591E-08
 -1      1266-6.59757E-10-2.73138E-08-1.80420E-08
 -1      1267-6.59757E-10 2.73138E-08-1.80420E-08
 -1      1268-9.37301E-13-2.72532E-08-1.79513E-08
 -1      1269-9.37301E-13 2.72532E-08-1.79513E-08
 -1      1270 2.20790E-10-2.71719E-08-1.78953E-08
 -1      1271 2.20790E-10 2.71719E-08-1.78953E-08
 -1      1272 3.21684E-10-2.71545E-08-1.78977E-08
 -1      1273 3.21684E-10 2.71545E-08-1.78977E-08
 -1      1274 3.97029E-10-2.71706E-08-1.79206E-08
 -1      1275 3.97029E-10 2.71706E-08-1.79206E-08
 -1      1276 4.61442E-10-2.71918E-08-1.79417E-08
 -1      1277 4.61442E-10 2.71918E-08-1.79417E-08
 -1      1278 5.21225E-10-2.72062E-08-1.79557E-08
 -1      1279 5.21225E-10 2.72062E-08-1.79557E-08
 -1      1280 5.96090E-10-2.72041E-08-1.79589E-08
 -1      1281 5.96090E-10 2.72041E-08-1.79589E-08
 -1      1282 7.17296E-10-2.71577E-08-1.79322E-08
 -1      1283 7.17296E-10 2.71577E-08-1.79322E-08
 -1      1284 8.87587E-10-2.70152E-08-1.78292E-08
 -1      1285 8.87587E-10 2.70152E-08-1.78292E-08
 -1      1286 9.81038E-10-2.67561E-08-1.76148E-08
 -1      1287 9.81038E-10 2.67561E-08-1.76148E-08
 -1      1288 7.34418E-10-2.65574E-08-1.74329E-08
 -1      1289 7.34418E-10 2.65574E-08-1.74329E-08
 -1      1290 3.34845E-10-2.69342E-08-1.77727E-08
 -1      1291 3.34845E-10 2.69342E-08-1.77727E-08
 -1      1292 1.61172E-09-2.80628E-08-1.88197E-08
 -1      1293 1.61172E-09 2.80628E-08-1.88197E-08
 -1      1294 6.65659E-09-2.70583E-08-1.83582E-08
 -1      1295 6.65659E-09 2.70583E-08-1.83582E-08
 -1      1296 1.14559E-08-1.85107E-08-1.23573E-08
 -1      1297 1.14559E-08 1.85107E-08-1.23573E-08
 -1      1298 1.02014E-08-7.56225E-09-4.62591E-09
 -1      1299 1.02014E-08 7.56225E-09-4.62591E-09
 -1      1300 5.58365E-09-1.96808E-09-8.49608E-10
 -1      1301 5.58365E-09 1.96808E-09-8.49608E-10
 -1      1302 2.43100E-09-3.28802E-10 6.13105E-11
 -1      1303 2.43100E-09 3.28802E-10 6.13105E-11
 -1      1304-1.67979E-08-1.78890E-08-1.05303E-08
 -1      1305-1.67979E-08 1.78890E-08-1.05303E-08
 -1      1306-1.43811E-08-2.97612E-08-1.77126E-08
 -1      1307-1.43811E-08 2.97612E-08-1.77126E-08
 -1      1308-8.90919E-09-3.79361E-08-2.23863E-08
 -1      1309-8.90919E-09 3.79361E-08-2.23863E-08
 -1      1310-3.97657E-09-4.11903E-08-2.38933E-08
 -1      1311-3.97657E-09 4.11903E-08-2.38933E-08
 -1      1312-1.21461E-09-4.18854E-08-2.38780E-08
 -1      1313-1.21461E-09 4.18854E-08-2.38780E-08
 -1      1314-4.48933E-11-4.18106E-08-2.36233E-08
 -1      1315-4.48933E-11 4.18106E-08-2.36233E-08
 -1      1316 4.08614E-10-4.16991E-08-2.35193E-08
 -1      1317 4.08614E-10 4.16991E-08-2.35193E-08
 -1      1318 6.33953E-10-4.16787E-08-2.35296E-08
 -1      1319 6.33953E-10 4.16787E-08-2.35296E-08
 -1      1320 7.91368E-10-4.17063E-08-2.35698E-08
 -1      1321 7.91368E-10 4.17063E-08-2.35698E-08
 -1      1322 9.16661E-10-4.17401E-08-2.36034E-08
 -1      1323 9.16661E-10 4.17401E-08-2.36034E-08
 -1      1324 1.02785E-09-4.17626E-08-2.36264E-08
 -1      1325 1.02785E-09 4.17626E-08-2.36264E-08
 -1      1326 1.15905E-09-4.17591E-08-2.36388E-08
 -1      1327 1.15905E-09 4.17591E-08-2.36388E-08
 -1      1328 1.35901E-09-4.16884E-08-2.36144E-08
 -1      1329 1.35901E-09 4.16884E-08-2.36144E-08
 -1      1330 1.63521E-09-4.14725E-08-2.34723E-08
 -1      1331 1.63521E-09 4.14725E-08-2.34723E-08
 -1      1332 1.81397E-09-4.10776E-08-2.31240E-08
 -1      1333 1.81397E-09 4.10776E-08-2.31240E-08
 -1      1334 1.52779E-09-4.07545E-08-2.27839E-08
 -1      1335 1.52779E-09 4.07545E-08-2.27839E-08
 -1      1336 1.05852E-09-4.12612E-08-2.33754E-08
 -1      1337 1.05852E-09 4.12612E-08-2.33754E-08
 -1      1338 3.09344E-09-4.30133E-08-2.54298E-08
 -1      1339 3.09344E-09 4.30133E-08-2.54298E-08
 -1      1340 1.06879E-08-4.17463E-08-2.53602E-08
 -1      1341 1.06879E-08 4.17463E-08-2.53602E-08
 -1      1342 1.78594E-08-2.84731E-08-1.66430E-08
 -1      1343 1.78594E-08 2.84731E-08-1.66430E-08
 -1      1344 1.60112E-08-1.14496E-08-5.27523E-09
 -1      1345 1.60112E-08 1.14496E-08-5.27523E-09
 -1      1346 9.11051E-09-2.99879E-09-1.48649E-10
 -1      1347 9.11051E-09 2.99879E-09-1.48649E-10
 -1      1348 4.55857E-09-5.52400E-10 4.73005E-10
 -1      1349 4.55857E-09 5.52400E-10 4.73005E-10
 -1      1350-1.99580E-08-1.93086E-08-1.07808E-08
 -1      1351-1.99580E-08 1.93086E-08-1.07808E-08
 -1      1352-1.66749E-08-3.26184E-08-1.76662E-08
 -1      1353-1.66749E-08 3.26184E-08-1.76662E-08
 -1      1354-1.04195E-08-4.17028E-08-2.22975E-08
 -1      1355-1.04195E-08 4.17028E-08-2.22975E-08
 -1      1356-4.87582E-09-4.52827E-08-2.34755E-08
 -1      1357-4.87582E-09 4.52827E-08-2.34755E-08
 -1      1358-1.63548E-09-4.60574E-08-2.30974E-08
 -1      1359-1.63548E-09 4.60574E-08-2.30974E-08
 -1      1360-1.28524E-10-4.60047E-08-2.26592E-08
 -1      1361-1.28524E-10 4.60047E-08-2.26592E-08
 -1      1362 5.50667E-10-4.59128E-08-2.25091E-08
 -1      1363 5.50667E-10 4.59128E-08-2.25091E-08
 -1      1364 9.16415E-10-4.59132E-08-2.25242E-08
 -1      1365 9.16415E-10 4.59132E-08-2.25242E-08
 -1      1366 1.15986E-09-4.59576E-08-2.25748E-08
 -1      1367 1.15986E-09 4.59576E-08-2.25748E-08
 -1      1368 1.34119E-09-4.60023E-08-2.26143E-08
 -1      1369 1.34119E-09 4.60023E-08-2.26143E-08
 -1      1370 1.49420E-09-4.60306E-08-2.26426E-08
 -1      1371 1.49420E-09 4.60306E-08-2.26426E-08
 -1      1372 1.66219E-09-4.60283E-08-2.26658E-08
 -1      1373 1.66219E-09 4.60283E-08-2.26658E-08
 -1      1374 1.89938E-09-4.59513E-08-2.26567E-08
 -1      1375 1.89938E-09 4.59513E-08-2.26567E-08
 -1      1376 2.22304E-09-4.57121E-08-2.25100E-08
 -1      1377 2.22304E-09 4.57121E-08-2.25100E-08
 -1      1378 2.48859E-09-4.52623E-08-2.20859E-08
 -1      1379 2.48859E-09 4.52623E-08-2.20859E-08
 -1      1380 2.36079E-09-4.48570E-08-2.16299E-08
 -1      1381 2.36079E-09 4.48570E-08-2.16299E-08
 -1      1382 2.06489E-09-4.53219E-08-2.24346E-08
 -1      1383 2.06489E-09 4.53219E-08-2.24346E-08
 -1      1384 4.20460E-09-4.73437E-08-2.53375E-08
 -1      1385 4.20460E-09 4.73437E-08-2.53375E-08
 -1      1386 1.21674E-08-4.65607E-08-2.58324E-08
 -1      1387 1.21674E-08 4.65607E-08-2.58324E-08
 -1      1388 1.97566E-08-3.15245E-08-1.64553E-08
 -1      1389 1.97566E-08 3.15245E-08-1.64553E-08
 -1      1390 1.77529E-08-1.21888E-08-4.05357E-09
 -1      1391 1.77529E-08 1.21888E-08-4.05357E-09
 -1      1392 1.05928E-08-3.16011E-09 1.16890E-09
 -1      1393 1.05928E-08 3.16011E-09 1.16890E-09
 -1      1394 6.09293E-09-5.73389E-10 1.00943E-09
 -1      1395 6.09293E-09 5.73389E-10 1.00943E-09
 -1      1396-1.92584E-08-1.55104E-08-9.57117E-09
 -1      1397-1.92584E-08 1.55104E-08-9.57117E-09
 -1      1398-1.59212E-08-2.68082E-08-1.49626E-08
 -1      1399-1.59212E-08 2.68082E-08-1.49626E-08
 -1      1400-1.01929E-08-3.45695E-08-1.88858E-08
 -1      1401-1.01929E-08 3.45695E-08-1.88858E-08
 -1      1402-5.13890E-09-3.76911E-08-1.95973E-08
 -1      1403-5.13890E-09 3.76911E-08-1.95973E-08
 -1      1404-1.96061E-09-3.84176E-08-1.88918E-08
 -1      1405-1.96061E-09 3.84176E-08-1.88918E-08
 -1      1406-2.61828E-10-3.84406E-08-1.83042E-08
 -1      1407-2.61828E-10 3.84406E-08-1.83042E-08
 -1      1408 6.32297E-10-3.84229E-08-1.81131E-08
 -1      1409 6.32297E-10 3.84229E-08-1.81131E-08
 -1      1410 1.14441E-09-3.84680E-08-1.81242E-08
 -1      1411 1.14441E-09 3.84680E-08-1.81242E-08
 -1      1412 1.47084E-09-3.85341E-08-1.81756E-08
 -1      1413 1.47084E-09 3.85341E-08-1.81756E-08
 -1      1414 1.69986E-09-3.85876E-08-1.82145E-08
 -1      1415 1.69986E-09 3.85876E-08-1.82145E-08
 -1      1416 1.88397E-09-3.86190E-08-1.82443E-08
 -1      1417 1.88397E-09 3.86190E-08-1.82443E-08
 -1      1418 2.07046E-09-3.86198E-08-1.82758E-08
 -1      1419 2.07046E-09 3.86198E-08-1.82758E-08
 -1      1420 2.30714E-09-3.85534E-08-1.82836E-08
 -1      1421 2.30714E-09 3.85534E-08-1.82836E-08
 -1      1422 2.61946E-09-3.83416E-08-1.81503E-08
 -1      1423 2.61946E-09 3.83416E-08-1.81503E-08
 -1      1424 2.94975E-09-3.79314E-08-1.77070E-08
 -1      1425 2.94975E-09 3.79314E-08-1.77070E-08
 -1      1426 3.13483E-09-3.75325E-08-1.72116E-08
 -1      1427 3.13483E-09 3.75325E-08-1.72116E-08
 -1      1428 3.30199E-09-3.78466E-08-1.81967E-08
 -1      1429 3.30199E-09 3.78466E-08-1.81967E-08
 -1      1430 5.10716E-09-3.96096E-08-2.16122E-08
 -1      1431 5.10716E-09 3.96096E-08-2.16122E-08
 -1      1432 1.13075E-08-3.95215E-08-2.22394E-08
 -1      1433 1.13075E-08 3.95215E-08-2.22394E-08
 -1      1434 1.72678E-08-2.65943E-08-1.37883E-08
 -1      1435 1.72678E-08 2.65943E-08-1.37883E-08
 -1      1436 1.56776E-08-9.89186E-09-2.40895E-09
 -1      1437 1.56776E-08 9.89186E-09-2.40895E-09
 -1      1438 1.02817E-08-2.54960E-09 2.39776E-09
 -1      1439 1.02817E-08 2.54960E-09 2.39776E-09
 -1      1440 7.07039E-09-4.27795E-10 1.46232E-09
 -1      1441 7.07039E-09 4.27795E-10 1.46232E-09
 -1      1442-1.57371E-08-7.14467E-09-8.26072E-09
 -1      1443-1.57371E-08 7.14467E-09-8.26072E-09
 -1      1444-1.29054E-08-1.28137E-08-1.21512E-08
 -1      1445-1.29054E-08 1.28137E-08-1.21512E-08
 -1      1446-8.82571E-09-1.73264E-08-1.53594E-08
 -1      1447-8.82571E-09 1.73264E-08-1.53594E-08
 -1      1448-5.05547E-09-1.94527E-08-1.57480E-08
 -1      1449-5.05547E-09 1.94527E-08-1.57480E-08
 -1      1450-2.26840E-09-2.01113E-08-1.48461E-08
 -1      1451-2.26840E-09 2.01113E-08-1.48461E-08
 -1      1452-4.52733E-10-2.02842E-08-1.41601E-08
 -1      1453-4.52733E-10 2.02842E-08-1.41601E-08
 -1      1454 6.43495E-10-2.03893E-08-1.39262E-08
 -1      1455 6.43495E-10 2.03893E-08-1.39262E-08
 -1      1456 1.29008E-09-2.04970E-08-1.39185E-08
 -1      1457 1.29008E-09 2.04970E-08-1.39185E-08
 -1      1458 1.68445E-09-2.05874E-08-1.39599E-08
 -1      1459 1.68445E-09 2.05874E-08-1.39599E-08
 -1      1460 1.94756E-09-2.06476E-08-1.39929E-08
 -1      1461 1.94756E-09 2.06476E-08-1.39929E-08
 -1      1462 2.15161E-09-2.06796E-08-1.40209E-08
 -1      1463 2.15161E-09 2.06796E-08-1.40209E-08
 -1      1464 2.34334E-09-2.06835E-08-1.40563E-08
 -1      1465 2.34334E-09 2.06835E-08-1.40563E-08
 -1      1466 2.55319E-09-2.06382E-08-1.40747E-08
 -1      1467 2.55319E-09 2.06382E-08-1.40747E-08
 -1      1468 2.80246E-09-2.04922E-08-1.39568E-08
 -1      1469 2.80246E-09 2.04922E-08-1.39568E-08
 -1      1470 3.13736E-09-2.02127E-08-1.35331E-08
 -1      1471 3.13736E-09 2.02127E-08-1.35331E-08
 -1      1472 3.69832E-09-1.99516E-08-1.30722E-08
 -1      1473 3.69832E-09 1.99516E-08-1.30722E-08
 -1      1474 4.65876E-09-2.01168E-08-1.42024E-08
 -1      1475 4.65876E-09 2.01168E-08-1.42024E-08
 -1      1476 6.14608E-09-2.09445E-08-1.77399E-08
 -1      1477 6.14608E-09 2.09445E-08-1.77399E-08
 -1      1478 8.86509E-09-2.10044E-08-1.81152E-08
 -1      1479 8.86509E-09 2.10044E-08-1.81152E-08
 -1      1480 1.12895E-08-1.43013E-08-1.10234E-08
 -1      1481 1.12895E-08 1.43013E-08-1.10234E-08
 -1      1482 1.08170E-08-5.51548E-09-1.31651E-09
 -1      1483 1.08170E-08 5.51548E-09-1.31651E-09
 -1      1484 8.92886E-09-1.55638E-09 3.08207E-09
 -1      1485 8.92886E-09 1.55638E-09 3.08207E-09
 -1      1486 7.74257E-09-2.01638E-10 1.71815E-09
 -1      1487 7.74257E-09 2.01638E-10 1.71815E-09
 -1      1488-1.23541E-08 3.18561E-09-7.89289E-09
 -1      1489-1.23541E-08-3.18561E-09-7.89289E-09
 -1      1490-1.00061E-08 4.82502E-09-1.12902E-08
 -1      1491-1.00061E-08-4.82502E-09-1.12902E-08
 -1      1492-7.51544E-09 4.31776E-09-1.42434E-08
 -1      1493-7.51544E-09-4.31776E-09-1.42434E-08
 -1      1494-5.05449E-09 3.32183E-09-1.45429E-08
 -1      1495-5.05449E-09-3.32183E-09-1.45429E-08
 -1      1496-2.60630E-09 2.70092E-09-1.35670E-08
 -1      1497-2.60630E-09-2.70092E-09-1.35670E-08
 -1      1498-6.60750E-10 2.33927E-09-1.28074E-08
 -1      1499-6.60750E-10-2.33927E-09-1.28074E-08
 -1      1500 6.01535E-10 2.09279E-09-1.25173E-08
 -1      1501 6.01535E-10-2.09279E-09-1.25173E-08
 -1      1502 1.33697E-09 1.91734E-09-1.24753E-08
 -1      1503 1.33697E-09-1.91734E-09-1.24753E-08
 -1      1504 1.76485E-09 1.80288E-09-1.24982E-08
 -1      1505 1.76485E-09-1.80288E-09-1.24982E-08
 -1      1506 2.04090E-09 1.73747E-09-1.25222E-08
 -1      1507 2.04090E-09-1.73747E-09-1.25222E-08
 -1      1508 2.25346E-09 1.70638E-09-1.25469E-08
 -1      1509 2.25346E-09-1.70638E-09-1.25469E-08
 -1      1510 2.44593E-09 1.69985E-09-1.25826E-08
 -1      1511 2.44593E-09-1.69985E-09-1.25826E-08
 -1      1512 2.62541E-09 1.72131E-09-1.26030E-08
 -1      1513 2.62541E-09-1.72131E-09-1.26030E-08
 -1      1514 2.78883E-09 1.78867E-09-1.24911E-08
 -1      1515 2.78883E-09-1.78867E-09-1.24911E-08
 -1      1516 3.05356E-09 1.89897E-09-1.20941E-08
 -1      1517 3.05356E-09-1.89897E-09-1.20941E-08
 -1      1518 3.91273E-09 1.94350E-09-1.17168E-08
 -1      1519 3.91273E-09-1.94350E-09-1.17168E-08
 -1      1520 5.85072E-09 1.85117E-09-1.29374E-08
 -1      1521 5.85072E-09-1.85117E-09-1.29374E-08
 -1      1522 7.32017E-09 2.38371E-09-1.63997E-08
 -1      1523 7.32017E-09-2.38371E-09-1.63997E-08
 -1      1524 6.58337E-09 2.69067E-09-1.64744E-08
 -1      1525 6.58337E-09-2.69067E-09-1.64744E-08
 -1      1526 5.39378E-09 1.16088E-09-1.00123E-08
 -1      1527 5.39378E-09-1.16088E-09-1.00123E-08
 -1      1528 6.12963E-09-5.48976E-10-1.11229E-09
 -1      1529 6.12963E-09 5.48976E-10-1.11229E-09
 -1      1530 7.82383E-09-5.66728E-10 3.20139E-09
 -1      1531 7.82383E-09 5.66728E-10 3.20139E-09
 -1      1532 8.48577E-09 4.50566E-11 1.78308E-09
 -1      1533 8.48577E-09-4.50566E-11 1.78308E-09
 -1      1534 0.00000E+00 0.00000E+00 0.00000E+00
 -1      1535-1.09821E-08 3.61876E-09-1.79307E-08
 -1      1536 0.00000E+00 0.00000E+00 0.00000E+00
 -1      1537-8.32611E-09 5.89624E-09-2.83440E-08
 -1      1538 0.00000E+00 0.00000E+00 0.00000E+00
 -1      1539-6.38444E-09 5.66471E-09-3.51613E-08
 -1      1540 0.00000E+00 0.00000E+00 0.00000E+00
 -1      1541-4.53539E-09 4.68381E-09-3.64509E-08
 -1      1542 0.00000E+00 0.00000E+00 0.00000E+00
 -1      1543-2.37918E-09 4.04650E-09-3.54644E-08
 -1      1544 0.00000E+00 0.00000E+00 0.00000E+00
 -1      1545-5.16137E-10 3.72324E-09-3.45183E-08
 -1      1546 0.00000E+00 0.00000E+00 0.00000E+00
 -1      1547 7.35253E-10 3.52992E-09-3.40978E-08
 -1      1548 0.00000E+00 0.00000E+00 0.00000E+00
 -1      1549 1.46795E-09 3.39404E-09-3.39945E-08
 -1      1550 0.00000E+00 0.00000E+00 0.00000E+00
 -1      1551 1.88916E-09 3.30193E-09-3.39954E-08
 -1      1552 0.00000E+00 0.00000E+00 0.00000E+00
 -1      1553 2.15708E-09 3.24718E-09-3.40145E-08
 -1      1554 0.00000E+00 0.00000E+00 0.00000E+00
 -1      1555 2.36162E-09 3.22042E-09-3.40399E-08
 -1      1556 0.00000E+00 0.00000E+00 0.00000E+00
 -1      1557 2.54289E-09 3.21605E-09-3.40736E-08
 -1      1558 0.00000E+00 0.00000E+00 0.00000E+00
 -1      1559 2.70059E-09 3.23979E-09-3.40741E-08
 -1      1560 0.00000E+00 0.00000E+00 0.00000E+00
 -1      1561 2.82795E-09 3.30235E-09-3.38917E-08
 -1      1562 0.00000E+00 0.00000E+00 0.00000E+00
 -1      1563 3.06913E-09 3.36703E-09-3.33327E-08
 -1      1564 0.00000E+00 0.00000E+00 0.00000E+00
 -1      1565 3.97407E-09 3.27998E-09-3.27070E-08
 -1      1566 0.00000E+00 0.00000E+00 0.00000E+00
 -1      1567 6.09849E-09 3.08535E-09-3.39139E-08
 -1      1568 0.00000E+00 0.00000E+00 0.00000E+00
 -1      1569 7.66098E-09 3.96418E-09-3.89021E-08
 -1      1570 0.00000E+00 0.00000E+00 0.00000E+00
 -1      1571 5.61036E-09 4.94511E-09-3.95363E-08
 -1      1572 0.00000E+00 0.00000E+00 0.00000E+00
 -1      1573 2.76377E-09 2.38067E-09-2.49395E-08
 -1      1574 0.00000E+00 0.00000E+00 0.00000E+00
 -1      1575 4.02089E-09-7.28605E-10-5.63251E-09
 -1      1576 0.00000E+00 0.00000E+00 0.00000E+00
 -1      1577 7.02141E-09-7.81661E-10 2.46161E-09
 -1      1578 0.00000E+00 0.00000E+00 0.00000E+00
 -1      1579 8.16264E-09 7.78550E-12 1.55920E-09
 -1      1580 0.00000E+00 0.00000E+00 0.00000E+00
 -1      1581-8.19177E-09 5.34675E-09-2.98119E-08
 -1      1582 0.00000E+00 0.00000E+00 0.00000E+00
 -1      1583-5.27363E-09 9.94289E-09-4.98224E-08
 -1      1584 0.00000E+00 0.00000E+00 0.00000E+00
 -1      1585-4.66943E-09 1.05839E-08-6.13524E-08
 -1      1586 0.00000E+00 0.00000E+00 0.00000E+00
 -1      1587-3.73942E-09 9.71411E-09-6.33746E-08
 -1      1588 0.00000E+00 0.00000E+00 0.00000E+00
 -1      1589-1.94877E-09 9.01976E-09-6.21588E-08
 -1      1590 0.00000E+00 0.00000E+00 0.00000E+00
 -1      1591-1.78769E-10 8.68652E-09-6.09370E-08
 -1      1592 0.00000E+00 0.00000E+00 0.00000E+00
 -1      1593 1.06989E-09 8.52235E-09-6.03762E-08
 -1      1594 0.00000E+00 0.00000E+00 0.00000E+00
 -1      1595 1.81150E-09 8.41884E-09-6.02184E-08
 -1      1596 0.00000E+00 0.00000E+00 0.00000E+00
 -1      1597 2.23555E-09 8.34868E-09-6.02030E-08
 -1      1598 0.00000E+00 0.00000E+00 0.00000E+00
 -1      1599 2.50097E-09 8.30581E-09-6.02197E-08
 -1      1600 0.00000E+00 0.00000E+00 0.00000E+00
 -1      1601 2.69956E-09 8.28489E-09-6.02476E-08
 -1      1602 0.00000E+00 0.00000E+00 0.00000E+00
 -1      1603 2.86879E-09 8.28385E-09-6.02835E-08
 -1      1604 0.00000E+00 0.00000E+00 0.00000E+00
 -1      1605 3.00166E-09 8.30796E-09-6.02713E-08
 -1      1606 0.00000E+00 0.00000E+00 0.00000E+00
 -1      1607 3.08547E-09 8.35347E-09-6.00224E-08
 -1      1608 0.00000E+00 0.00000E+00 0.00000E+00
 -1      1609 3.28215E-09 8.34032E-09-5.92414E-08
 -1      1610 0.00000E+00 0.00000E+00 0.00000E+00
 -1      1611 4.18717E-09 8.07896E-09-5.82054E-08
 -1      1612 0.00000E+00 0.00000E+00 0.00000E+00
 -1      1613 6.63182E-09 7.72010E-09-5.89635E-08
 -1      1614 0.00000E+00 0.00000E+00 0.00000E+00
 -1      1615 8.76392E-09 9.15028E-09-6.64932E-08
 -1      1616 0.00000E+00 0.00000E+00 0.00000E+00
 -1      1617 4.08155E-09 1.19353E-08-7.00880E-08
 -1      1618 0.00000E+00 0.00000E+00 0.00000E+00
 -1      1619-2.40893E-09 6.31489E-09-4.37984E-08
 -1      1620 0.00000E+00 0.00000E+00 0.00000E+00
 -1      1621 2.39764E-10-8.37336E-10-9.23175E-09
 -1      1622 0.00000E+00 0.00000E+00 0.00000E+00
 -1      1623 5.93393E-09-9.85445E-10 2.44833E-09
 -1      1624 0.00000E+00 0.00000E+00 0.00000E+00
 -1      1625 7.72531E-09-4.17619E-11 1.36319E-09
 -1      1626 0.00000E+00 0.00000E+00 0.00000E+00
 -1      1627-4.95581E-09 6.49194E-09-5.40846E-08
 -1      1628 0.00000E+00 0.00000E+00 0.00000E+00
 -1      1629-1.60562E-09 1.28736E-08-1.02511E-07
 -1      1630 0.00000E+00 0.00000E+00 0.00000E+00
 -1      1631-2.51565E-09 1.43536E-08-1.22042E-07
 -1      1632 0.00000E+00 0.00000E+00 0.00000E+00
 -1      1633-2.44993E-09 1.36958E-08-1.24780E-07
 -1      1634 0.00000E+00 0.00000E+00 0.00000E+00
 -1      1635-9.73842E-10 1.30174E-08-1.22546E-07
 -1      1636 0.00000E+00 0.00000E+00 0.00000E+00
 -1      1637 7.23886E-10 1.26879E-08-1.20664E-07
 -1      1638 0.00000E+00 0.00000E+00 0.00000E+00
 -1      1639 1.97129E-09 1.25464E-08-1.19839E-07
 -1      1640 0.00000E+00 0.00000E+00 0.00000E+00
 -1      1641 2.72185E-09 1.24693E-08-1.19610E-07
 -1      1642 0.00000E+00 0.00000E+00 0.00000E+00
 -1      1643 3.15040E-09 1.24189E-08-1.19586E-07
 -1      1644 0.00000E+00 0.00000E+00 0.00000E+00
 -1      1645 3.41538E-09 1.23878E-08-1.19610E-07
 -1      1646 0.00000E+00 0.00000E+00 0.00000E+00
 -1      1647 3.60993E-09 1.23729E-08-1.19649E-07
 -1      1648 0.00000E+00 0.00000E+00 0.00000E+00
 -1      1649 3.76958E-09 1.23742E-08-1.19700E-07
 -1      1650 0.00000E+00 0.00000E+00 0.00000E+00
 -1      1651 3.88200E-09 1.23950E-08-1.19683E-07
 -1      1652 0.00000E+00 0.00000E+00 0.00000E+00
 -1      1653 3.92552E-09 1.24188E-08-1.19315E-07
 -1      1654 0.00000E+00 0.00000E+00 0.00000E+00
 -1      1655 4.05497E-09 1.23426E-08-1.18065E-07
 -1      1656 0.00000E+00 0.00000E+00 0.00000E+00
 -1      1657 4.92030E-09 1.19738E-08-1.15779E-07
 -1      1658 0.00000E+00 0.00000E+00 0.00000E+00
 -1      1659 7.58225E-09 1.15439E-08-1.15345E-07
 -1      1660 0.00000E+00 0.00000E+00 0.00000E+00
 -1      1661 1.09159E-08 1.33549E-08-1.24539E-07
 -1      1662 0.00000E+00 0.00000E+00 0.00000E+00
 -1      1663 3.51087E-09 1.74456E-08-1.51227E-07
 -1      1664 0.00000E+00 0.00000E+00 0.00000E+00
 -1      1665-8.17016E-09 9.69887E-09-8.76406E-08
 -1      1666 0.00000E+00 0.00000E+00 0.00000E+00
 -1      1667-3.80265E-09-6.96862E-10-7.61893E-09
 -1      1668 0.00000E+00 0.00000E+00 0.00000E+00
 -1      1669 5.18352E-09-1.03234E-09 1.93276E-09
 -1      1670 0.00000E+00 0.00000E+00 0.00000E+00
 -1      1671 7.27319E-09-8.27150E-11 1.44171E-09
 -1      1672 0.00000E+00 0.00000E+00 0.00000E+00
 -1      1673-2.13966E-09 5.17847E-09-7.62148E-08
 -1      1674 0.00000E+00 0.00000E+00 0.00000E+00
 -1      1675 1.66740E-09 1.04551E-08-1.53391E-07
 -1      1676 0.00000E+00 0.00000E+00 0.00000E+00
 -1      1677-6.30578E-10 1.19586E-08-1.81597E-07
 -1      1678 0.00000E+00 0.00000E+00 0.00000E+00
 -1      1679-1.27511E-09 1.15590E-08-1.84961E-07
 -1      1680 0.00000E+00 0.00000E+00 0.00000E+00
 -1      1681-2.47443E-11 1.10496E-08-1.81819E-07
 -1      1682 0.00000E+00 0.00000E+00 0.00000E+00
 -1      1683 1.62654E-09 1.07986E-08-1.79296E-07
 -1      1684 0.00000E+00 0.00000E+00 0.00000E+00
 -1      1685 2.87463E-09 1.06967E-08-1.78219E-07
 -1      1686 0.00000E+00 0.00000E+00 0.00000E+00
 -1      1687 3.63194E-09 1.06455E-08-1.77922E-07
 -1      1688 0.00000E+00 0.00000E+00 0.00000E+00
 -1      1689 4.06433E-09 1.06128E-08-1.77891E-07
 -1      1690 0.00000E+00 0.00000E+00 0.00000E+00
 -1      1691 4.32953E-09 1.05922E-08-1.77922E-07
 -1      1692 0.00000E+00 0.00000E+00 0.00000E+00
 -1      1693 4.52146E-09 1.05824E-08-1.77973E-07
 -1      1694 0.00000E+00 0.00000E+00 0.00000E+00
 -1      1695 4.67438E-09 1.05840E-08-1.78037E-07
 -1      1696 0.00000E+00 0.00000E+00 0.00000E+00
 -1      1697 4.77200E-09 1.05985E-08-1.78013E-07
 -1      1698 0.00000E+00 0.00000E+00 0.00000E+00
 -1      1699 4.78239E-09 1.06088E-08-1.77525E-07
 -1      1700 0.00000E+00 0.00000E+00 0.00000E+00
 -1      1701 4.84663E-09 1.05295E-08-1.75813E-07
 -1      1702 0.00000E+00 0.00000E+00 0.00000E+00
 -1      1703 5.65024E-09 1.02145E-08-1.72356E-07
 -1      1704 0.00000E+00 0.00000E+00 0.00000E+00
 -1      1705 8.49941E-09 9.90403E-09-1.70775E-07
 -1      1706 0.00000E+00 0.00000E+00 0.00000E+00
 -1      1707 1.31339E-08 1.15910E-08-1.81938E-07
 -1      1708 0.00000E+00 0.00000E+00 0.00000E+00
 -1      1709 3.40208E-09 1.47304E-08-2.32948E-07
 -1      1710 0.00000E+00 0.00000E+00 0.00000E+00
 -1      1711-1.32993E-08 8.67099E-09-1.34257E-07
 -1      1712 0.00000E+00 0.00000E+00 0.00000E+00
 -1      1713-7.36746E-09-2.42395E-10-4.89411E-09
 -1      1714 0.00000E+00 0.00000E+00 0.00000E+00
 -1      1715 4.75141E-09-8.75905E-10 1.45888E-09
 -1      1716 0.00000E+00 0.00000E+00 0.00000E+00
 -1      1717 6.91146E-09-8.98756E-11 1.59472E-09
 -1      1718 0.00000E+00 0.00000E+00 0.00000E+00
 -1      1719-5.36911E-10 2.52239E-09-8.29313E-08
 -1      1720 0.00000E+00 0.00000E+00 0.00000E+00
 -1      1721 3.52720E-09 5.08137E-09-1.69520E-07
 -1      1722 0.00000E+00 0.00000E+00 0.00000E+00
 -1      1723 3.10086E-10 5.92400E-09-2.02000E-07
 -1      1724 0.00000E+00 0.00000E+00 0.00000E+00
 -1      1725-7.98707E-10 5.75141E-09-2.05996E-07
 -1      1726 0.00000E+00 0.00000E+00 0.00000E+00
 -1      1727 3.24635E-10 5.49456E-09-2.02616E-07
 -1      1728 0.00000E+00 0.00000E+00 0.00000E+00
 -1      1729 1.95100E-09 5.36814E-09-1.99886E-07
 -1      1730 0.00000E+00 0.00000E+00 0.00000E+00
 -1      1731 3.19966E-09 5.31761E-09-1.98710E-07
 -1      1732 0.00000E+00 0.00000E+00 0.00000E+00
 -1      1733 3.96078E-09 5.29265E-09-1.98381E-07
 -1      1734 0.00000E+00 0.00000E+00 0.00000E+00
 -1      1735 4.39544E-09 5.27652E-09-1.98343E-07
 -1      1736 0.00000E+00 0.00000E+00 0.00000E+00
 -1      1737 4.66087E-09 5.26618E-09-1.98375E-07
 -1      1738 0.00000E+00 0.00000E+00 0.00000E+00
 -1      1739 4.85122E-09 5.26114E-09-1.98429E-07
 -1      1740 0.00000E+00 0.00000E+00 0.00000E+00
 -1      1741 5.00015E-09 5.26193E-09-1.98496E-07
 -1      1742 0.00000E+00 0.00000E+00 0.00000E+00
 -1      1743 5.08900E-09 5.26922E-09-1.98464E-07
 -1      1744 0.00000E+00 0.00000E+00 0.00000E+00
 -1      1745 5.07885E-09 5.27356E-09-1.97923E-07
 -1      1746 0.00000E+00 0.00000E+00 0.00000E+00
 -1      1747 5.10581E-09 5.23108E-09-1.96030E-07
 -1      1748 0.00000E+00 0.00000E+00 0.00000E+00
 -1      1749 5.85305E-09 5.06688E-09-1.92247E-07
 -1      1750 0.00000E+00 0.00000E+00 0.00000E+00
 -1      1751 8.91020E-09 4.93810E-09-1.90183E-07
 -1      1752 0.00000E+00 0.00000E+00 0.00000E+00
 -1      1753 1.42969E-08 5.94364E-09-2.04415E-07
 -1      1754 0.00000E+00 0.00000E+00 0.00000E+00
 -1      1755 3.00228E-09 7.23545E-09-2.59482E-07
 -1      1756 0.00000E+00 0.00000E+00 0.00000E+00
 -1      1757-1.66150E-08 4.52981E-09-1.53826E-07
 -1      1758 0.00000E+00 0.00000E+00 0.00000E+00
 -1      1759-9.67952E-09 6.77196E-11-6.14437E-09
 -1      1760 0.00000E+00 0.00000E+00 0.00000E+00
 -1      1761 4.47033E-09-5.09414E-10 1.89755E-09
 -1      1762 0.00000E+00 0.00000E+00 0.00000E+00
 -1      1763 6.71436E-09-5.81208E-11 1.55457E-09
 -1      1764 0.00000E+00 0.00000E+00 0.00000E+00
 -1      1765-4.99146E-11-3.69799E-20-8.47909E-08
 -1      1766 0.00000E+00 0.00000E+00 0.00000E+00
 -1      1767 4.12401E-09-4.39570E-20-1.74193E-07
 -1      1768 0.00000E+00 0.00000E+00 0.00000E+00
 -1      1769 6.19770E-10-5.29136E-20-2.08060E-07
 -1      1770 0.00000E+00 0.00000E+00 0.00000E+00
 -1      1771-6.50752E-10-5.96972E-20-2.12301E-07
 -1      1772 0.00000E+00 0.00000E+00 0.00000E+00
 -1      1773 4.31377E-10-6.33086E-20-2.08857E-07
 -1      1774 0.00000E+00 0.00000E+00 0.00000E+00
 -1      1775 2.04901E-09-6.50579E-20-2.06063E-07
 -1      1776 0.00000E+00 0.00000E+00 0.00000E+00
 -1      1777 3.29738E-09-6.55528E-20-2.04857E-07
 -1      1778 0.00000E+00 0.00000E+00 0.00000E+00
 -1      1779 4.05959E-09-6.58176E-20-2.04517E-07
 -1      1780 0.00000E+00 0.00000E+00 0.00000E+00
 -1      1781 4.49496E-09-6.58451E-20-2.04477E-07
 -1      1782 0.00000E+00 0.00000E+00 0.00000E+00
 -1      1783 4.76048E-09-6.58999E-20-2.04509E-07
 -1      1784 0.00000E+00 0.00000E+00 0.00000E+00
 -1      1785 4.95031E-09-6.57958E-20-2.04564E-07
 -1      1786 0.00000E+00 0.00000E+00 0.00000E+00
 -1      1787 5.09795E-09-6.57759E-20-2.04631E-07
 -1      1788 0.00000E+00 0.00000E+00 0.00000E+00
 -1      1789 5.18389E-09-6.55838E-20-2.04597E-07
 -1      1790 0.00000E+00 0.00000E+00 0.00000E+00
 -1      1791 5.16711E-09-6.54652E-20-2.04036E-07
 -1      1792 0.00000E+00 0.00000E+00 0.00000E+00
 -1      1793 5.18258E-09-6.49411E-20-2.02097E-07
 -1      1794 0.00000E+00 0.00000E+00 0.00000E+00
 -1      1795 5.90615E-09-6.47547E-20-1.98188E-07
 -1      1796 0.00000E+00 0.00000E+00 0.00000E+00
 -1      1797 9.05965E-09-6.38671E-20-1.96064E-07
 -1      1798 0.00000E+00 0.00000E+00 0.00000E+00
 -1      1799 1.46454E-08-6.02191E-20-2.11247E-07
 -1      1800 0.00000E+00 0.00000E+00 0.00000E+00
 -1      1801 2.85795E-09-5.01081E-20-2.67583E-07
 -1      1802 0.00000E+00 0.00000E+00 0.00000E+00
 -1      1803-1.76634E-08-4.05024E-20-1.59719E-07
 -1      1804 0.00000E+00 0.00000E+00 0.00000E+00
 -1      1805-1.04625E-08-2.90305E-20-6.76799E-09
 -1      1806 0.00000E+00 0.00000E+00 0.00000E+00
 -1      1807 4.36071E-09-1.59777E-20 2.06978E-09
 -1      1808 0.00000E+00 0.00000E+00 0.00000E+00
 -1      1809 6.65667E-09-7.90566E-21 1.54984E-09
 -1      1810 0.00000E+00 0.00000E+00 0.00000E+00
 -1      1811-5.36911E-10-2.52239E-09-8.29313E-08
 -1      1812 0.00000E+00 0.00000E+00 0.00000E+00
 -1      1813 3.52720E-09-5.08137E-09-1.69520E-07
 -1      1814 0.00000E+00 0.00000E+00 0.00000E+00
 -1      1815 3.10086E-10-5.92400E-09-2.02000E-07
 -1      1816 0.00000E+00 0.00000E+00 0.00000E+00
 -1      1817-7.98707E-10-5.75141E-09-2.05996E-07
 -1      1818 0.00000E+00 0.00000E+00 0.00000E+00
 -1      1819 3.24635E-10-5.49456E-09-2.02616E-07
 -1      1820 0.00000E+00 0.00000E+00 0.00000E+00
 -1      1821 1.95100E-09-5.36814E-09-1.99886E-07
 -1      1822 0.00000E+00 0.00000E+00 0.00000E+00
 -1      1823 3.19966E-09-5.31761E-09-1.98710E-07
 -1      1824 0.00000E+00 0.00000E+00 0.00000E+00
 -1      1825 3.96078E-09-5.29265E-09-1.98381E-07
 -1      1826 0.00000E+00 0.00000E+00 0.00000E+00
 -1      1827 4.39544E-09-5.27652E-09-1.98343E-07
 -1      1828 0.00000E+00 0.00000E+00 0.00000E+00
 -1      1829 4.66087E-09-5.26618E-09-1.98375E-07
 -1      1830 0.00000E+00 0.00000E+00 0.00000E+00
 -1      1831 4.85122E-09-5.26114E-09-1.98429E-07
 -1      1832 0.00000E+00 0.00000E+00 0.00000E+00
 -1      1833 5.00015E-09-5.26193E-09-1.98496E-07
 -1      1834 0.00000E+00 0.00000E+00 0.00000E+00
 -1      1835 5.08900E-09-5.26922E-09-1.98464E-07
 -1      1836 0.00000E+00 0.00000E+00 0.00000E+00
 -1      1837 5.07885E-09-5.27356E-09-1.97923E-07
 -1      1838 0.00000E+00 0.00000E+00 0.00000E+00
 -1      1839 5.10581E-09-5.23108E-09-1.96030E-07
 -1      1840 0.00000E+00 0.00000E+00 0.00000E+00
 -1      1841 5.85305E-09-5.06688E-09-1.92247E-07
 -1      1842 0.00000E+00 0.00000E+00 0.00000E+00
 -1      1843 8.91020E-09-4.93810E-09-1.90183E-07
 -1      1844 0.00000E+00 0.00000E+00 0.00000E+00
 -1      1845 1.42969E-08-5.94364E-09-2.04415E-07
 -1      1846 0.00000E+00 0.00000E+00 0.00000E+00
 -1      1847 3.00228E-09-7.23545E-09-2.59482E-07
 -1      1848 0.00000E+00 0.00000E+00 0.00000E+00
 -1      1849-1.66150E-08-4.52981E-09-1.53826E-07
 -1      1850 0.00000E+00 0.00000E+00 0.00000E+00
 -1      1851-9.67952E-09-6.77196E-11-6.14437E-09
 -1      1852 0.00000E+00 0.00000E+00 0.00000E+00
 -1      1853 4.47033E-09 5.09414E-10 1.89755E-09
 -1      1854 0.00000E+00 0.00000E+00 0.00000E+00
 -1      1855 6.71436E-09 5.81208E-11 1.55457E-09
 -1      1856 0.00000E+00 0.00000E+00 0.00000E+00
 -1      1857-2.13966E-09-5.17847E-09-7.62148E-08
 -1      1858 0.00000E+00 0.00000E+00 0.00000E+00
 -1      1859 1.66740E-09-1.04551E-08-1.53391E-07
 -1      1860 0.00000E+00 0.00000E+00 0.00000E+00
 -1      1861-6.30578E-10-1.19586E-08-1.81597E-07
 -1      1862 0.00000E+00 0.00000E+00 0.00000E+00
 -1      1863-1.27511E-09-1.15590E-08-1.84961E-07
 -1      1864 0.00000E+00 0.00000E+00 0.00000E+00
 -1      1865-2.47443E-11-1.10496E-08-1.81819E-07
 -1      1866 0.00000E+00 0.00000E+00 0.00000E+00
 -1      1867 1.62654E-09-1.07986E-08-1.79296E-07
 -1      1868 0.00000E+00 0.00000E+00 0.00000E+00
 -1      1869 2.87463E-09-1.06967E-08-1.78219E-07
 -1      1870 0.00000E+00 0.00000E+00 0.00000E+00
 -1      1871 3.63194E-09-1.06455E-08-1.77922E-07
 -1      1872 0.00000E+00 0.00000E+00 0.00000E+00
 -1      1873 4.06433E-09-1.06128E-08-1.77891E-07
 -1      1874 0.00000E+00 0.00000E+00 0.00000E+00
 -1      1875 4.32953E-09-1.05922E-08-1.77922E-07
 -1      1876 0.00000E+00 0.00000E+00 0.00000E+00
 -1      1877 4.52146E-09-1.05824E-08-1.77973E-07
 -1      1878 0.00000E+00 0.00000E+00 0.00000E+00
 -1      1879 4.67438E-09-1.05840E-08-1.78037E-07
 -1      1880 0.00000E+00 0.00000E+00 0.00000E+00
 -1      1881 4.77200E-09-1.05985E-08-1.78013E-07
 -1      1882 0.00000E+00 0.00000E+00 0.00000E+00
 -1      1883 4.78239E-09-1.06088E-08-1.77525E-07
 -1      1884 0.00000E+00 0.00000E+00 0.00000E+00
 -1      1885 4.84663E-09-1.05295E-08-1.75813E-07
 -1      1886 0.00000E+00 0.00000E+00 0.00000E+00
 -1      1887 5.65024E-09-1.02145E-08-1.72356E-07
 -1      1888 0.00000E+00 0.00000E+00 0.00000E+00
 -1      1889 8.49941E-09-9.90403E-09-1.70775E-07
 -1      1890 0.00000E+00 0.00000E+00 0.00000E+00
 -1      1891 1.31339E-08-1.15910E-08-1.81938E-07
 -1      1892 0.00000E+00 0.00000E+00 0.00000E+00
 -1      1893 3.40208E-09-1.47304E-08-2.32948E-07
 -1      1894 0.00000E+00 0.00000E+00 0.00000E+00
 -1      1895-1.32993E-08-8.67099E-09-1.34257E-07
 -1      1896 0.00000E+00 0.00000E+00 0.00000E+00
 -1      1897-7.36746E-09 2.42395E-10-4.89411E-09
 -1      1898 0.00000E+00 0.00000E+00 0.00000E+00
 -1      1899 4.75141E-09 8.75905E-10 1.45888E-09
 -1      1900 0.00000E+00 0.00000E+00 0.00000E+00
 -1      1901 6.91146E-09 8.98756E-11 1.59472E-09
 -1      1902 0.00000E+00 0.00000E+00 0.00000E+00
 -1      1903-4.95581E-09-6.49194E-09-5.40846E-08
 -1      1904 0.00000E+00 0.00000E+00 0.00000E+00
 -1      1905-1.60562E-09-1.28736E-08-1.02511E-07
 -1      1906 0.00000E+00 0.00000E+00 0.00000E+00
 -1      1907-2.51565E-09-1.43536E-08-1.22042E-07
 -1      1908 0.00000E+00 0.00000E+00 0.00000E+00
 -1      1909-2.44993E-09-1.36958E-08-1.24780E-07
 -1      1910 0.00000E+00 0.00000E+00 0.00000E+00
 -1      1911-9.73842E-10-1.30174E-08-1.22546E-07
 -1      1912 0.00000E+00 0.00000E+00 0.00000E+00
 -1      1913 7.23886E-10-1.26879E-08-1.20664E-07
 -1      1914 0.00000E+00 0.00000E+00 0.00000E+00
 -1      1915 1.97129E-09-1.25464E-08-1.19839E-07
 -1      1916 0.00000E+00 0.00000E+00 0.00000E+00
 -1      1917 2.72185E-09-1.24693E-08-1.19610E-07
 -1      1918 0.00000E+00 0.00000E+00 0.00000E+00
 -1      1919 3.15040E-09-1.24189E-08-1.19586E-07
 -1      1920 0.00000E+00 0.00000E+00 0.00000E+00
 -1      1921 3.41538E-09-1.23878E-08-1.19610E-07
 -1      1922 0.00000E+00 0.00000E+00 0.00000E+00
 -1      1923 3.60993E-09-1.23729E-08-1.19649E-07
 -1      1924 0.00000E+00 0.00000E+00 0.00000E+00
 -1      1925 3.76958E-09-1.23742E-08-1.19700E-07
 -1      1926 0.00000E+00 0.00000E+00 0.00000E+00
 -1      1927 3.88200E-09-1.23950E-08-1.19683E-07
 -1      1928 0.00000E+00 0.00000E+00 0.00000E+00
 -1      1929 3.92552E-09-1.24188E-08-1.19315E-07
 -1      1930 0.00000E+00 0.00000E+00 0.00000E+00
 -1      1931 4.05497E-09-1.23426E-08-1.18065E-07
 -1      1932 0.00000E+00 0.00000E+00 0.00000E+00
 -1      1933 4.92030E-09-1.19738E-08-1.15779E-07
 -1      1934 0.00000E+00 0.00000E+00 0.00000E+00
 -1      1935 7.58225E-09-1.15439E-08-1.15345E-07
 -1      1936 0.00000E+00 0.00000E+00 0.00000E+00
 -1      1937 1.09159E-08-1.33549E-08-1.24539E-07
 -1      1938 0.00000E+00 0.00000E+00 0.00000E+00
 -1      1939 3.51087E-09-1.74456E-08-1.51227E-07
 -1      1940 0.00000E+00 0.00000E+00 0.00000E+00
 -1      1941-8.17016E-09-9.69887E-09-8.76406E-08
 -1      1942 0.00000E+00 0.00000E+00 0.00000E+00
 -1      1943-3.80265E-09 6.96862E-10-7.61893E-09
 -1      1944 0.00000E+00 0.00000E+00 0.00000E+00
 -1      1945 5.18352E-09 1.03234E-09 1.93276E-09
 -1      1946 0.00000E+00 0.00000E+00 0.00000E+00
 -1      1947 7.27319E-09 8.27150E-11 1.44171E-09
 -1      1948 0.00000E+00 0.00000E+00 0.00000E+00
 -1      1949-8.19177E-09-5.34675E-09-2.98119E-08
 -1      1950 0.00000E+00 0.00000E+00 0.00000E+00
 -1      1951-5.27363E-09-9.94289E-09-4.98224E-08
 -1      1952 0.00000E+00 0.00000E+00 0.00000E+00
 -1      1953-4.66943E-09-1.05839E-08-6.13524E-08
 -1      1954 0.00000E+00 0.00000E+00 0.00000E+00
 -1      1955-3.73942E-09-9.71411E-09-6.33746E-08
 -1      1956 0.00000E+00 0.00000E+00 0.00000E+00
 -1      1957-1.94877E-09-9.01976E-09-6.21588E-08
 -1      1958 0.00000E+00 0.00000E+00 0.00000E+00
 -1      1959-1.78769E-10-8.68652E-09-6.09370E-08
 -1      1960 0.00000E+00 0.00000E+00 0.00000E+00
 -1      1961 1.06989E-09-8.52235E-09-6.03762E-08
 -1      1962 0.00000E+00 0.00000E+00 0.00000E+00
 -1      1963 1.81150E-09-8.41884E-09-6.02184E-08
 -1      1964 0.00000E+00 0.00000E+00 0.00000E+00
 -1      1965 2.23555E-09-8.34868E-09-6.02030E-08
 -1      1966 0.00000E+00 0.00000E+00 0.00000E+00
 -1      1967 2.50097E-09-8.30581E-09-6.02197E-08
 -1      1968 0.00000E+00 0.00000E+00 0.00000E+00
 -1      1969 2.69956E-09-8.28489E-09-6.02476E-08
 -1      1970 0.00000E+00 0.00000E+00 0.00000E+00
 -1      1971 2.86879E-09-8.28385E-09-6.02835E-08
 -1      1972 0.00000E+00 0.00000E+00 0.00000E+00
 -1      1973 3.00166E-09-8.30796E-09-6.02713E-08
 -1      1974 0.00000E+00 0.00000E+00 0.00000E+00
 -1      1975 3.08547E-09-8.35347E-09-6.00224E-08
 -1      1976 0.00000E+00 0.00000E+00 0.00000E+00
 -1      1977 3.28215E-09-8.34032E-09-5.92414E-08
 -1      1978 0.00000E+00 0.00000E+00 0.00000E+00
 -1      1979 4.18717E-09-8.07896E-09-5.82054E-08
 -1      1980 0.00000E+00 0.00000E+00 0.00000E+00
 -1      1981 6.63182E-09-7.72010E-09-5.89635E-08
 -1      1982 0.00000E+00 0.00000E+00 0.00000E+00
 -1      1983 8.76392E-09-9.15028E-09-6.64932E-08
 -1      1984 0.00000E+00 0.00000E+00 0.00000E+00
 -1      1985 4.08155E-09-1.19353E-08-7.00880E-08
 -1      1986 0.00000E+00 0.00000E+00 0.00000E+00
 -1      1987-2.40893E-09-6.31489E-09-4.37984E-08
 -1      1988 0.00000E+00 0.00000E+00 0.00000E+00
 -1      1989 2.39764E-10 8.37336E-10-9.23175E-09
 -1      1990 0.00000E+00 0.00000E+00 0.00000E+00
 -1      1991 5.93393E-09 9.85445E-10 2.44833E-09
 -1      1992 0.00000E+00 0.00000E+00 0.00000E+00
 -1      1993 7.72531E-09 4.17619E-11 1.36319E-09
 -1      1994 0.00000E+00 0.00000E+00 0.00000E+00
 -1      1995-1.09821E-08-3.61876E-09-1.79307E-08
 -1      1996 0.00000E+00 0.00000E+00 0.00000E+00
 -1      1997-8.32611E-09-5.89624E-09-2.83440E-08
 -1      1998 0.00000E+00 0.00000E+00 0.00000E+00
 -1      1999-6.38444E-09-5.66471E-09-3.51613E-08
 -1      2000 0.00000E+00 0.00000E+00 0.00000E+00
 -1      2001-4.53539E-09-4.68381E-09-3.64509E-08
 -1      2002 0.00000E+00 0.00000E+00 0.00000E+00
 -1      2003-2.37918E-09-4.04650E-09-3.54644E-08
 -1      2004 0.00000E+00 0.00000E+00 0.00000E+00
 -1      2005-5.16137E-10-3.72324E-09-3.45183E-08
 -1      2006 0.00000E+00 0.00000E+00 0.00000E+00
 -1      2007 7.35253E-10-3.52992E-09-3.40978E-08
 -1      2008 0.00000E+00 0.00000E+00 0.00000E+00
 -1      2009 1.46795E-09-3.39404E-09-3.39945E-08
 -1      2010 0.00000E+00 0.00000E+00 0.00000E+00
 -1      2011 1.88916E-09-3.30193E-09-3.39954E-08
 -1      2012 0.00000E+00 0.00000E+00 0.00000E+00
 -1      2013 2.15708E-09-3.24718E-09-3.40145E-08
 -1      2014 0.00000E+00 0.00000E+00 0.00000E+00
 -1      2015 2.36162E-09-3.22042E-09-3.40399E-08
 -1      2016 0.00000E+00 0.00000E+00 0.00000E+00
 -1      2017 2.54289E-09-3.21605E-09-3.40736E-08
 -1      2018 0.00000E+00 0.00000E+00 0.00000E+00
 -1      2019 2.70059E-09-3.23979E-09-3.40741E-08
 -1      2020 0.00000E+00 0.00000E+00 0.00000E+00
 -1      2021 2.82795E-09-3.30235E-09-3.38917E-08
 -1      2022 0.00000E+00 0.00000E+00 0.00000E+00
 -1      2023 3.06913E-09-3.36703E-09-3.33327E-08
 -1      2024 0.00000E+00 0.00000E+00 0.00000E+00
 -1      2025 3.97407E-09-3.27998E-09-3.27070E-08
 -1      2026 0.00000E+00 0.00000E+00 0.00000E+00
 -1      2027 6.09849E-09-3.08535E-09-3.39139E-08
 -1      2028 0.00000E+00 0.00000E+00 0.00000E+00
 -1      2029 7.66098E-09-3.96418E-09-3.89021E-08
 -1      2030 0.00000E+00 0.00000E+00 0.00000E+00
 -1      2031 5.61036E-09-4.94511E-09-3.95363E-08
 -1      2032 0.00000E+00 0.00000E+00 0.00000E+00
 -1      2033 2.76377E-09-2.38067E-09-2.49395E-08
 -1      2034 0.00000E+00 0.00000E+00 0.00000E+00
 -1      2035 4.02089E-09 7.28605E-10-5.63251E-09
 -1      2036 0.00000E+00 0.00000E+00 0.00000E+00
 -1      2037 7.02141E-09 7.81661E-10 2.46161E-09
 -1      2038 0.00000E+00 0.00000E+00 0.00000E+00
 -1      2039 8.16264E-09-7.78550E-12 1.55920E-09
 -1      2040-8.75343E-09-9.86559E-09-4.23397E-09
 -1      2041-7.64460E-09-1.66913E-08-7.71479E-09
 -1      2042-4.68108E-09-2.12426E-08-9.57633E-09
 -1      2043-2.06570E-09-2.29738E-08-1.02184E-08
 -1      2044-6.00533E-10-2.32740E-08-1.02154E-08
 -1      2045 2.47965E-12-2.31799E-08-1.01133E-08
 -1      2046 2.25561E-10-2.30898E-08-1.00687E-08
 -1      2047 3.34208E-10-2.30630E-08-1.00704E-08
 -1      2048 4.11937E-10-2.30692E-08-1.00852E-08
 -1      2049 4.75110E-10-2.30827E-08-1.00980E-08
 -1      2050 5.31793E-10-2.30929E-08-1.01069E-08
 -1      2051 5.99911E-10-2.30917E-08-1.01114E-08
 -1      2052 7.06228E-10-2.30561E-08-1.01004E-08
 -1      2053 8.54569E-10-2.29411E-08-1.00415E-08
 -1      2054 9.41864E-10-2.27226E-08-9.90007E-09
 -1      2055 7.51959E-10-2.25405E-08-9.76370E-09
 -1      2056 4.82554E-10-2.28619E-08-9.99846E-09
 -1      2057 1.65886E-09-2.39622E-08-1.08138E-08
 -1      2058 5.72218E-09-2.32998E-08-1.07790E-08
 -1      2059 9.47145E-09-1.58431E-08-7.08840E-09
 -1      2060 8.54409E-09-6.22759E-09-2.28174E-09
 -1      2061 4.87361E-09-1.48697E-09-1.48597E-10
 -1      2062 2.24585E-09-2.26430E-10 1.99028E-10
 -1      2063-9.24088E-09-9.13881E-09-5.50233E-09
 -1      2064-7.85759E-09-1.57297E-08-1.02069E-08
 -1      2065-4.59199E-09-2.00119E-08-1.26509E-08
 -1      2066-1.92218E-09-2.16041E-08-1.33923E-08
 -1      2067-4.96463E-10-2.18478E-08-1.33369E-08
 -1      2068 6.08065E-11-2.17377E-08-1.31846E-08
 -1      2069 2.62779E-10-2.16407E-08-1.31150E-08
 -1      2070 3.64759E-10-2.16077E-08-1.31067E-08
 -1      2071 4.40238E-10-2.16084E-08-1.31177E-08
 -1      2072 5.01675E-10-2.16179E-08-1.31292E-08
 -1      2073 5.56100E-10-2.16261E-08-1.31379E-08
 -1      2074 6.21074E-10-2.16251E-08-1.31431E-08
 -1      2075 7.24706E-10-2.15939E-08-1.31317E-08
 -1      2076 8.77789E-10-2.14903E-08-1.30649E-08
 -1      2077 9.84228E-10-2.12882E-08-1.28934E-08
 -1      2078 7.94557E-10-2.11140E-08-1.27016E-08
 -1      2079 4.11010E-10-2.14150E-08-1.29525E-08
 -1      2080 1.40947E-09-2.25000E-08-1.40733E-08
 -1      2081 5.73387E-09-2.20339E-08-1.43175E-08
 -1      2082 9.90411E-09-1.49289E-08-9.31541E-09
 -1      2083 8.75634E-09-5.71472E-09-2.74886E-09
 -1      2084 4.73407E-09-1.31438E-09-1.15060E-10
 -1      2085 2.08877E-09-1.80896E-10 2.22746E-10
 -1      2086-1.04390E-08-7.89660E-09-7.32950E-09
 -1      2087-8.69204E-09-1.38005E-08-1.37493E-08
 -1      2088-4.83823E-09-1.75469E-08-1.70540E-08
 -1      2089-1.85565E-09-1.89221E-08-1.79859E-08
 -1      2090-3.81136E-10-1.91196E-08-1.78867E-08
 -1      2091 1.42748E-10-1.90133E-08-1.76770E-08
 -1      2092 3.15789E-10-1.89226E-08-1.75784E-08
 -1      2093 4.05179E-10-1.88898E-08-1.75598E-08
 -1      2094 4.76321E-10-1.88877E-08-1.75679E-08
 -1      2095 5.35857E-10-1.88945E-08-1.75790E-08
 -1      2096 5.88616E-10-1.89009E-08-1.75883E-08
 -1      2097 6.52462E-10-1.89000E-08-1.75942E-08
 -1      2098 7.59186E-10-1.88738E-08-1.75810E-08
 -1      2099 9.28345E-10-1.87855E-08-1.75004E-08
 -1      2100 1.06307E-09-1.86108E-08-1.72841E-08
 -1      2101 8.43247E-10-1.84581E-08-1.70162E-08
 -1      2102 2.41094E-10-1.87170E-08-1.72923E-08
 -1      2103 1.09552E-09-1.96929E-08-1.88246E-08
 -1      2104 6.18877E-09-1.93990E-08-1.94020E-08
 -1      2105 1.13140E-08-1.31192E-08-1.25653E-08
 -1      2106 9.78434E-09-4.92418E-09-3.52714E-09
 -1      2107 4.89576E-09-1.11259E-09-1.28916E-10
 -1      2108 1.97595E-09-1.42244E-10 2.44729E-10
 -1      2109-1.17454E-08-5.85737E-09-9.08888E-09
 -1      2110-9.64558E-09-1.03505E-08-1.71776E-08
 -1      2111-5.18046E-09-1.31584E-08-2.13278E-08
 -1      2112-1.83496E-09-1.41793E-08-2.24558E-08
 -1      2113-2.78663E-10-1.43209E-08-2.23206E-08
 -1      2114 2.22512E-10-1.42376E-08-2.20589E-08
 -1      2115 3.68480E-10-1.41673E-08-2.19339E-08
 -1      2116 4.44854E-10-1.41411E-08-2.19063E-08
 -1      2117 5.11480E-10-1.41384E-08-2.19124E-08
 -1      2118 5.69342E-10-1.41428E-08-2.19236E-08
 -1      2119 6.20962E-10-1.41473E-08-2.19337E-08
 -1      2120 6.84730E-10-1.41466E-08-2.19402E-08
 -1      2121 7.96426E-10-1.41274E-08-2.19249E-08
 -1      2122 9.83675E-10-1.40624E-08-2.18303E-08
 -1      2123 1.14557E-09-1.39328E-08-2.15701E-08
 -1      2124 8.85595E-10-1.38184E-08-2.12284E-08
 -1      2125 5.97693E-11-1.40088E-08-2.15301E-08
 -1      2126 8.13680E-10-1.47555E-08-2.34650E-08
 -1      2127 6.75033E-09-1.46010E-08-2.43674E-08
 -1      2128 1.28854E-08-9.86678E-09-1.57569E-08
 -1      2129 1.09784E-08-3.65060E-09-4.30350E-09
 -1      2130 5.16181E-09-8.15452E-10-1.49960E-10
 -1      2131 1.90299E-09-9.98193E-11 2.65868E-10
 -1      2132-1.27142E-08-3.12574E-09-1.03173E-08
 -1      2133-1.03627E-08-5.55960E-09-1.95881E-08
 -1      2134-5.45261E-09-7.06860E-09-2.43390E-08
 -1      2135-1.83366E-09-7.61397E-09-2.56073E-08
 -1      2136-2.08842E-10-7.68832E-09-2.54478E-08
 -1      2137 2.79512E-10-7.64268E-09-2.51500E-08
 -1      2138 4.06629E-10-7.60437E-09-2.50070E-08
 -1      2139 4.73588E-10-7.58986E-09-2.49733E-08
 -1      2140 5.36915E-10-7.58810E-09-2.49781E-08
 -1      2141 5.93639E-10-7.59026E-09-2.49894E-08
 -1      2142 6.44599E-10-7.59257E-09-2.50001E-08
 -1      2143 7.08620E-10-7.59219E-09-2.50072E-08
 -1      2144 8.24412E-10-7.58202E-09-2.49903E-08
 -1      2145 1.02520E-09-7.54739E-09-2.48858E-08
 -1      2146 1.20598E-09-7.47828E-09-2.45945E-08
 -1      2147 9.13983E-10-7.41689E-09-2.42006E-08
 -1      2148-7.27918E-11-7.51782E-09-2.45205E-08
 -1      2149 6.21611E-10-7.92467E-09-2.67453E-08
 -1      2150 7.18117E-09-7.86355E-09-2.78866E-08
 -1      2151 1.40549E-08-5.31305E-09-1.80267E-08
 -1      2152 1.18811E-08-1.94878E-09-4.85249E-09
 -1      2153 5.38323E-09-4.32237E-10-1.62774E-10
 -1      2154 1.86284E-09-5.17723E-11 2.81732E-10
 -1      2155-1.30682E-08-1.22488E-20-1.07558E-08
 -1      2156-1.06261E-08-1.79314E-20-2.04517E-08
 -1      2157-5.55452E-09-2.19913E-20-2.54192E-08
 -1      2158-1.83512E-09-2.39858E-20-2.67382E-08
 -1      2159-1.84158E-10-2.47082E-20-2.65701E-08
 -1      2160 3.00099E-10-2.49082E-20-2.62595E-08
 -1      2161 4.20500E-10-2.49487E-20-2.61100E-08
 -1      2162 4.84051E-10-2.49555E-20-2.60743E-08
 -1      2163 5.46179E-10-2.49577E-20-2.60786E-08
 -1      2164 6.02500E-10-2.49587E-20-2.60900E-08
 -1      2165 6.53245E-10-2.49845E-20-2.61009E-08
 -1      2166 7.17401E-10-2.49693E-20-2.61082E-08
 -1      2167 8.34746E-10-2.49396E-20-2.60907E-08
 -1      2168 1.04049E-09-2.48551E-20-2.59826E-08
 -1      2169 1.22797E-09-2.46168E-20-2.56802E-08
 -1      2170 9.23934E-10-2.44326E-20-2.52675E-08
 -1      2171-1.20930E-10-2.43930E-20-2.55941E-08
 -1      2172 5.53745E-10-2.43967E-20-2.79242E-08
 -1      2173 7.34027E-09-2.25816E-20-2.91532E-08
 -1      2174 1.44825E-08-1.60873E-20-1.88453E-08
 -1      2175 1.22133E-08-8.24437E-21-5.04993E-09
 -1      2176 5.46752E-09-3.51318E-21-1.66961E-10
 -1      2177 1.85012E-09-1.45210E-21 2.87588E-10
 -1      2178-1.27142E-08 3.12574E-09-1.03173E-08
 -1      2179-1.03627E-08 5.55960E-09-1.95881E-08
 -1      2180-5.45261E-09 7.06860E-09-2.43390E-08
 -1      2181-1.83366E-09 7.61397E-09-2.56073E-08
 -1      2182-2.08842E-10 7.68832E-09-2.54478E-08
 -1      2183 2.79512E-10 7.64268E-09-2.51500E-08
 -1      2184 4.06629E-10 7.60437E-09-2.50070E-08
 -1      2185 4.73588E-10 7.58986E-09-2.49733E-08
 -1      2186 5.36915E-10 7.58810E-09-2.49781E-08
 -1      2187 5.93639E-10 7.59026E-09-2.49894E-08
 -1      2188 6.44599E-10 7.59257E-09-2.50001E-08
 -1      2189 7.08620E-10 7.59219E-09-2.50072E-08
 -1      2190 8.24412E-10 7.58202E-09-2.49903E-08
 -1      2191 1.02520E-09 7.54739E-09-2.48858E-08
 -1      2192 1.20598E-09 7.47828E-09-2.45945E-08
 -1      2193 9.13983E-10 7.41689E-09-2.42006E-08
 -1      2194-7.27918E-11 7.51782E-09-2.45205E-08
 -1      2195 6.21611E-10 7.92467E-09-2.67453E-08
 -1      2196 7.18117E-09 7.86355E-09-2.78866E-08
 -1      2197 1.40549E-08 5.31305E-09-1.80267E-08
 -1      2198 1.18811E-08 1.94878E-09-4.85249E-09
 -1      2199 5.38323E-09 4.32237E-10-1.62774E-10
 -1      2200 1.86284E-09 5.17723E-11 2.81732E-10
 -1      2201-1.17454E-08 5.85737E-09-9.08888E-09
 -1      2202-9.64558E-09 1.03505E-08-1.71776E-08
 -1      2203-5.18046E-09 1.31584E-08-2.13278E-08
 -1      2204-1.83496E-09 1.41793E-08-2.24558E-08
 -1      2205-2.78663E-10 1.43209E-08-2.23206E-08
 -1      2206 2.22512E-10 1.42376E-08-2.20589E-08
 -1      2207 3.68480E-10 1.41673E-08-2.19339E-08
 -1      2208 4.44854E-10 1.41411E-08-2.19063E-08
 -1      2209 5.11480E-10 1.41384E-08-2.19124E-08
 -1      2210 5.69342E-10 1.41428E-08-2.19236E-08
 -1      2211 6.20962E-10 1.41473E-08-2.19337E-08
 -1      2212 6.84730E-10 1.41466E-08-2.19402E-08
 -1      2213 7.96426E-10 1.41274E-08-2.19249E-08
 -1      2214 9.83675E-10 1.40624E-08-2.18303E-08
 -1      2215 1.14557E-09 1.39328E-08-2.15701E-08
 -1      2216 8.85595E-10 1.38184E-08-2.12284E-08
 -1      2217 5.97693E-11 1.40088E-08-2.15301E-08
 -1      2218 8.13680E-10 1.47555E-08-2.34650E-08
 -1      2219 6.75033E-09 1.46010E-08-2.43674E-08
 -1      2220 1.28854E-08 9.86678E-09-1.57569E-08
 -1      2221 1.09784E-08 3.65060E-09-4.30350E-09
 -1      2222 5.16181E-09 8.15452E-10-1.49960E-10
 -1      2223 1.90299E-09 9.98193E-11 2.65868E-10
 -1      2224-1.04390E-08 7.89660E-09-7.32950E-09
 -1      2225-8.69204E-09 1.38005E-08-1.37493E-08
 -1      2226-4.83823E-09 1.75469E-08-1.70540E-08
 -1      2227-1.85565E-09 1.89221E-08-1.79859E-08
 -1      2228-3.81136E-10 1.91196E-08-1.78867E-08
 -1      2229 1.42748E-10 1.90133E-08-1.76770E-08
 -1      2230 3.15789E-10 1.89226E-08-1.75784E-08
 -1      2231 4.05179E-10 1.88898E-08-1.75598E-08
 -1      2232 4.76321E-10 1.88877E-08-1.75679E-08
 -1      2233 5.35857E-10 1.88945E-08-1.75790E-08
 -1      2234 5.88616E-10 1.89009E-08-1.75883E-08
 -1      2235 6.52462E-10 1.89000E-08-1.75942E-08
 -1      2236 7.59186E-10 1.88738E-08-1.75810E-08
 -1      2237 9.28345E-10 1.87855E-08-1.75004E-08
 -1      2238 1.06307E-09 1.86108E-08-1.72841E-08
 -1      2239 8.43247E-10 1.84581E-08-1.70162E-08
 -1      2240 2.41094E-10 1.87170E-08-1.72923E-08
 -1      2241 1.09552E-09 1.96929E-08-1.88246E-08
 -1      2242 6.18877E-09 1.93990E-08-1.94020E-08
 -1      2243 1.13140E-08 1.31192E-08-1.25653E-08
 -1      2244 9.78434E-09 4.92418E-09-3.52714E-09
 -1      2245 4.89576E-09 1.11259E-09-1.28916E-10
 -1      2246 1.97595E-09 1.42244E-10 2.44729E-10
 -1      2247-9.24088E-09 9.13881E-09-5.50233E-09
 -1      2248-7.85759E-09 1.57297E-08-1.02069E-08
 -1      2249-4.59199E-09 2.00119E-08-1.26509E-08
 -1      2250-1.92218E-09 2.16041E-08-1.33923E-08
 -1      2251-4.96463E-10 2.18478E-08-1.33369E-08
 -1      2252 6.08065E-11 2.17377E-08-1.31846E-08
 -1      2253 2.62779E-10 2.16407E-08-1.31150E-08
 -1      2254 3.64759E-10 2.16077E-08-1.31067E-08
 -1      2255 4.40238E-10 2.16084E-08-1.31177E-08
 -1      2256 5.01675E-10 2.16179E-08-1.31292E-08
 -1      2257 5.56100E-10 2.16261E-08-1.31379E-08
 -1      2258 6.21074E-10 2.16251E-08-1.31431E-08
 -1      2259 7.24706E-10 2.15939E-08-1.31317E-08
 -1      2260 8.77789E-10 2.14903E-08-1.30649E-08
 -1      2261 9.84228E-10 2.12882E-08-1.28934E-08
 -1      2262 7.94557E-10 2.11140E-08-1.27016E-08
 -1      2263 4.11010E-10 2.14150E-08-1.29525E-08
 -1      2264 1.40947E-09 2.25000E-08-1.40733E-08
 -1      2265 5.73387E-09 2.20339E-08-1.43175E-08
 -1      2266 9.90411E-09 1.49289E-08-9.31541E-09
 -1      2267 8.75634E-09 5.71472E-09-2.74886E-09
 -1      2268 4.73407E-09 1.31438E-09-1.15060E-10
 -1      2269 2.08877E-09 1.80896E-10 2.22746E-10
 -1      2270-8.75343E-09 9.86559E-09-4.23397E-09
 -1      2271-7.64460E-09 1.66913E-08-7.71479E-09
 -1      2272-4.68108E-09 2.12426E-08-9.57633E-09
 -1      2273-2.06570E-09 2.29738E-08-1.02184E-08
 -1      2274-6.00533E-10 2.32740E-08-1.02154E-08
 -1      2275 2.47965E-12 2.31799E-08-1.01133E-08
 -1      2276 2.25561E-10 2.30898E-08-1.00687E-08
 -1      2277 3.34208E-10 2.30630E-08-1.00704E-08
 -1      2278 4.11937E-10 2.30692E-08-1.00852E-08
 -1      2279 4.75110E-10 2.30827E-08-1.00980E-08
 -1      2280 5.31793E-10 2.30929E-08-1.01069E-08
 -1      2281 5.99911E-10 2.30917E-08-1.01114E-08
 -1      2282 7.06228E-10 2.30561E-08-1.01004E-08
 -1      2283 8.54569E-10 2.29411E-08-1.00415E-08
 -1      2284 9.41864E-10 2.27226E-08-9.90007E-09
 -1      2285 7.51959E-10 2.25405E-08-9.76370E-09
 -1      2286 4.82554E-10 2.28619E-08-9.99846E-09
 -1      2287 1.65886E-09 2.39622E-08-1.08138E-08
 -1      2288 5.72218E-09 2.32998E-08-1.07790E-08
 -1      2289 9.47145E-09 1.58431E-08-7.08840E-09
 -1      2290 8.54409E-09 6.22759E-09-2.28174E-09
 -1      2291 4.87361E-09 1.48697E-09-1.48597E-10
 -1      2292 2.24585E-09 2.26430E-10 1.99028E-10
 -1      2293-1.53200E-08-1.69814E-08-9.45234E-09
 -1      2294-1.24571E-08-2.87817E-08-1.60668E-08
 -1      2295-7.78395E-09-3.66936E-08-2.01177E-08
 -1      2296-3.54871E-09-3.97034E-08-2.12457E-08
 -1      2297-1.10930E-09-4.02549E-08-2.10716E-08
 -1      2298-2.66193E-11-4.01189E-08-2.07681E-08
 -1      2299 4.26423E-10-3.99802E-08-2.06454E-08
 -1      2300 6.61576E-10-3.99437E-08-2.06413E-08
 -1      2301 8.21648E-10-3.99601E-08-2.06692E-08
 -1      2302 9.44579E-10-3.99865E-08-2.06941E-08
 -1      2303 1.05081E-09-4.00056E-08-2.07126E-08
 -1      2304 1.17179E-09-4.00034E-08-2.07256E-08
 -1      2305 1.34975E-09-3.99411E-08-2.07108E-08
 -1      2306 1.59373E-09-3.97420E-08-2.05925E-08
 -1      2307 1.76403E-09-3.93636E-08-2.02763E-08
 -1      2308 1.55793E-09-3.90352E-08-1.99413E-08
 -1      2309 1.26883E-09-3.95279E-08-2.04911E-08
 -1      2310 3.16716E-09-4.14166E-08-2.25710E-08
 -1      2311 9.34281E-09-4.05198E-08-2.28189E-08
 -1      2312 1.49801E-08-2.74738E-08-1.47635E-08
 -1      2313 1.36076E-08-1.06432E-08-4.20070E-09
 -1      2314 8.07766E-09-2.58982E-09 2.71876E-10
 -1      2315 4.25397E-09-4.19949E-10 5.53706E-10
 -1      2316-1.62151E-08-1.52786E-08-1.23020E-08
 -1      2317-1.27304E-08-2.64053E-08-2.15205E-08
 -1      2318-7.59047E-09-3.36242E-08-2.68092E-08
 -1      2319-3.27000E-09-3.63012E-08-2.80942E-08
 -1      2320-9.16673E-10-3.67361E-08-2.77884E-08
 -1      2321 8.60764E-11-3.65729E-08-2.73759E-08
 -1      2322 5.03728E-10-3.64254E-08-2.72016E-08
 -1      2323 7.28133E-10-3.63797E-08-2.71765E-08
 -1      2324 8.84455E-10-3.63868E-08-2.71959E-08
 -1      2325 1.00437E-09-3.64064E-08-2.72173E-08
 -1      2326 1.10664E-09-3.64218E-08-2.72352E-08
 -1      2327 1.22202E-09-3.64202E-08-2.72496E-08
 -1      2328 1.39461E-09-3.63669E-08-2.72350E-08
 -1      2329 1.64431E-09-3.61919E-08-2.71034E-08
 -1      2330 1.84717E-09-3.58506E-08-2.67257E-08
 -1      2331 1.65384E-09-3.55449E-08-2.62552E-08
 -1      2332 1.17490E-09-3.59907E-08-2.67951E-08
 -1      2333 2.73223E-09-3.78045E-08-2.95794E-08
 -1      2334 9.32874E-09-3.73221E-08-3.06253E-08
 -1      2335 1.56805E-08-2.51897E-08-1.95944E-08
 -1      2336 1.39060E-08-9.43157E-09-5.03771E-09
 -1      2337 7.78232E-09-2.20798E-09 4.07798E-10
 -1      2338 3.97918E-09-3.18630E-10 6.01304E-10
 -1      2339-1.82701E-08-1.29428E-08-1.66729E-08
 -1      2340-1.40109E-08-2.27597E-08-2.98610E-08
 -1      2341-7.91053E-09-2.89546E-08-3.71437E-08
 -1      2342-3.10116E-09-3.12059E-08-3.88068E-08
 -1      2343-6.95444E-10-3.15443E-08-3.83764E-08
 -1      2344 2.42488E-10-3.13838E-08-3.78311E-08
 -1      2345 6.11794E-10-3.12459E-08-3.75936E-08
 -1      2346 8.16004E-10-3.11994E-08-3.75466E-08
 -1      2347 9.65564E-10-3.12008E-08-3.75602E-08
 -1      2348 1.08240E-09-3.12148E-08-3.75810E-08
 -1      2349 1.18169E-09-3.12267E-08-3.76002E-08
 -1      2350 1.29460E-09-3.12255E-08-3.76165E-08
 -1      2351 1.47100E-09-3.11818E-08-3.75986E-08
 -1      2352 1.74458E-09-3.10359E-08-3.74382E-08
 -1      2353 1.99644E-09-3.07467E-08-3.69587E-08
 -1      2354 1.77198E-09-3.04831E-08-3.62901E-08
 -1      2355 9.25801E-10-3.08535E-08-3.68357E-08
 -1      2356 2.16455E-09-3.24635E-08-4.06432E-08
 -1      2357 1.00126E-08-3.23234E-08-4.27334E-08
 -1      2358 1.79804E-08-2.17549E-08-2.72344E-08
 -1      2359 1.55156E-08-7.90588E-09-6.62968E-09
 -1      2360 7.94335E-09-1.81096E-09 4.62835E-10
 -1      2361 3.75301E-09-2.42358E-10 6.55534E-10
 -1      2362-2.04963E-08-9.50425E-09-2.08476E-08
 -1      2363-1.54896E-08-1.69266E-08-3.79217E-08
 -1      2364-8.38958E-09-2.15300E-08-4.71688E-08
 -1      2365-3.00826E-09-2.31779E-08-4.92152E-08
 -1      2366-4.95818E-10-2.34145E-08-4.86721E-08
 -1      2367 3.95133E-10-2.32872E-08-4.80030E-08
 -1      2368 7.19026E-10-2.31801E-08-4.77076E-08
 -1      2369 9.02413E-10-2.31423E-08-4.76417E-08
 -1      2370 1.04498E-09-2.31412E-08-4.76513E-08
 -1      2371 1.15918E-09-2.31502E-08-4.76724E-08
 -1      2372 1.25640E-09-2.31585E-08-4.76934E-08
 -1      2373 1.36862E-09-2.31576E-08-4.77116E-08
 -1      2374 1.55200E-09-2.31260E-08-4.76900E-08
 -1      2375 1.85291E-09-2.30198E-08-4.75006E-08
 -1      2376 2.15196E-09-2.28076E-08-4.69209E-08
 -1      2377 1.87914E-09-2.26121E-08-4.60582E-08
 -1      2378 6.56180E-10-2.28783E-08-4.66115E-08
 -1      2379 1.64794E-09-2.41056E-08-5.14383E-08
 -1      2380 1.08677E-08-2.41553E-08-5.45879E-08
 -1      2381 2.05443E-08-1.62419E-08-3.47579E-08
 -1      2382 1.74018E-08-5.77443E-09-8.18726E-09
 -1      2383 8.27672E-09-1.30386E-09 5.23411E-10
 -1      2384 3.58943E-09-1.67615E-10 7.14711E-10
 -1      2385-2.21386E-08-5.04225E-09-2.37695E-08
 -1      2386-1.66031E-08-9.04620E-09-4.36091E-08
 -1      2387-8.77787E-09-1.15099E-08-5.42656E-08
 -1      2388-2.96472E-09-1.23843E-08-5.65904E-08
 -1      2389-3.58884E-10-1.25071E-08-5.59701E-08
 -1      2390 5.04362E-10-1.24372E-08-5.52147E-08
 -1      2391 7.96705E-10-1.23787E-08-5.48790E-08
 -1      2392 9.65040E-10-1.23576E-08-5.48004E-08
 -1      2393 1.10252E-09-1.23563E-08-5.48076E-08
 -1      2394 1.21494E-09-1.23608E-08-5.48291E-08
 -1      2395 1.31096E-09-1.23650E-08-5.48515E-08
 -1      2396 1.42320E-09-1.23645E-08-5.48711E-08
 -1      2397 1.61251E-09-1.23479E-08-5.48468E-08
 -1      2398 1.93395E-09-1.22918E-08-5.46365E-08
 -1      2399 2.26565E-09-1.21793E-08-5.39854E-08
 -1      2400 1.95201E-09-1.20752E-08-5.29850E-08
 -1      2401 4.58376E-10-1.22148E-08-5.35465E-08
 -1      2402 1.29674E-09-1.28826E-08-5.91144E-08
 -1      2403 1.15242E-08-1.29552E-08-6.30387E-08
 -1      2404 2.24453E-08-8.71314E-09-4.01534E-08
 -1      2405 1.88299E-08-3.06047E-09-9.29956E-09
 -1      2406 8.56818E-09-6.85052E-10 5.73271E-10
 -1      2407 3.49197E-09-8.65375E-11 7.59823E-10
 -1      2408-2.27363E-08-2.13715E-20-2.48074E-08
 -1      2409-1.70113E-08-2.94655E-20-4.56374E-08
 -1      2410-8.92411E-09-3.59899E-20-5.68021E-08
 -1      2411-2.95240E-09-3.96242E-20-5.92281E-08
 -1      2412-3.10388E-10-4.11337E-20-5.85806E-08
 -1      2413 5.43822E-10-4.16363E-20-5.77944E-08
 -1      2414 8.24955E-10-4.17847E-20-5.74446E-08
 -1      2415 9.87849E-10-4.18188E-20-5.73614E-08
 -1      2416 1.12347E-09-4.18306E-20-5.73678E-08
 -1      2417 1.23527E-09-4.18465E-20-5.73896E-08
 -1      2418 1.33089E-09-4.18545E-20-5.74124E-08
 -1      2419 1.44323E-09-4.18401E-20-5.74325E-08
 -1      2420 1.63479E-09-4.17768E-20-5.74072E-08
 -1      2421 1.96377E-09-4.16310E-20-5.71894E-08
 -1      2422 2.30697E-09-4.12510E-20-5.65127E-08
 -1      2423 1.97758E-09-4.09649E-20-5.54632E-08
 -1      2424 3.86538E-10-4.08765E-20-5.60284E-08
 -1      2425 1.17356E-09-4.02324E-20-6.18659E-08
 -1      2426 1.17660E-08-3.59608E-20-6.60707E-08
 -1      2427 2.31372E-08-2.64520E-20-4.20973E-08
 -1      2428 1.93548E-08-1.52016E-20-9.70045E-09
 -1      2429 8.68109E-09-6.99086E-21 5.92633E-10
 -1      2430 3.45979E-09-3.01464E-21 7.76551E-10
 -1      2431-2.21386E-08 5.04225E-09-2.37695E-08
 -1      2432-1.66031E-08 9.04620E-09-4.36091E-08
 -1      2433-8.77787E-09 1.15099E-08-5.42656E-08
 -1      2434-2.96472E-09 1.23843E-08-5.65904E-08
 -1      2435-3.58884E-10 1.25071E-08-5.59701E-08
 -1      2436 5.04362E-10 1.24372E-08-5.52147E-08
 -1      2437 7.96705E-10 1.23787E-08-5.48790E-08
 -1      2438 9.65040E-10 1.23576E-08-5.48004E-08
 -1      2439 1.10252E-09 1.23563E-08-5.48076E-08
 -1      2440 1.21494E-09 1.23608E-08-5.48291E-08
 -1      2441 1.31096E-09 1.23650E-08-5.48515E-08
 -1      2442 1.42320E-09 1.23645E-08-5.48711E-08
 -1      2443 1.61251E-09 1.23479E-08-5.48468E-08
 -1      2444 1.93395E-09 1.22918E-08-5.46365E-08
 -1      2445 2.26565E-09 1.21793E-08-5.39854E-08
 -1      2446 1.95201E-09 1.20752E-08-5.29850E-08
 -1      2447 4.58376E-10 1.22148E-08-5.35465E-08
 -1      2448 1.29674E-09 1.28826E-08-5.91144E-08
 -1      2449 1.15242E-08 1.29552E-08-6.30387E-08
 -1      2450 2.24453E-08 8.71314E-09-4.01534E-08
 -1      2451 1.88299E-08 3.06047E-09-9.29956E-09
 -1      2452 8.56818E-09 6.85052E-10 5.73271E-10
 -1      2453 3.49197E-09 8.65375E-11 7.59823E-10
 -1      2454-2.04963E-08 9.50425E-09-2.08476E-08
 -1      2455-1.54896E-08 1.69266E-08-3.79217E-08
 -1      2456-8.38958E-09 2.15300E-08-4.71688E-08
 -1      2457-3.00826E-09 2.31779E-08-4.92152E-08
 -1      2458-4.95818E-10 2.34145E-08-4.86721E-08
 -1      2459 3.95133E-10 2.32872E-08-4.80030E-08
 -1      2460 7.19026E-10 2.31801E-08-4.77076E-08
 -1      2461 9.02413E-10 2.31423E-08-4.76417E-08
 -1      2462 1.04498E-09 2.31412E-08-4.76513E-08
 -1      2463 1.15918E-09 2.31502E-08-4.76724E-08
 -1      2464 1.25640E-09 2.31585E-08-4.76934E-08
 -1      2465 1.36862E-09 2.31576E-08-4.77116E-08
 -1      2466 1.55200E-09 2.31260E-08-4.76900E-08
 -1      2467 1.85291E-09 2.30198E-08-4.75006E-08
 -1      2468 2.15196E-09 2.28076E-08-4.69209E-08
 -1      2469 1.87914E-09 2.26121E-08-4.60582E-08
 -1      2470 6.56180E-10 2.28783E-08-4.66115E-08
 -1      2471 1.64794E-09 2.41056E-08-5.14383E-08
 -1      2472 1.08677E-08 2.41553E-08-5.45879E-08
 -1      2473 2.05443E-08 1.62419E-08-3.47579E-08
 -1      2474 1.74018E-08 5.77443E-09-8.18726E-09
 -1      2475 8.27672E-09 1.30386E-09 5.23411E-10
 -1      2476 3.58943E-09 1.67615E-10 7.14711E-10
 -1      2477-1.82701E-08 1.29428E-08-1.66729E-08
 -1      2478-1.40109E-08 2.27597E-08-2.98610E-08
 -1      2479-7.91053E-09 2.89546E-08-3.71437E-08
 -1      2480-3.10116E-09 3.12059E-08-3.88068E-08
 -1      2481-6.95444E-10 3.15443E-08-3.83764E-08
 -1      2482 2.42488E-10 3.13838E-08-3.78311E-08
 -1      2483 6.11794E-10 3.12459E-08-3.75936E-08
 -1      2484 8.16004E-10 3.11994E-08-3.75466E-08
 -1      2485 9.65564E-10 3.12008E-08-3.75602E-08
 -1      2486 1.08240E-09 3.12148E-08-3.75810E-08
 -1      2487 1.18169E-09 3.12267E-08-3.76002E-08
 -1      2488 1.29460E-09 3.12255E-08-3.76165E-08
 -1      2489 1.47100E-09 3.11818E-08-3.75986E-08
 -1      2490 1.74458E-09 3.10359E-08-3.74382E-08
 -1      2491 1.99644E-09 3.07467E-08-3.69587E-08
 -1      2492 1.77198E-09 3.04831E-08-3.62901E-08
 -1      2493 9.25801E-10 3.08535E-08-3.68357E-08
 -1      2494 2.16455E-09 3.24635E-08-4.06432E-08
 -1      2495 1.00126E-08 3.23234E-08-4.27334E-08
 -1      2496 1.79804E-08 2.17549E-08-2.72344E-08
 -1      2497 1.55156E-08 7.90588E-09-6.62968E-09
 -1      2498 7.94335E-09 1.81096E-09 4.62835E-10
 -1      2499 3.75301E-09 2.42358E-10 6.55534E-10
 -1      2500-1.62151E-08 1.52786E-08-1.23020E-08
 -1      2501-1.27304E-08 2.64053E-08-2.15205E-08
 -1      2502-7.59047E-09 3.36242E-08-2.68092E-08
 -1      2503-3.27000E-09 3.63012E-08-2.80942E-08
 -1      2504-9.16673E-10 3.67361E-08-2.77884E-08
 -1      2505 8.60764E-11 3.65729E-08-2.73759E-08
 -1      2506 5.03728E-10 3.64254E-08-2.72016E-08
 -1      2507 7.28133E-10 3.63797E-08-2.71765E-08
 -1      2508 8.84455E-10 3.63868E-08-2.71959E-08
 -1      2509 1.00437E-09 3.64064E-08-2.72173E-08
 -1      2510 1.10664E-09 3.64218E-08-2.72352E-08
 -1      2511 1.22202E-09 3.64202E-08-2.72496E-08
 -1      2512 1.39461E-09 3.63669E-08-2.72350E-08
 -1      2513 1.64431E-09 3.61919E-08-2.71034E-08
 -1      2514 1.84717E-09 3.58506E-08-2.67257E-08
 -1      2515 1.65384E-09 3.55449E-08-2.62552E-08
 -1      2516 1.17490E-09 3.59907E-08-2.67951E-08
 -1      2517 2.73223E-09 3.78045E-08-2.95794E-08
 -1      2518 9.32874E-09 3.73221E-08-3.06253E-08
 -1      2519 1.56805E-08 2.51897E-08-1.95944E-08
 -1      2520 1.39060E-08 9.43157E-09-5.03771E-09
 -1      2521 7.78232E-09 2.20798E-09 4.07798E-10
 -1      2522 3.97918E-09 3.18630E-10 6.01304E-10
 -1      2523-1.53200E-08 1.69814E-08-9.45234E-09
 -1      2524-1.24571E-08 2.87817E-08-1.60668E-08
 -1      2525-7.78395E-09 3.66936E-08-2.01177E-08
 -1      2526-3.54871E-09 3.97034E-08-2.12457E-08
 -1      2527-1.10930E-09 4.02549E-08-2.10716E-08
 -1      2528-2.66193E-11 4.01189E-08-2.07681E-08
 -1      2529 4.26423E-10 3.99802E-08-2.06454E-08
 -1      2530 6.61576E-10 3.99437E-08-2.06413E-08
 -1      2531 8.21648E-10 3.99601E-08-2.06692E-08
 -1      2532 9.44579E-10 3.99865E-08-2.06941E-08
 -1      2533 1.05081E-09 4.00056E-08-2.07126E-08
 -1      2534 1.17179E-09 4.00034E-08-2.07256E-08
 -1      2535 1.34975E-09 3.99411E-08-2.07108E-08
 -1      2536 1.59373E-09 3.97420E-08-2.05925E-08
 -1      2537 1.76403E-09 3.93636E-08-2.02763E-08
 -1      2538 1.55793E-09 3.90352E-08-1.99413E-08
 -1      2539 1.26883E-09 3.95279E-08-2.04911E-08
 -1      2540 3.16716E-09 4.14166E-08-2.25710E-08
 -1      2541 9.34281E-09 4.05198E-08-2.28189E-08
 -1      2542 1.49801E-08 2.74738E-08-1.47635E-08
 -1      2543 1.36076E-08 1.06432E-08-4.20070E-09
 -1      2544 8.07766E-09 2.58982E-09 2.71876E-10
 -1      2545 4.25397E-09 4.19949E-10 5.53706E-10
 -1      2546-1.83613E-08-1.90611E-08-1.36171E-08
 -1      2547-1.45649E-08-3.29027E-08-2.24897E-08
 -1      2548-9.13626E-09-4.19835E-08-2.81043E-08
 -1      2549-4.35978E-09-4.53891E-08-2.94411E-08
 -1      2550-1.48616E-09-4.60149E-08-2.89727E-08
 -1      2551-8.21725E-11-4.58806E-08-2.84377E-08
 -1      2552 5.92702E-10-4.57475E-08-2.82272E-08
 -1      2553 9.66672E-10-4.57250E-08-2.82099E-08
 -1      2554 1.21116E-09-4.57557E-08-2.82440E-08
 -1      2555 1.38856E-09-4.57924E-08-2.82757E-08
 -1      2556 1.53515E-09-4.58174E-08-2.83011E-08
 -1      2557 1.69106E-09-4.58163E-08-2.83238E-08
 -1      2558 1.90311E-09-4.57462E-08-2.83131E-08
 -1      2559 2.18953E-09-4.55188E-08-2.81553E-08
 -1      2560 2.44526E-09-4.50748E-08-2.76938E-08
 -1      2561 2.40779E-09-4.46528E-08-2.71654E-08
 -1      2562 2.29921E-09-4.51059E-08-2.79930E-08
 -1      2563 4.29224E-09-4.73426E-08-3.13550E-08
 -1      2564 1.07167E-08-4.70961E-08-3.21292E-08
 -1      2565 1.66232E-08-3.16318E-08-2.04620E-08
 -1      2566 1.51264E-08-1.16316E-08-5.09346E-09
 -1      2567 9.44479E-09-2.80686E-09 1.08955E-09
 -1      2568 5.71780E-09-4.48657E-10 9.77943E-10
 -1      2569-1.95787E-08-1.76620E-08-1.93943E-08
 -1      2570-1.49427E-08-3.12495E-08-3.32933E-08
 -1      2571-8.83177E-09-3.97403E-08-4.13091E-08
 -1      2572-3.94430E-09-4.28181E-08-4.30148E-08
 -1      2573-1.20088E-09-4.33084E-08-4.23500E-08
 -1      2574 9.51443E-11-4.31296E-08-4.16377E-08
 -1      2575 7.24264E-10-4.29771E-08-4.13415E-08
 -1      2576 1.08433E-09-4.29398E-08-4.12909E-08
 -1      2577 1.32389E-09-4.29585E-08-4.13133E-08
 -1      2578 1.49728E-09-4.29872E-08-4.13414E-08
 -1      2579 1.63868E-09-4.30082E-08-4.13671E-08
 -1      2580 1.78720E-09-4.30079E-08-4.13919E-08
 -1      2581 1.99185E-09-4.29465E-08-4.13784E-08
 -1      2582 2.28367E-09-4.27421E-08-4.11900E-08
 -1      2583 2.58182E-09-4.23315E-08-4.06117E-08
 -1      2584 2.58625E-09-4.19256E-08-3.98271E-08
 -1      2585 2.23313E-09-4.23274E-08-4.05843E-08
 -1      2586 3.64619E-09-4.45199E-08-4.52193E-08
 -1      2587 1.07056E-08-4.49517E-08-4.76221E-08
 -1      2588 1.77599E-08-2.99686E-08-3.00327E-08
 -1      2589 1.55663E-08-1.04217E-08-6.80684E-09
 -1      2590 8.97273E-09-2.42972E-09 1.20241E-09
 -1      2591 5.34726E-09-3.44073E-10 1.00957E-09
 -1      2592-2.21930E-08-1.50910E-08-2.69044E-08
 -1      2593-1.64742E-08-2.73309E-08-4.77807E-08
 -1      2594-9.06681E-09-3.46763E-08-5.91035E-08
 -1      2595-3.61693E-09-3.72516E-08-6.13317E-08
 -1      2596-8.62314E-10-3.76168E-08-6.04185E-08
 -1      2597 3.36397E-10-3.74312E-08-5.94838E-08
 -1      2598 9.04024E-10-3.72832E-08-5.90869E-08
 -1      2599 1.23997E-09-3.72409E-08-5.90030E-08
 -1      2600 1.47190E-09-3.72508E-08-5.90172E-08
 -1      2601 1.64161E-09-3.72719E-08-5.90449E-08
 -1      2602 1.77904E-09-3.72884E-08-5.90730E-08
 -1      2603 1.92345E-09-3.72884E-08-5.91014E-08
 -1      2604 2.13091E-09-3.72381E-08-5.90837E-08
 -1      2605 2.44849E-09-3.70675E-08-5.88505E-08
 -1      2606 2.80991E-09-3.67176E-08-5.81069E-08
 -1      2607 2.82297E-09-3.63600E-08-5.69596E-08
 -1      2608 2.01165E-09-3.66750E-08-5.76012E-08
 -1      2609 2.76062E-09-3.86454E-08-6.40172E-08
 -1      2610 1.14488E-08-3.96060E-08-6.89300E-08
 -1      2611 2.08391E-08-2.62777E-08-4.32159E-08
 -1      2612 1.75150E-08-8.63844E-09-8.97994E-09
 -1      2613 8.93445E-09-1.96942E-09 1.41292E-09
 -1      2614 5.00980E-09-2.58158E-10 1.08194E-09
 -1      2615-2.49942E-08-1.10683E-08-3.40833E-08
 -1      2616-1.82456E-08-2.03781E-08-6.18920E-08
 -1      2617-9.49358E-09-2.58512E-08-7.65188E-08
 -1      2618-3.38291E-09-2.77278E-08-7.92803E-08
 -1      2619-5.51613E-10-2.79763E-08-7.81325E-08
 -1      2620 5.71926E-10-2.78265E-08-7.69860E-08
 -1      2621 1.08191E-09-2.77097E-08-7.64953E-08
 -1      2622 1.39325E-09-2.76735E-08-7.63823E-08
 -1      2623 1.61749E-09-2.76778E-08-7.63910E-08
 -1      2624 1.78421E-09-2.76916E-08-7.64195E-08
 -1      2625 1.91888E-09-2.77031E-08-7.64507E-08
 -1      2626 2.06140E-09-2.77031E-08-7.64828E-08
 -1      2627 2.27563E-09-2.76669E-08-7.64604E-08
 -1      2628 2.62315E-09-2.75431E-08-7.61819E-08
 -1      2629 3.04542E-09-2.72868E-08-7.52740E-08
 -1      2630 3.04583E-09-2.70213E-08-7.37683E-08
 -1      2631 1.76402E-09-2.72395E-08-7.42999E-08
 -1      2632 1.93119E-09-2.87566E-08-8.25246E-08
 -1      2633 1.23785E-08-2.97458E-08-9.00424E-08
 -1      2634 2.42271E-08-1.97382E-08-5.63940E-08
 -1      2635 1.98005E-08-6.25467E-09-1.10880E-08
 -1      2636 9.09978E-09-1.40116E-09 1.65275E-09
 -1      2637 4.74527E-09-1.77251E-10 1.16719E-09
 -1      2638-2.70197E-08-5.83177E-09-3.90026E-08
 -1      2639-1.95602E-08-1.08330E-08-7.16597E-08
 -1      2640-9.85275E-09-1.37573E-08-8.86464E-08
 -1      2641-3.24536E-09-1.47506E-08-9.17999E-08
 -1      2642-3.37837E-10-1.48792E-08-9.04938E-08
 -1      2643 7.39967E-10-1.47971E-08-8.92016E-08
 -1      2644 1.21037E-09-1.47331E-08-8.86463E-08
 -1      2645 1.50410E-09-1.47125E-08-8.85137E-08
 -1      2646 1.72278E-09-1.47138E-08-8.85190E-08
 -1      2647 1.88756E-09-1.47207E-08-8.85484E-08
 -1      2648 2.02059E-09-1.47265E-08-8.85820E-08
 -1      2649 2.16248E-09-1.47265E-08-8.86167E-08
 -1      2650 2.38261E-09-1.47074E-08-8.85907E-08
 -1      2651 2.75249E-09-1.46423E-08-8.82799E-08
 -1      2652 3.21634E-09-1.45073E-08-8.72565E-08
 -1      2653 3.19755E-09-1.43676E-08-8.55015E-08
 -1      2654 1.57900E-09-1.44817E-08-8.59677E-08
 -1      2655 1.37800E-09-1.53096E-08-9.55106E-08
 -1      2656 1.30810E-08-1.58969E-08-1.04857E-07
 -1      2657 2.66743E-08-1.05769E-08-6.57638E-08
 -1      2658 2.15126E-08-3.29981E-09-1.26045E-08
 -1      2659 9.28745E-09-7.31011E-10 1.83928E-09
 -1      2660 4.57900E-09-9.13912E-11 1.23393E-09
 -1      2661-2.77432E-08-2.61245E-20-4.07151E-08
 -1      2662-2.00349E-08-3.23854E-20-7.50744E-08
 -1      2663-9.98921E-09-3.96095E-20-9.29049E-08
 -1      2664-3.20074E-09-4.44412E-20-9.62024E-08
 -1      2665-2.62352E-10-4.67654E-20-9.48420E-08
 -1      2666 8.00379E-10-4.76372E-20-9.34988E-08
 -1      2667 1.25689E-09-4.79429E-20-9.29208E-08
 -1      2668 1.54430E-09-4.80417E-20-9.27815E-08
 -1      2669 1.76097E-09-4.80734E-20-9.27856E-08
 -1      2670 1.92507E-09-4.80783E-20-9.28154E-08
 -1      2671 2.05757E-09-4.80862E-20-9.28498E-08
 -1      2672 2.19933E-09-4.80630E-20-9.28853E-08
 -1      2673 2.42173E-09-4.79793E-20-9.28581E-08
 -1      2674 2.79968E-09-4.77722E-20-9.25357E-08
 -1      2675 3.27816E-09-4.73695E-20-9.14714E-08
 -1      2676 3.24995E-09-4.71195E-20-8.96292E-08
 -1      2677 1.51113E-09-4.70005E-20-9.00767E-08
 -1      2678 1.18997E-09-4.53513E-20-1.00096E-07
 -1      2679 1.33359E-08-3.69544E-20-1.10080E-07
 -1      2680 2.75432E-08-2.94558E-20-6.90991E-08
 -1      2681 2.21338E-08-2.07987E-20-1.31560E-08
 -1      2682 9.36704E-09-1.00899E-20 1.90831E-09
 -1      2683 4.52269E-09-4.57863E-21 1.25904E-09
 -1      2684-2.70197E-08 5.83177E-09-3.90026E-08
 -1      2685-1.95602E-08 1.08330E-08-7.16597E-08
 -1      2686-9.85275E-09 1.37573E-08-8.86464E-08
 -1      2687-3.24536E-09 1.47506E-08-9.17999E-08
 -1      2688-3.37837E-10 1.48792E-08-9.04938E-08
 -1      2689 7.39967E-10 1.47971E-08-8.92016E-08
 -1      2690 1.21037E-09 1.47331E-08-8.86463E-08
 -1      2691 1.50410E-09 1.47125E-08-8.85137E-08
 -1      2692 1.72278E-09 1.47138E-08-8.85190E-08
 -1      2693 1.88756E-09 1.47207E-08-8.85484E-08
 -1      2694 2.02059E-09 1.47265E-08-8.85820E-08
 -1      2695 2.16248E-09 1.47265E-08-8.86167E-08
 -1      2696 2.38261E-09 1.47074E-08-8.85907E-08
 -1      2697 2.75249E-09 1.46423E-08-8.82799E-08
 -1      2698 3.21634E-09 1.45073E-08-8.72565E-08
 -1      2699 3.19755E-09 1.43676E-08-8.55015E-08
 -1      2700 1.57900E-09 1.44817E-08-8.59677E-08
 -1      2701 1.37800E-09 1.53096E-08-9.55106E-08
 -1      2702 1.30810E-08 1.58969E-08-1.04857E-07
 -1      2703 2.66743E-08 1.05769E-08-6.57638E-08
 -1      2704 2.15126E-08 3.29981E-09-1.26045E-08
 -1      2705 9.28745E-09 7.31011E-10 1.83928E-09
 -1      2706 4.57900E-09 9.13912E-11 1.23393E-09
 -1      2707-2.49942E-08 1.10683E-08-3.40833E-08
 -1      2708-1.82456E-08 2.03781E-08-6.18920E-08
 -1      2709-9.49358E-09 2.58512E-08-7.65188E-08
 -1      2710-3.38291E-09 2.77278E-08-7.92803E-08
 -1      2711-5.51613E-10 2.79763E-08-7.81325E-08
 -1      2712 5.71926E-10 2.78265E-08-7.69860E-08
 -1      2713 1.08191E-09 2.77097E-08-7.64953E-08
 -1      2714 1.39325E-09 2.76735E-08-7.63823E-08
 -1      2715 1.61749E-09 2.76778E-08-7.63910E-08
 -1      2716 1.78421E-09 2.76916E-08-7.64195E-08
 -1      2717 1.91888E-09 2.77031E-08-7.64507E-08
 -1      2718 2.06140E-09 2.77031E-08-7.64828E-08
 -1      2719 2.27563E-09 2.76669E-08-7.64604E-08
 -1      2720 2.62315E-09 2.75431E-08-7.61819E-08
 -1      2721 3.04542E-09 2.72868E-08-7.52740E-08
 -1      2722 3.04583E-09 2.70213E-08-7.37683E-08
 -1      2723 1.76402E-09 2.72395E-08-7.42999E-08
 -1      2724 1.93119E-09 2.87566E-08-8.25246E-08
 -1      2725 1.23785E-08 2.97458E-08-9.00424E-08
 -1      2726 2.42271E-08 1.97382E-08-5.63940E-08
 -1      2727 1.98005E-08 6.25467E-09-1.10880E-08
 -1      2728 9.09978E-09 1.40116E-09 1.65275E-09
 -1      2729 4.74527E-09 1.77251E-10 1.16719E-09
 -1      2730-2.21930E-08 1.50910E-08-2.69044E-08
 -1      2731-1.64742E-08 2.73309E-08-4.77807E-08
 -1      2732-9.06681E-09 3.46763E-08-5.91035E-08
 -1      2733-3.61693E-09 3.72516E-08-6.13317E-08
 -1      2734-8.62314E-10 3.76168E-08-6.04185E-08
 -1      2735 3.36397E-10 3.74312E-08-5.94838E-08
 -1      2736 9.04024E-10 3.72832E-08-5.90869E-08
 -1      2737 1.23997E-09 3.72409E-08-5.90030E-08
 -1      2738 1.47190E-09 3.72508E-08-5.90172E-08
 -1      2739 1.64161E-09 3.72719E-08-5.90449E-08
 -1      2740 1.77904E-09 3.72884E-08-5.90730E-08
 -1      2741 1.92345E-09 3.72884E-08-5.91014E-08
 -1      2742 2.13091E-09 3.72381E-08-5.90837E-08
 -1      2743 2.44849E-09 3.70675E-08-5.88505E-08
 -1      2744 2.80991E-09 3.67176E-08-5.81069E-08
 -1      2745 2.82297E-09 3.63600E-08-5.69596E-08
 -1      2746 2.01165E-09 3.66750E-08-5.76012E-08
 -1      2747 2.76062E-09 3.86454E-08-6.40172E-08
 -1      2748 1.14488E-08 3.96060E-08-6.89300E-08
 -1      2749 2.08391E-08 2.62777E-08-4.32159E-08
 -1      2750 1.75150E-08 8.63844E-09-8.97994E-09
 -1      2751 8.93445E-09 1.96942E-09 1.41292E-09
 -1      2752 5.00980E-09 2.58158E-10 1.08194E-09
 -1      2753-1.95787E-08 1.76620E-08-1.93943E-08
 -1      2754-1.49427E-08 3.12495E-08-3.32933E-08
 -1      2755-8.83177E-09 3.97403E-08-4.13091E-08
 -1      2756-3.94430E-09 4.28181E-08-4.30148E-08
 -1      2757-1.20088E-09 4.33084E-08-4.23500E-08
 -1      2758 9.51443E-11 4.31296E-08-4.16377E-08
 -1      2759 7.24264E-10 4.29771E-08-4.13415E-08
 -1      2760 1.08433E-09 4.29398E-08-4.12909E-08
 -1      2761 1.32389E-09 4.29585E-08-4.13133E-08
 -1      2762 1.49728E-09 4.29872E-08-4.13414E-08
 -1      2763 1.63868E-09 4.30082E-08-4.13671E-08
 -1      2764 1.78720E-09 4.30079E-08-4.13919E-08
 -1      2765 1.99185E-09 4.29465E-08-4.13784E-08
 -1      2766 2.28367E-09 4.27421E-08-4.11900E-08
 -1      2767 2.58182E-09 4.23315E-08-4.06117E-08
 -1      2768 2.58625E-09 4.19256E-08-3.98271E-08
 -1      2769 2.23313E-09 4.23274E-08-4.05843E-08
 -1      2770 3.64619E-09 4.45199E-08-4.52193E-08
 -1      2771 1.07056E-08 4.49517E-08-4.76221E-08
 -1      2772 1.77599E-08 2.99686E-08-3.00327E-08
 -1      2773 1.55663E-08 1.04217E-08-6.80684E-09
 -1      2774 8.97273E-09 2.42972E-09 1.20241E-09
 -1      2775 5.34726E-09 3.44073E-10 1.00957E-09
 -1      2776-1.83613E-08 1.90611E-08-1.36171E-08
 -1      2777-1.45649E-08 3.29027E-08-2.24897E-08
 -1      2778-9.13626E-09 4.19835E-08-2.81043E-08
 -1      2779-4.35978E-09 4.53891E-08-2.94411E-08
 -1      2780-1.48616E-09 4.60149E-08-2.89727E-08
 -1      2781-8.21725E-11 4.58806E-08-2.84377E-08
 -1      2782 5.92702E-10 4.57475E-08-2.82272E-08
 -1      2783 9.66672E-10 4.57250E-08-2.82099E-08
 -1      2784 1.21116E-09 4.57557E-08-2.82440E-08
 -1      2785 1.38856E-09 4.57924E-08-2.82757E-08
 -1      2786 1.53515E-09 4.58174E-08-2.83011E-08
 -1      2787 1.69106E-09 4.58163E-08-2.83238E-08
 -1      2788 1.90311E-09 4.57462E-08-2.83131E-08
 -1      2789 2.18953E-09 4.55188E-08-2.81553E-08
 -1      2790 2.44526E-09 4.50748E-08-2.76938E-08
 -1      2791 2.40779E-09 4.46528E-08-2.71654E-08
 -1      2792 2.29921E-09 4.51059E-08-2.79930E-08
 -1      2793 4.29224E-09 4.73426E-08-3.13550E-08
 -1      2794 1.07167E-08 4.70961E-08-3.21292E-08
 -1      2795 1.66232E-08 3.16318E-08-2.04620E-08
 -1      2796 1.51264E-08 1.16316E-08-5.09346E-09
 -1      2797 9.44479E-09 2.80686E-09 1.08955E-09
 -1      2798 5.71780E-09 4.48657E-10 9.77943E-10
 -1      2799-1.79230E-08-1.59682E-08-1.62478E-08
 -1      2800-1.40854E-08-2.84054E-08-2.63406E-08
 -1      2801-8.97464E-09-3.63790E-08-3.28097E-08
 -1      2802-4.59449E-09-3.93876E-08-3.41523E-08
 -1      2803-1.76513E-09-3.99685E-08-3.33960E-08
 -1      2804-1.69851E-10-3.98968E-08-3.26606E-08
 -1      2805 7.13758E-10-3.98259E-08-3.23699E-08
 -1      2806 1.22863E-09-3.98415E-08-3.23325E-08
 -1      2807 1.55260E-09-3.98912E-08-3.23642E-08
 -1      2808 1.77570E-09-3.99362E-08-3.23966E-08
 -1      2809 1.95239E-09-3.99644E-08-3.24253E-08
 -1      2810 2.12666E-09-3.99662E-08-3.24556E-08
 -1      2811 2.33917E-09-3.99043E-08-3.24520E-08
 -1      2812 2.61553E-09-3.96995E-08-3.22754E-08
 -1      2813 2.93575E-09-3.92893E-08-3.17262E-08
 -1      2814 3.20944E-09-3.88668E-08-3.10631E-08
 -1      2815 3.52642E-09-3.91530E-08-3.20805E-08
 -1      2816 5.17359E-09-4.11168E-08-3.64605E-08
 -1      2817 1.00787E-08-4.18989E-08-3.75889E-08
 -1      2818 1.46213E-08-2.77843E-08-2.36811E-08
 -1      2819 1.34041E-08-9.50212E-09-5.31448E-09
 -1      2820 9.22714E-09-2.31165E-09 1.92623E-09
 -1      2821 6.68513E-09-3.37569E-10 1.33473E-09
 -1      2822-1.91282E-08-1.56310E-08-2.53676E-08
 -1      2823-1.43627E-08-2.88871E-08-4.33844E-08
 -1      2824-8.45292E-09-3.66379E-08-5.35117E-08
 -1      2825-4.01987E-09-3.93885E-08-5.54105E-08
 -1      2826-1.37868E-09-3.98179E-08-5.43889E-08
 -1      2827 9.02608E-11-3.96763E-08-5.34070E-08
 -1      2828 9.23896E-10-3.95691E-08-5.29971E-08
 -1      2829 1.42432E-09-3.95615E-08-5.29153E-08
 -1      2830 1.74299E-09-3.95964E-08-5.29333E-08
 -1      2831 1.96144E-09-3.96328E-08-5.29629E-08
 -1      2832 2.13208E-09-3.96571E-08-5.29932E-08
 -1      2833 2.29749E-09-3.96596E-08-5.30264E-08
 -1      2834 2.49984E-09-3.96043E-08-5.30167E-08
 -1      2835 2.77796E-09-3.94159E-08-5.27898E-08
 -1      2836 3.13832E-09-3.90250E-08-5.20656E-08
 -1      2837 3.49009E-09-3.85895E-08-5.10147E-08
 -1      2838 3.59842E-09-3.88042E-08-5.18088E-08
 -1      2839 4.39463E-09-4.07463E-08-5.80436E-08
 -1      2840 9.97489E-09-4.28932E-08-6.21866E-08
 -1      2841 1.59584E-08-2.79567E-08-3.86635E-08
 -1      2842 1.37260E-08-8.43940E-09-7.73815E-09
 -1      2843 8.50101E-09-2.05086E-09 1.99990E-09
 -1      2844 6.26029E-09-2.57742E-10 1.31104E-09
 -1      2845-2.18115E-08-1.38745E-08-3.70094E-08
 -1      2846-1.57901E-08-2.65665E-08-6.64777E-08
 -1      2847-8.35531E-09-3.34901E-08-8.14944E-08
 -1      2848-3.46073E-09-3.58081E-08-8.39993E-08
 -1      2849-8.99763E-10-3.61026E-08-8.25598E-08
 -1      2850 4.45140E-10-3.59333E-08-8.12456E-08
 -1      2851 1.21147E-09-3.58156E-08-8.06916E-08
 -1      2852 1.68884E-09-3.57949E-08-8.05651E-08
 -1      2853 2.00076E-09-3.58174E-08-8.05736E-08
 -1      2854 2.21567E-09-3.58449E-08-8.06039E-08
 -1      2855 2.38163E-09-3.58645E-08-8.06387E-08
 -1      2856 2.54122E-09-3.58670E-08-8.06778E-08
 -1      2857 2.74223E-09-3.58210E-08-8.06632E-08
 -1      2858 3.04348E-09-3.56614E-08-8.03713E-08
 -1      2859 3.46260E-09-3.53199E-08-7.94044E-08
 -1      2860 3.88855E-09-3.49158E-08-7.77836E-08
 -1      2861 3.61036E-09-3.50431E-08-7.81553E-08
 -1      2862 3.18635E-09-3.68258E-08-8.69726E-08
 -1      2863 1.05133E-08-3.98671E-08-9.67074E-08
 -1      2864 1.95325E-08-2.57636E-08-5.94031E-08
 -1      2865 1.55377E-08-6.87525E-09-9.97805E-09
 -1      2866 8.00109E-09-1.68380E-09 2.37056E-09
 -1      2867 5.85596E-09-1.91993E-10 1.34816E-09
 -1      2868-2.46912E-08-1.01353E-08-4.79751E-08
 -1      2869-1.74878E-08-1.98491E-08-8.88870E-08
 -1      2870-8.46730E-09-2.50462E-08-1.08812E-07
 -1      2871-3.00302E-09-2.67401E-08-1.11920E-07
 -1      2872-4.53059E-10-2.69381E-08-1.10073E-07
 -1      2873 7.92437E-10-2.68000E-08-1.08439E-07
 -1      2874 1.49605E-09-2.67037E-08-1.07749E-07
 -1      2875 1.95006E-09-2.66822E-08-1.07583E-07
 -1      2876 2.25543E-09-2.66950E-08-1.07585E-07
 -1      2877 2.46771E-09-2.67132E-08-1.07617E-07
 -1      2878 2.63040E-09-2.67268E-08-1.07657E-07
 -1      2879 2.78662E-09-2.67285E-08-1.07702E-07
 -1      2880 2.99077E-09-2.66952E-08-1.07683E-07
 -1      2881 3.31963E-09-2.65793E-08-1.07326E-07
 -1      2882 3.79456E-09-2.63308E-08-1.06120E-07
 -1      2883 4.27240E-09-2.60343E-08-1.03937E-07
 -1      2884 3.59165E-09-2.61139E-08-1.03893E-07
 -1      2885 2.02229E-09-2.75104E-08-1.15376E-07
 -1      2886 1.12125E-08-3.01090E-08-1.30980E-07
 -1      2887 2.34555E-08-1.95819E-08-8.03071E-08
 -1      2888 1.77420E-08-4.93057E-09-1.20026E-08
 -1      2889 7.70377E-09-1.19881E-09 2.83067E-09
 -1      2890 5.52910E-09-1.32937E-10 1.40996E-09
 -1      2891-2.66360E-08-5.15293E-09-5.49521E-08
 -1      2892-1.86786E-08-1.01853E-08-1.03317E-07
 -1      2893-8.60675E-09-1.29291E-08-1.26636E-07
 -1      2894-2.71832E-09-1.38269E-08-1.30202E-07
 -1      2895-1.50229E-10-1.39372E-08-1.28101E-07
 -1      2896 1.03531E-09-1.38659E-08-1.26260E-07
 -1      2897 1.69773E-09-1.38140E-08-1.25481E-07
 -1      2898 2.13541E-09-1.38011E-08-1.25289E-07
 -1      2899 2.43617E-09-1.38067E-08-1.25287E-07
 -1      2900 2.64679E-09-1.38157E-08-1.25321E-07
 -1      2901 2.80759E-09-1.38225E-08-1.25364E-07
 -1      2902 2.96213E-09-1.38231E-08-1.25413E-07
 -1      2903 3.16998E-09-1.38056E-08-1.25389E-07
 -1      2904 3.51747E-09-1.37452E-08-1.24989E-07
 -1      2905 4.03025E-09-1.36182E-08-1.23624E-07
 -1      2906 4.52579E-09-1.34724E-08-1.21075E-07
 -1      2907 3.54811E-09-1.35211E-08-1.20798E-07
 -1      2908 1.32249E-09-1.42968E-08-1.34231E-07
 -1      2909 1.17159E-08-1.55744E-08-1.53461E-07
 -1      2910 2.60421E-08-1.02936E-08-9.44885E-08
 -1      2911 1.93307E-08-2.61822E-09-1.35603E-08
 -1      2912 7.60016E-09-6.19753E-10 3.19370E-09
 -1      2913 5.31488E-09-7.08361E-11 1.46459E-09
 -1      2914-2.72825E-08-2.78541E-20-5.72003E-08
 -1      2915-1.90805E-08-3.02881E-20-1.07981E-07
 -1      2916-8.66386E-09-3.70479E-20-1.32472E-07
 -1      2917-2.62401E-09-4.26653E-20-1.36211E-07
 -1      2918-4.47668E-11-4.56657E-20-1.34031E-07
 -1      2919 1.12139E-09-4.69527E-20-1.32122E-07
 -1      2920 1.76995E-09-4.74164E-20-1.31314E-07
 -1      2921 2.20193E-09-4.76019E-20-1.31113E-07
 -1      2922 2.50104E-09-4.76265E-20-1.31109E-07
 -1      2923 2.71110E-09-4.76481E-20-1.31144E-07
 -1      2924 2.87128E-09-4.76205E-20-1.31188E-07
 -1      2925 3.02534E-09-4.76291E-20-1.31238E-07
 -1      2926 3.23468E-09-4.75150E-20-1.31213E-07
 -1      2927 3.58840E-09-4.72890E-20-1.30797E-07
 -1      2928 4.11391E-09-4.68937E-20-1.29380E-07
 -1      2929 4.61169E-09-4.67458E-20-1.26709E-07
 -1      2930 3.52280E-09-4.66235E-20-1.26373E-07
 -1      2931 1.11580E-09-4.37037E-20-1.40511E-07
 -1      2932 1.18930E-08-3.13979E-20-1.60819E-07
 -1      2933 2.68704E-08-2.80846E-20-9.92744E-08
 -1      2934 1.98797E-08-2.46582E-20-1.41715E-08
 -1      2935 7.58909E-09-1.26502E-20 3.33060E-09
 -1      2936 5.23898E-09-5.97110E-21 1.48696E-09
 -1      2937-2.66360E-08 5.15293E-09-5.49521E-08
 -1      2938-1.86786E-08 1.01853E-08-1.03317E-07
 -1      2939-8.60675E-09 1.29291E-08-1.26636E-07
 -1      2940-2.71832E-09 1.38269E-08-1.30202E-07
 -1      2941-1.50229E-10 1.39372E-08-1.28101E-07
 -1      2942 1.03531E-09 1.38659E-08-1.26260E-07
 -1      2943 1.69773E-09 1.38140E-08-1.25481E-07
 -1      2944 2.13541E-09 1.38011E-08-1.25289E-07
 -1      2945 2.43617E-09 1.38067E-08-1.25287E-07
 -1      2946 2.64679E-09 1.38157E-08-1.25321E-07
 -1      2947 2.80759E-09 1.38225E-08-1.25364E-07
 -1      2948 2.96213E-09 1.38231E-08-1.25413E-07
 -1      2949 3.16998E-09 1.38056E-08-1.25389E-07
 -1      2950 3.51747E-09 1.37452E-08-1.24989E-07
 -1      2951 4.03025E-09 1.36182E-08-1.23624E-07
 -1      2952 4.52579E-09 1.34724E-08-1.21075E-07
 -1      2953 3.54811E-09 1.35211E-08-1.20798E-07
 -1      2954 1.32249E-09 1.42968E-08-1.34231E-07
 -1      2955 1.17159E-08 1.55744E-08-1.53461E-07
 -1      2956 2.60421E-08 1.02936E-08-9.44885E-08
 -1      2957 1.93307E-08 2.61822E-09-1.35603E-08
 -1      2958 7.60016E-09 6.19753E-10 3.19370E-09
 -1      2959 5.31488E-09 7.08361E-11 1.46459E-09
 -1      2960-2.46912E-08 1.01353E-08-4.79751E-08
 -1      2961-1.74878E-08 1.98491E-08-8.88870E-08
 -1      2962-8.46730E-09 2.50462E-08-1.08812E-07
 -1      2963-3.00302E-09 2.67401E-08-1.11920E-07
 -1      2964-4.53059E-10 2.69381E-08-1.10073E-07
 -1      2965 7.92437E-10 2.68000E-08-1.08439E-07
 -1      2966 1.49605E-09 2.67037E-08-1.07749E-07
 -1      2967 1.95006E-09 2.66822E-08-1.07583E-07
 -1      2968 2.25543E-09 2.66950E-08-1.07585E-07
 -1      2969 2.46771E-09 2.67132E-08-1.07617E-07
 -1      2970 2.63040E-09 2.67268E-08-1.07657E-07
 -1      2971 2.78662E-09 2.67285E-08-1.07702E-07
 -1      2972 2.99077E-09 2.66952E-08-1.07683E-07
 -1      2973 3.31963E-09 2.65793E-08-1.07326E-07
 -1      2974 3.79456E-09 2.63308E-08-1.06120E-07
 -1      2975 4.27240E-09 2.60343E-08-1.03937E-07
 -1      2976 3.59165E-09 2.61139E-08-1.03893E-07
 -1      2977 2.02229E-09 2.75104E-08-1.15376E-07
 -1      2978 1.12125E-08 3.01090E-08-1.30980E-07
 -1      2979 2.34555E-08 1.95819E-08-8.03071E-08
 -1      2980 1.77420E-08 4.93057E-09-1.20026E-08
 -1      2981 7.70377E-09 1.19881E-09 2.83067E-09
 -1      2982 5.52910E-09 1.32937E-10 1.40996E-09
 -1      2983-2.18115E-08 1.38745E-08-3.70094E-08
 -1      2984-1.57901E-08 2.65665E-08-6.64777E-08
 -1      2985-8.35531E-09 3.34901E-08-8.14944E-08
 -1      2986-3.46073E-09 3.58081E-08-8.39993E-08
 -1      2987-8.99763E-10 3.61026E-08-8.25598E-08
 -1      2988 4.45140E-10 3.59333E-08-8.12456E-08
 -1      2989 1.21147E-09 3.58156E-08-8.06916E-08
 -1      2990 1.68884E-09 3.57949E-08-8.05651E-08
 -1      2991 2.00076E-09 3.58174E-08-8.05736E-08
 -1      2992 2.21567E-09 3.58449E-08-8.06039E-08
 -1      2993 2.38163E-09 3.58645E-08-8.06387E-08
 -1      2994 2.54122E-09 3.58670E-08-8.06778E-08
 -1      2995 2.74223E-09 3.58210E-08-8.06632E-08
 -1      2996 3.04348E-09 3.56614E-08-8.03713E-08
 -1      2997 3.46260E-09 3.53199E-08-7.94044E-08
 -1      2998 3.88855E-09 3.49158E-08-7.77836E-08
 -1      2999 3.61036E-09 3.50431E-08-7.81553E-08
 -1      3000 3.18635E-09 3.68258E-08-8.69726E-08
 -1      3001 1.05133E-08 3.98671E-08-9.67074E-08
 -1      3002 1.95325E-08 2.57636E-08-5.94031E-08
 -1      3003 1.55377E-08 6.87525E-09-9.97805E-09
 -1      3004 8.00109E-09 1.68380E-09 2.37056E-09
 -1      3005 5.85596E-09 1.91993E-10 1.34816E-09
 -1      3006-1.91282E-08 1.56310E-08-2.53676E-08
 -1      3007-1.43627E-08 2.88871E-08-4.33844E-08
 -1      3008-8.45292E-09 3.66379E-08-5.35117E-08
 -1      3009-4.01987E-09 3.93885E-08-5.54105E-08
 -1      3010-1.37868E-09 3.98179E-08-5.43889E-08
 -1      3011 9.02608E-11 3.96763E-08-5.34070E-08
 -1      3012 9.23896E-10 3.95691E-08-5.29971E-08
 -1      3013 1.42432E-09 3.95615E-08-5.29153E-08
 -1      3014 1.74299E-09 3.95964E-08-5.29333E-08
 -1      3015 1.96144E-09 3.96328E-08-5.29629E-08
 -1      3016 2.13208E-09 3.96571E-08-5.29932E-08
 -1      3017 2.29749E-09 3.96596E-08-5.30264E-08
 -1      3018 2.49984E-09 3.96043E-08-5.30167E-08
 -1      3019 2.77796E-09 3.94159E-08-5.27898E-08
 -1      3020 3.13832E-09 3.90250E-08-5.20656E-08
 -1      3021 3.49009E-09 3.85895E-08-5.10147E-08
 -1      3022 3.59842E-09 3.88042E-08-5.18088E-08
 -1      3023 4.39463E-09 4.07463E-08-5.80436E-08
 -1      3024 9.97489E-09 4.28932E-08-6.21866E-08
 -1      3025 1.59584E-08 2.79567E-08-3.86635E-08
 -1      3026 1.37260E-08 8.43940E-09-7.73815E-09
 -1      3027 8.50101E-09 2.05086E-09 1.99990E-09
 -1      3028 6.26029E-09 2.57742E-10 1.31104E-09
 -1      3029-1.79230E-08 1.59682E-08-1.62478E-08
 -1      3030-1.40854E-08 2.84054E-08-2.63406E-08
 -1      3031-8.97464E-09 3.63790E-08-3.28097E-08
 -1      3032-4.59449E-09 3.93876E-08-3.41523E-08
 -1      3033-1.76513E-09 3.99685E-08-3.33960E-08
 -1      3034-1.69851E-10 3.98968E-08-3.26606E-08
 -1      3035 7.13758E-10 3.98259E-08-3.23699E-08
 -1      3036 1.22863E-09 3.98415E-08-3.23325E-08
 -1      3037 1.55260E-09 3.98912E-08-3.23642E-08
 -1      3038 1.77570E-09 3.99362E-08-3.23966E-08
 -1      3039 1.95239E-09 3.99644E-08-3.24253E-08
 -1      3040 2.12666E-09 3.99662E-08-3.24556E-08
 -1      3041 2.33917E-09 3.99043E-08-3.24520E-08
 -1      3042 2.61553E-09 3.96995E-08-3.22754E-08
 -1      3043 2.93575E-09 3.92893E-08-3.17262E-08
 -1      3044 3.20944E-09 3.88668E-08-3.10631E-08
 -1      3045 3.52642E-09 3.91530E-08-3.20805E-08
 -1      3046 5.17359E-09 4.11168E-08-3.64605E-08
 -1      3047 1.00787E-08 4.18989E-08-3.75889E-08
 -1      3048 1.46213E-08 2.77843E-08-2.36811E-08
 -1      3049 1.34041E-08 9.50212E-09-5.31448E-09
 -1      3050 9.22714E-09 2.31165E-09 1.92623E-09
 -1      3051 6.68513E-09 3.37569E-10 1.33473E-09
 -1      3052-1.48505E-08-7.63042E-09-1.72620E-08
 -1      3053-1.15930E-08-1.41336E-08-2.73818E-08
 -1      3054-7.79398E-09-1.87878E-08-3.41043E-08
 -1      3055-4.53252E-09-2.08354E-08-3.53837E-08
 -1      3056-2.03581E-09-2.13907E-08-3.44565E-08
 -1      3057-3.13770E-10-2.14808E-08-3.35933E-08
 -1      3058 7.65434E-10-2.15289E-08-3.32375E-08
 -1      3059 1.40755E-09-2.16018E-08-3.31723E-08
 -1      3060 1.79511E-09-2.16731E-08-3.31923E-08
 -1      3061 2.05021E-09-2.17239E-08-3.32198E-08
 -1      3062 2.24625E-09-2.17524E-08-3.32478E-08
 -1      3063 2.42674E-09-2.17563E-08-3.32815E-08
 -1      3064 2.61583E-09-2.17130E-08-3.32828E-08
 -1      3065 2.83394E-09-2.15724E-08-3.31027E-08
 -1      3066 3.15908E-09-2.13058E-08-3.25323E-08
 -1      3067 3.79165E-09-2.10607E-08-3.18479E-08
 -1      3068 4.86302E-09-2.12105E-08-3.29809E-08
 -1      3069 6.18184E-09-2.20830E-08-3.79307E-08
 -1      3070 8.01809E-09-2.27547E-08-3.86888E-08
 -1      3071 9.50403E-09-1.51799E-08-2.43995E-08
 -1      3072 9.17790E-09-5.29237E-09-5.42587E-09
 -1      3073 8.08763E-09-1.47473E-09 2.45007E-09
 -1      3074 7.39938E-09-1.68241E-10 1.52357E-09
 -1      3075-1.49280E-08-8.51666E-09-2.89157E-08
 -1      3076-1.09273E-08-1.69669E-08-4.91391E-08
 -1      3077-6.78640E-09-2.16843E-08-6.03945E-08
 -1      3078-3.78403E-09-2.35583E-08-6.23209E-08
 -1      3079-1.55169E-09-2.39497E-08-6.10866E-08
 -1      3080 4.60989E-11-2.39503E-08-5.99311E-08
 -1      3081 1.08661E-09-2.39450E-08-5.94342E-08
 -1      3082 1.72052E-09-2.39867E-08-5.93175E-08
 -1      3083 2.10467E-09-2.40404E-08-5.93226E-08
 -1      3084 2.35537E-09-2.40821E-08-5.93480E-08
 -1      3085 2.54501E-09-2.41070E-08-5.93788E-08
 -1      3086 2.71528E-09-2.41113E-08-5.94159E-08
 -1      3087 2.88873E-09-2.40723E-08-5.94083E-08
 -1      3088 3.09469E-09-2.39392E-08-5.91647E-08
 -1      3089 3.43292E-09-2.36842E-08-5.83769E-08
 -1      3090 4.13916E-09-2.33897E-08-5.72269E-08
 -1      3091 5.21054E-09-2.34692E-08-5.79382E-08
 -1      3092 5.83077E-09-2.41271E-08-6.51604E-08
 -1      3093 7.50943E-09-2.71249E-08-7.01453E-08
 -1      3094 9.35075E-09-1.71210E-08-4.33057E-08
 -1      3095 8.33348E-09-4.28942E-09-8.23249E-09
 -1      3096 7.09719E-09-1.44688E-09 2.48832E-09
 -1      3097 6.97192E-09-1.19073E-10 1.41370E-09
 -1      3098-1.65062E-08-8.39592E-09-4.61747E-08
 -1      3099-1.12843E-08-1.78784E-08-8.49088E-08
 -1      3100-5.90871E-09-2.23046E-08-1.02793E-07
 -1      3101-2.93287E-09-2.38825E-08-1.05309E-07
 -1      3102-8.86728E-10-2.41242E-08-1.03414E-07
 -1      3103 5.71772E-10-2.40655E-08-1.01775E-07
 -1      3104 1.55803E-09-2.40270E-08-1.01082E-07
 -1      3105 2.17743E-09-2.40453E-08-1.00908E-07
 -1      3106 2.55854E-09-2.40828E-08-1.00904E-07
 -1      3107 2.80676E-09-2.41149E-08-1.00932E-07
 -1      3108 2.99153E-09-2.41352E-08-1.00970E-07
 -1      3109 3.15383E-09-2.41393E-08-1.01017E-07
 -1      3110 3.31908E-09-2.41067E-08-1.01004E-07
 -1      3111 3.52848E-09-2.39900E-08-1.00674E-07
 -1      3112 3.91028E-09-2.37639E-08-9.95322E-08
 -1      3113 4.65912E-09-2.34475E-08-9.75579E-08
 -1      3114 5.81167E-09-2.34558E-08-9.73239E-08
 -1      3115 4.79174E-09-2.38679E-08-1.07446E-07
 -1      3116 7.39378E-09-2.88308E-08-1.24616E-07
 -1      3117 1.19431E-08-1.77070E-08-7.44876E-08
 -1      3118 8.68516E-09-2.95045E-09-9.24984E-09
 -1      3119 5.95520E-09-1.34469E-09 2.78804E-09
 -1      3120 6.63845E-09-7.15791E-11 1.38064E-09
 -1      3121-1.83518E-08-5.47959E-09-6.22024E-08
 -1      3122-1.20117E-08-1.20968E-08-1.19603E-07
 -1      3123-5.28147E-09-1.53039E-08-1.44296E-07
 -1      3124-2.18822E-09-1.64520E-08-1.47389E-07
 -1      3125-2.58474E-10-1.66498E-08-1.44858E-07
 -1      3126 1.09089E-09-1.66125E-08-1.42752E-07
 -1      3127 2.02609E-09-1.65797E-08-1.41871E-07
 -1      3128 2.63046E-09-1.65867E-08-1.41645E-07
 -1      3129 3.00849E-09-1.66097E-08-1.41634E-07
 -1      3130 3.25517E-09-1.66309E-08-1.41667E-07
 -1      3131 3.43657E-09-1.66445E-08-1.41713E-07
 -1      3132 3.59365E-09-1.66467E-08-1.41769E-07
 -1      3133 3.75574E-09-1.66224E-08-1.41750E-07
 -1      3134 3.97456E-09-1.65411E-08-1.41334E-07
 -1      3135 4.39630E-09-1.63896E-08-1.39843E-07
 -1      3136 5.16569E-09-1.62057E-08-1.37069E-07
 -1      3137 6.37057E-09-1.62092E-08-1.35906E-07
 -1      3138 3.77155E-09-1.66161E-08-1.49115E-07
 -1      3139 7.41576E-09-1.98898E-08-1.79073E-07
 -1      3140 1.50652E-08-1.27887E-08-1.06648E-07
 -1      3141 9.58413E-09-2.11996E-09-9.77912E-09
 -1      3142 4.99851E-09-9.69594E-10 3.21444E-09
 -1      3143 6.40142E-09-6.55304E-11 1.38256E-09
 -1      3144-1.91899E-08-2.16188E-09-7.03042E-08
 -1      3145-1.22951E-08-4.87224E-09-1.37394E-07
 -1      3146-4.92771E-09-6.41233E-09-1.66320E-07
 -1      3147-1.73561E-09-7.02111E-09-1.69909E-07
 -1      3148 1.38181E-10-7.15713E-09-1.67073E-07
 -1      3149 1.42903E-09-7.15447E-09-1.64723E-07
 -1      3150 2.33544E-09-7.14121E-09-1.63736E-07
 -1      3151 2.93031E-09-7.14418E-09-1.63479E-07
 -1      3152 3.30641E-09-7.15496E-09-1.63463E-07
 -1      3153 3.55220E-09-7.16516E-09-1.63498E-07
 -1      3154 3.73170E-09-7.17171E-09-1.63548E-07
 -1      3155 3.88594E-09-7.17222E-09-1.63609E-07
 -1      3156 4.04651E-09-7.15910E-09-1.63585E-07
 -1      3157 4.27118E-09-7.11985E-09-1.63115E-07
 -1      3158 4.70241E-09-7.05345E-09-1.61436E-07
 -1      3159 5.49483E-09-7.00198E-09-1.58240E-07
 -1      3160 6.59630E-09-7.02101E-09-1.56645E-07
 -1      3161 3.48408E-09-7.32684E-09-1.72377E-07
 -1      3162 7.43434E-09-8.22186E-09-2.07664E-07
 -1      3163 1.62359E-08-5.76404E-09-1.25255E-07
 -1      3164 1.00764E-08-1.27558E-09-1.10295E-08
 -1      3165 4.56261E-09-4.71127E-10 3.70244E-09
 -1      3166 6.20317E-09-5.12736E-11 1.38134E-09
 -1      3167-1.94420E-08-3.05303E-20-7.24201E-08
 -1      3168-1.23838E-08-3.20984E-20-1.42075E-07
 -1      3169-4.82526E-09-3.89385E-20-1.72336E-07
 -1      3170-1.59933E-09-4.51383E-20-1.76125E-07
 -1      3171 2.60084E-10-4.85371E-20-1.73214E-07
 -1      3172 1.53225E-09-5.01571E-20-1.70798E-07
 -1      3173 2.42928E-09-5.06956E-20-1.69781E-07
 -1      3174 3.02094E-09-5.09596E-20-1.69514E-07
 -1      3175 3.39634E-09-5.09906E-20-1.69496E-07
 -1      3176 3.64183E-09-5.09862E-20-1.69531E-07
 -1      3177 3.82074E-09-5.09674E-20-1.69582E-07
 -1      3178 3.97400E-09-5.09993E-20-1.69644E-07
 -1      3179 4.13445E-09-5.08153E-20-1.69618E-07
 -1      3180 4.36006E-09-5.06317E-20-1.69131E-07
 -1      3181 4.79578E-09-5.01896E-20-1.67402E-07
 -1      3182 5.58903E-09-5.00717E-20-1.64084E-07
 -1      3183 6.65614E-09-4.97642E-20-1.62404E-07
 -1      3184 3.40530E-09-4.59729E-20-1.79074E-07
 -1      3185 7.42335E-09-3.27122E-20-2.15371E-07
 -1      3186 1.65456E-08-2.99113E-20-1.30714E-07
 -1      3187 1.02183E-08-2.70890E-20-1.17124E-08
 -1      3188 4.43884E-09-1.46133E-20 3.91343E-09
 -1      3189 6.13250E-09-7.09051E-21 1.38205E-09
 -1      3190-1.91899E-08 2.16188E-09-7.03042E-08
 -1      3191-1.22951E-08 4.87224E-09-1.37394E-07
 -1      3192-4.92771E-09 6.41233E-09-1.66320E-07
 -1      3193-1.73561E-09 7.02111E-09-1.69909E-07
 -1      3194 1.38181E-10 7.15713E-09-1.67073E-07
 -1      3195 1.42903E-09 7.15447E-09-1.64723E-07
 -1      3196 2.33544E-09 7.14121E-09-1.63736E-07
 -1      3197 2.93031E-09 7.14418E-09-1.63479E-07
 -1      3198 3.30641E-09 7.15496E-09-1.63463E-07
 -1      3199 3.55220E-09 7.16516E-09-1.63498E-07
 -1      3200 3.73170E-09 7.17171E-09-1.63548E-07
 -1      3201 3.88594E-09 7.17222E-09-1.63609E-07
 -1      3202 4.04651E-09 7.15910E-09-1.63585E-07
 -1      3203 4.27118E-09 7.11985E-09-1.63115E-07
 -1      3204 4.70241E-09 7.05345E-09-1.61436E-07
 -1      3205 5.49483E-09 7.00198E-09-1.58240E-07
 -1      3206 6.59630E-09 7.02101E-09-1.56645E-07
 -1      3207 3.48408E-09 7.32684E-09-1.72377E-07
 -1      3208 7.43434E-09 8.22186E-09-2.07664E-07
 -1      3209 1.62359E-08 5.76404E-09-1.25255E-07
 -1      3210 1.00764E-08 1.27558E-09-1.10295E-08
 -1      3211 4.56261E-09 4.71127E-10 3.70244E-09
 -1      3212 6.20317E-09 5.12736E-11 1.38134E-09
 -1      3213-1.83518E-08 5.47959E-09-6.22024E-08
 -1      3214-1.20117E-08 1.20968E-08-1.19603E-07
 -1      3215-5.28147E-09 1.53039E-08-1.44296E-07
 -1      3216-2.18822E-09 1.64520E-08-1.47389E-07
 -1      3217-2.58474E-10 1.66498E-08-1.44858E-07
 -1      3218 1.09089E-09 1.66125E-08-1.42752E-07
 -1      3219 2.02609E-09 1.65797E-08-1.41871E-07
 -1      3220 2.63046E-09 1.65867E-08-1.41645E-07
 -1      3221 3.00849E-09 1.66097E-08-1.41634E-07
 -1      3222 3.25517E-09 1.66309E-08-1.41667E-07
 -1      3223 3.43657E-09 1.66445E-08-1.41713E-07
 -1      3224 3.59365E-09 1.66467E-08-1.41769E-07
 -1      3225 3.75574E-09 1.66224E-08-1.41750E-07
 -1      3226 3.97456E-09 1.65411E-08-1.41334E-07
 -1      3227 4.39630E-09 1.63896E-08-1.39843E-07
 -1      3228 5.16569E-09 1.62057E-08-1.37069E-07
 -1      3229 6.37057E-09 1.62092E-08-1.35906E-07
 -1      3230 3.77155E-09 1.66161E-08-1.49115E-07
 -1      3231 7.41576E-09 1.98898E-08-1.79073E-07
 -1      3232 1.50652E-08 1.27887E-08-1.06648E-07
 -1      3233 9.58413E-09 2.11996E-09-9.77912E-09
 -1      3234 4.99851E-09 9.69594E-10 3.21444E-09
 -1      3235 6.40142E-09 6.55304E-11 1.38256E-09
 -1      3236-1.65062E-08 8.39592E-09-4.61747E-08
 -1      3237-1.12843E-08 1.78784E-08-8.49088E-08
 -1      3238-5.90871E-09 2.23046E-08-1.02793E-07
 -1      3239-2.93287E-09 2.38825E-08-1.05309E-07
 -1      3240-8.86728E-10 2.41242E-08-1.03414E-07
 -1      3241 5.71772E-10 2.40655E-08-1.01775E-07
 -1      3242 1.55803E-09 2.40270E-08-1.01082E-07
 -1      3243 2.17743E-09 2.40453E-08-1.00908E-07
 -1      3244 2.55854E-09 2.40828E-08-1.00904E-07
 -1      3245 2.80676E-09 2.41149E-08-1.00932E-07
 -1      3246 2.99153E-09 2.41352E-08-1.00970E-07
 -1      3247 3.15383E-09 2.41393E-08-1.01017E-07
 -1      3248 3.31908E-09 2.41067E-08-1.01004E-07
 -1      3249 3.52848E-09 2.39900E-08-1.00674E-07
 -1      3250 3.91028E-09 2.37639E-08-9.95322E-08
 -1      3251 4.65912E-09 2.34475E-08-9.75579E-08
 -1      3252 5.81167E-09 2.34558E-08-9.73239E-08
 -1      3253 4.79174E-09 2.38679E-08-1.07446E-07
 -1      3254 7.39378E-09 2.88308E-08-1.24616E-07
 -1      3255 1.19431E-08 1.77070E-08-7.44876E-08
 -1      3256 8.68516E-09 2.95045E-09-9.24984E-09
 -1      3257 5.95520E-09 1.34469E-09 2.78804E-09
 -1      3258 6.63845E-09 7.15791E-11 1.38064E-09
 -1      3259-1.49280E-08 8.51666E-09-2.89157E-08
 -1      3260-1.09273E-08 1.69669E-08-4.91391E-08
 -1      3261-6.78640E-09 2.16843E-08-6.03945E-08
 -1      3262-3.78403E-09 2.35583E-08-6.23209E-08
 -1      3263-1.55169E-09 2.39497E-08-6.10866E-08
 -1      3264 4.60989E-11 2.39503E-08-5.99311E-08
 -1      3265 1.08661E-09 2.39450E-08-5.94342E-08
 -1      3266 1.72052E-09 2.39867E-08-5.93175E-08
 -1      3267 2.10467E-09 2.40404E-08-5.93226E-08
 -1      3268 2.35537E-09 2.40821E-08-5.93480E-08
 -1      3269 2.54501E-09 2.41070E-08-5.93788E-08
 -1      3270 2.71528E-09 2.41113E-08-5.94159E-08
 -1      3271 2.88873E-09 2.40723E-08-5.94083E-08
 -1      3272 3.09469E-09 2.39392E-08-5.91647E-08
 -1      3273 3.43292E-09 2.36842E-08-5.83769E-08
 -1      3274 4.13916E-09 2.33897E-08-5.72269E-08
 -1      3275 5.21054E-09 2.34692E-08-5.79382E-08
 -1      3276 5.83077E-09 2.41271E-08-6.51604E-08
 -1      3277 7.50943E-09 2.71249E-08-7.01453E-08
 -1      3278 9.35075E-09 1.71210E-08-4.33057E-08
 -1      3279 8.33348E-09 4.28942E-09-8.23249E-09
 -1      3280 7.09719E-09 1.44688E-09 2.48832E-09
 -1      3281 6.97192E-09 1.19073E-10 1.41370E-09
 -1      3282-1.48505E-08 7.63042E-09-1.72620E-08
 -1      3283-1.15930E-08 1.41336E-08-2.73818E-08
 -1      3284-7.79398E-09 1.87878E-08-3.41043E-08
 -1      3285-4.53252E-09 2.08354E-08-3.53837E-08
 -1      3286-2.03581E-09 2.13907E-08-3.44565E-08
 -1      3287-3.13770E-10 2.14808E-08-3.35933E-08
 -1      3288 7.65434E-10 2.15289E-08-3.32375E-08
 -1      3289 1.40755E-09 2.16018E-08-3.31723E-08
 -1      3290 1.79511E-09 2.16731E-08-3.31923E-08
 -1      3291 2.05021E-09 2.17239E-08-3.32198E-08
 -1      3292 2.24625E-09 2.17524E-08-3.32478E-08
 -1      3293 2.42674E-09 2.17563E-08-3.32815E-08
 -1      3294 2.61583E-09 2.17130E-08-3.32828E-08
 -1      3295 2.83394E-09 2.15724E-08-3.31027E-08
 -1      3296 3.15908E-09 2.13058E-08-3.25323E-08
 -1      3297 3.79165E-09 2.10607E-08-3.18479E-08
 -1      3298 4.86302E-09 2.12105E-08-3.29809E-08
 -1      3299 6.18184E-09 2.20830E-08-3.79307E-08
 -1      3300 8.01809E-09 2.27547E-08-3.86888E-08
 -1      3301 9.50403E-09 1.51799E-08-2.43995E-08
 -1      3302 9.17790E-09 5.29237E-09-5.42587E-09
 -1      3303 8.08763E-09 1.47473E-09 2.45007E-09
 -1      3304 7.39938E-09 1.68241E-10 1.52357E-09
 -3
    1PSTEP                         2           1           1          
  100CL  101 1.00000E-01        3304                     0    1           1
 -4  STRESS      6    1
 -5  SXX         1    4    1    1
 -5  SYY         1    4    2    2
 -5  SZZ         1    4    3    3
 -5  SXY         1    4    1    2
 -5  SYZ         1    4    2    3
 -5  SZX         1    4    3    1
 -1         1 5.33461E+03 2.26913E+03 2.26590E+03 4.13764E+02-1.17785E-02-8.80050E+00
 -1         2 8.36995E+03-1.11966E+01-4.15826E+03-2.25801E+03-4.02972E+02-2.33602E+03
 -1         3 5.16780E+03 2.19825E+03 2.19556E+03 2.66169E+02 2.71089E-03-8.31745E+00
 -1         4 5.29782E+03-9.32398E+02-4.95830E+03-1.33564E+03-1.22754E+02-1.05611E+03
 -1         5 5.12369E+03 2.17939E+03 2.17703E+03 1.30908E+02 5.62102E-03-7.56960E+00
 -1         6 5.03090E+03-7.61598E+02-4.99127E+03-2.33171E+02-3.05946E+01-1.08273E+03
 -1         7 5.11387E+03 2.17516E+03 2.17293E+03 9.06830E-13-1.45439E-14-7.31958E+00
 -1         8 4.96321E+03-7.38543E+02-5.00215E+03 1.71809E-11-2.42584E-14-1.06798E+03
 -1         9 5.12369E+03 2.17939E+03 2.17703E+03-1.30908E+02-5.62102E-03-7.56960E+00
 -1        10 5.03090E+03-7.61598E+02-4.99127E+03 2.33171E+02 3.05946E+01-1.08273E+03
 -1        11 5.16780E+03 2.19825E+03 2.19556E+03-2.66169E+02-2.71089E-03-8.31745E+00
 -1        12 5.29782E+03-9.32398E+02-4.95830E+03 1.33564E+03 1.22754E+02-1.05611E+03
 -1        13 5.33461E+03 2.26913E+03 2.26590E+03-4.13764E+02 1.17785E-02-8.80050E+00
 -1        14 8.36995E+03-1.11966E+01-4.15826E+03 2.25801E+03 4.02972E+02-2.33602E+03
 -1        15 5.38212E+03 2.28920E+03 2.28645E+03 4.14138E+02-7.29234E-01-3.59669E+02
 -1        16 5.52978E+03-3.82088E+02-5.12550E+03-1.11396E+03-2.06136E+02-1.55102E+03
 -1        17 5.21613E+03 2.21867E+03 2.21648E+03 2.67737E+02-4.27565E-01-3.54753E+02
 -1        18 4.01208E+03-1.00931E+03-5.58334E+03-7.59438E+02-6.73129E+01-8.41118E+02
 -1        19 5.17329E+03 2.20033E+03 2.19851E+03 1.32253E+02-1.85003E-01-3.46554E+02
 -1        20 3.55714E+03-1.25356E+03-5.68240E+03-2.52600E+02-3.60352E+01-7.99795E+02
 -1        21 5.16399E+03 2.19632E+03 2.19463E+03 7.29861E-13-2.58127E-14-3.42770E+02
 -1        22 3.48260E+03-1.31081E+03-5.68212E+03-3.73817E-11 2.07867E-12-7.93067E+02
 -1        23 5.17329E+03 2.20033E+03 2.19851E+03-1.32253E+02 1.85003E-01-3.46554E+02
 -1        24 3.55714E+03-1.25356E+03-5.68240E+03 2.52600E+02 3.60352E+01-7.99795E+02
 -1        25 5.21613E+03 2.21867E+03 2.21648E+03-2.67737E+02 4.27565E-01-3.54753E+02
 -1        26 4.01208E+03-1.00931E+03-5.58334E+03 7.59438E+02 6.73129E+01-8.41118E+02
 -1        27 5.38212E+03 2.28920E+03 2.28645E+03-4.14138E+02 7.29234E-01-3.59669E+02
 -1        28 5.52978E+03-3.82088E+02-5.12550E+03 1.11396E+03 2.06136E+02-1.55102E+03
 -1        29 5.48036E+03 2.33072E+03 2.32940E+03 4.13187E+02-1.47035E+00-7.31022E+02
 -1        30 5.12973E+03-2.39458E+02-5.51649E+03-1.18949E+03-5.53361E+01-5.87459E+02
 -1        31 5.31874E+03 2.26204E+03 2.26137E+03 2.72150E+02-8.57840E-01-7.16815E+02
 -1        32 3.49094E+03-1.02522E+03-6.22114E+03-7.39672E+02 3.46810E+01-4.75479E+02
 -1        33 5.28125E+03 2.24592E+03 2.24570E+03 1.36498E+02-3.69732E-01-6.95624E+02
 -1        34 3.21867E+03-1.27910E+03-6.06201E+03-2.09387E+02 5.08100E+01-3.98664E+02
 -1        35 5.27414E+03 2.24281E+03 2.24275E+03 7.06768E-13-9.22595E-14-6.86151E+02
 -1        36 3.14159E+03-1.41451E+03-5.99156E+03-2.55937E-11 5.21894E-12-3.90078E+02
 -1        37 5.28125E+03 2.24592E+03 2.24570E+03-1.36498E+02 3.69732E-01-6.95624E+02
 -1        38 3.21867E+03-1.27910E+03-6.06201E+03 2.09387E+02-5.08100E+01-3.98664E+02
 -1        39 5.31874E+03 2.26204E+03 2.26137E+03-2.72150E+02 8.57840E-01-7.16815E+02
 -1        40 3.49094E+03-1.02522E+03-6.22114E+03 7.39672E+02-3.46810E+01-4.75479E+02
 -1        41 5.48036E+03 2.33072E+03 2.32940E+03-4.13187E+02 1.47035E+00-7.31022E+02
 -1        42 5.12973E+03-2.39458E+02-5.51649E+03 1.18949E+03 5.53361E+01-5.87459E+02
 -1        43 5.65683E+03 2.40529E+03 2.40654E+03 4.07878E+02-2.24565E+00-1.14796E+03
 -1        44 4.72242E+03-4.31359E+02-6.53525E+03-1.20252E+03 1.26179E+02-3.83591E+02
 -1        45 5.50792E+03 2.34197E+03 2.34410E+03 2.77791E+02-1.30945E+00-1.11147E+03
 -1        46 3.25747E+03-1.14034E+03-6.85213E+03-7.40864E+02 2.65478E+02-3.15470E+02
 -1        47 5.48223E+03 2.33076E+03 2.33336E+03 1.42244E+02-5.74996E-01-1.06484E+03
 -1        48 3.04599E+03-1.44743E+03-6.40134E+03-2.12186E+02 2.25008E+02-2.85944E+02
 -1        49 5.47941E+03 2.32944E+03 2.33215E+03 2.40252E-13-2.60902E-14-1.04552E+03
 -1        50 2.98902E+03-1.61606E+03-6.23883E+03 1.13296E-11 4.46221E-12-2.75712E+02
 -1        51 5.48223E+03 2.33076E+03 2.33336E+03-1.42244E+02 5.74996E-01-1.06484E+03
 -1        52 3.04599E+03-1.44743E+03-6.40134E+03 2.12186E+02-2.25008E+02-2.85944E+02
 -1        53 5.50792E+03 2.34197E+03 2.34410E+03-2.77791E+02 1.30945E+00-1.11147E+03
 -1        54 3.25747E+03-1.14034E+03-6.85213E+03 7.40864E+02-2.65478E+02-3.15470E+02
 -1        55 5.65683E+03 2.40529E+03 2.40654E+03-4.07878E+02 2.24565E+00-1.14796E+03
 -1        56 4.72242E+03-4.31359E+02-6.53525E+03 1.20252E+03-1.26179E+02-3.83591E+02
 -1        57 5.97661E+03 2.54031E+03 2.54549E+03 3.87471E+02-3.02745E+00-1.65152E+03
 -1        58 4.18604E+03-9.46553E+02-8.53972E+03-1.27114E+03 4.11492E+02-1.85982E+02
 -1        59 5.85997E+03 2.49053E+03 2.49742E+03 2.75697E+02-1.80318E+00-1.55807E+03
 -1        60 3.27944E+03-1.22221E+03-7.29596E+03-7.60922E+02 5.57601E+02-1.05473E+02
 -1        61 5.85513E+03 2.48807E+03 2.49487E+03 1.40144E+02-8.63024E-01-1.46768E+03
 -1        62 3.06971E+03-1.67804E+03-6.55260E+03-2.28165E+02 3.60392E+02-1.07132E+02
 -1        63 5.85603E+03 2.48836E+03 2.49486E+03 3.20965E-13 2.90323E-14-1.43659E+03
 -1        64 2.92366E+03-1.93905E+03-6.52350E+03-3.73035E-12 6.31672E-12-9.98184E+01
 -1        65 5.85513E+03 2.48807E+03 2.49487E+03-1.40144E+02 8.63024E-01-1.46768E+03
 -1        66 3.06971E+03-1.67804E+03-6.55260E+03 2.28165E+02-3.60392E+02-1.07132E+02
 -1        67 5.85997E+03 2.49053E+03 2.49742E+03-2.75697E+02 1.80318E+00-1.55807E+03
 -1        68 3.27944E+03-1.22221E+03-7.29596E+03 7.60922E+02-5.57601E+02-1.05473E+02
 -1        69 5.97661E+03 2.54031E+03 2.54549E+03-3.87471E+02 3.02745E+00-1.65152E+03
 -1        70 4.18604E+03-9.46553E+02-8.53972E+03 1.27114E+03-4.11492E+02-1.85982E+02
 -1        71 6.61987E+03 2.81134E+03 2.82200E+03 3.14517E+02-4.16319E+00-2.31878E+03
 -1        72 3.18940E+03-2.42730E+03-1.25866E+04-1.29805E+03 5.89814E+02 1.01382E+03
 -1        73 6.59850E+03 2.80157E+03 2.81599E+03 2.27941E+02-2.27250E+00-2.06659E+03
 -1        74 4.01735E+03-1.11389E+03-7.08527E+03-8.46371E+02 5.78053E+02 5.88679E+02
 -1        75 6.59510E+03 2.80005E+03 2.81191E+03 9.53371E+01-9.57281E-01-1.93033E+03
 -1        76 3.36398E+03-1.78910E+03-7.00066E+03-3.72943E+02 2.84170E+02 5.92483E+02
 -1        77 6.59118E+03 2.79845E+03 2.80982E+03 4.10089E-14 1.44329E-14-1.90473E+03
 -1        78 3.36268E+03-1.60012E+03-6.84020E+03-2.16218E-11 2.41585E-13 5.87636E+02
 -1        79 6.59510E+03 2.80005E+03 2.81191E+03-9.53371E+01 9.57281E-01-1.93033E+03
 -1        80 3.36398E+03-1.78910E+03-7.00066E+03 3.72943E+02-2.84170E+02 5.92483E+02
 -1        81 6.59850E+03 2.80157E+03 2.81599E+03-2.27941E+02 2.27250E+00-2.06659E+03
 -1        82 4.01735E+03-1.11389E+03-7.08527E+03 8.46371E+02-5.78053E+02 5.88679E+02
 -1        83 6.61987E+03 2.81134E+03 2.82200E+03-3.14517E+02 4.16319E+00-2.31878E+03
 -1        84 3.18940E+03-2.42730E+03-1.25866E+04 1.29805E+03-5.89814E+02 1.01382E+03
 -1        85 8.50713E+03 3.60153E+03 3.63278E+03-3.24276E+01 1.80166E+00-3.29782E+03
 -1        86 7.40759E+03-2.43955E+02-1.28419E+04-3.38428E+03 2.58917E+03 1.27172E+03
 -1        87 8.43430E+03 3.57076E+03 3.59697E+03 1.71169E+00 2.12317E-01-2.64646E+03
 -1        88 7.60763E+03 2.09992E+03-4.93707E+03-2.09175E+03 1.33618E+03 8.54741E+02
 -1        89 8.33388E+03 3.52970E+03 3.55281E+03 1.06556E+01-4.44211E-01-2.54182E+03
 -1        90 6.52556E+03 1.20194E+03-5.66535E+03-6.38901E+02 1.02970E+02 8.56799E+02
 -1        91 8.30331E+03 3.51691E+03 3.53942E+03-6.75904E-13-1.01252E-13-2.51025E+03
 -1        92 6.35597E+03 9.97485E+02-5.59914E+03-5.82361E-11 5.76961E-12 8.68482E+02
 -1        93 8.33388E+03 3.52970E+03 3.55281E+03-1.06556E+01 4.44211E-01-2.54182E+03
 -1        94 6.52556E+03 1.20194E+03-5.66535E+03 6.38901E+02-1.02970E+02 8.56799E+02
 -1        95 8.43430E+03 3.57076E+03 3.59697E+03-1.71169E+00-2.12317E-01-2.64646E+03
 -1        96 7.60763E+03 2.09992E+03-4.93707E+03 2.09175E+03-1.33618E+03 8.54741E+02
 -1        97 8.50713E+03 3.60153E+03 3.63278E+03 3.24276E+01-1.80166E+00-3.29782E+03
 -1        98 7.40759E+03-2.43955E+02-1.28419E+04 3.38428E+03-2.58917E+03 1.27172E+03
 -1        99 3.95273E+03-4.54165E+02-1.64844E+03 3.36520E+00 2.35506E+00 2.88740E+01
 -1       100 3.95273E+03-4.54165E+02-1.64844E+03-3.36520E+00-2.35506E+00 2.88740E+01
 -1       101 4.66201E+03-6.74095E+01-2.69978E+03-5.57978E+00 8.02588E-01 6.19892E+01
 -1       102 4.66201E+03-6.74095E+01-2.69978E+03 5.57978E+00-8.02588E-01 6.19892E+01
 -1       103 4.86461E+03-4.33854E+01-2.94416E+03-9.59391E+00 4.40820E+00 5.87715E+01
 -1       104 4.86461E+03-4.33854E+01-2.94416E+03 9.59391E+00-4.40820E+00 5.87715E+01
 -1       105 4.80780E+03 1.98495E+00-2.88461E+03-3.44857E+00 8.30924E+00 3.92472E+01
 -1       106 4.80780E+03 1.98495E+00-2.88461E+03 3.44857E+00-8.30924E+00 3.92472E+01
 -1       107 4.73877E+03-2.76112E+00-2.83071E+03-6.77823E-01 9.87818E+00 2.86281E+01
 -1       108 4.73877E+03-2.76112E+00-2.83071E+03 6.77823E-01-9.87818E+00 2.86281E+01
 -1       109 4.72018E+03-6.45687E+00-2.80449E+03 2.05443E-01 1.02561E+01 2.57231E+01
 -1       110 4.72018E+03-6.45687E+00-2.80449E+03-2.05443E-01-1.02561E+01 2.57231E+01
 -1       111 4.72620E+03-8.60224E+00-2.79649E+03 3.76820E-01 1.01870E+01 2.53856E+01
 -1       112 4.72620E+03-8.60224E+00-2.79649E+03-3.76820E-01-1.01870E+01 2.53856E+01
 -1       113 4.73985E+03-9.21879E+00-2.79519E+03 3.20859E-01 1.01054E+01 2.55587E+01
 -1       114 4.73985E+03-9.21879E+00-2.79519E+03-3.20859E-01-1.01054E+01 2.55587E+01
 -1       115 4.75478E+03-9.38764E+00-2.79564E+03 2.77726E-01 1.00473E+01 2.57286E+01
 -1       116 4.75478E+03-9.38764E+00-2.79564E+03-2.77726E-01-1.00473E+01 2.57286E+01
 -1       117 4.76959E+03-9.36491E+00-2.79618E+03 2.57839E-01 1.00149E+01 2.58004E+01
 -1       118 4.76959E+03-9.36491E+00-2.79618E+03-2.57839E-01-1.00149E+01 2.58004E+01
 -1       119 4.78438E+03-9.30681E+00-2.79675E+03 2.63799E-01 9.99011E+00 2.57854E+01
 -1       120 4.78438E+03-9.30681E+00-2.79675E+03-2.63799E-01-9.99011E+00 2.57854E+01
 -1       121 4.79965E+03-9.29004E+00-2.79758E+03 3.08123E-01 9.95156E+00 2.56631E+01
 -1       122 4.79965E+03-9.29004E+00-2.79758E+03-3.08123E-01-9.95156E+00 2.56631E+01
 -1       123 4.81514E+03-9.62625E+00-2.79824E+03 3.72475E-01 9.87872E+00 2.53451E+01
 -1       124 4.81514E+03-9.62625E+00-2.79824E+03-3.72475E-01-9.87872E+00 2.53451E+01
 -1       125 4.82851E+03-1.05065E+01-2.79506E+03 5.21410E-01 9.76511E+00 2.50579E+01
 -1       126 4.82851E+03-1.05065E+01-2.79506E+03-5.21410E-01-9.76511E+00 2.50579E+01
 -1       127 4.82567E+03-1.52140E+01-2.78035E+03-8.96902E-02 9.68114E+00 2.51868E+01
 -1       128 4.82567E+03-1.52140E+01-2.78035E+03 8.96902E-02-9.68114E+00 2.51868E+01
 -1       129 4.77288E+03-2.15916E+01-2.72812E+03-1.85448E+00 1.08425E+01 3.08571E+01
 -1       130 4.77288E+03-2.15916E+01-2.72812E+03 1.85448E+00-1.08425E+01 3.08571E+01
 -1       131 4.62799E+03-2.75653E+01-2.64573E+03-4.46062E+00 1.34892E+01 5.38158E+01
 -1       132 4.62799E+03-2.75653E+01-2.64573E+03 4.46062E+00-1.34892E+01 5.38158E+01
 -1       133 4.61745E+03 8.86888E+01-2.51140E+03-4.87291E+01 2.12592E+01 4.12613E+01
 -1       134 4.61745E+03 8.86888E+01-2.51140E+03 4.87291E+01-2.12592E+01 4.12613E+01
 -1       135 6.81131E+03 7.47639E+02-2.94694E+03 3.45979E+02 4.66774E+01 3.43427E+02
 -1       136 6.81131E+03 7.47639E+02-2.94694E+03-3.45979E+02-4.66774E+01 3.43427E+02
 -1       137 3.95429E+03-4.69150E+02-1.72978E+03 4.20899E+00 1.26991E+01-2.14794E+02
 -1       138 3.95429E+03-4.69150E+02-1.72978E+03-4.20899E+00-1.26991E+01-2.14794E+02
 -1       139 4.65074E+03-7.56933E+01-2.75765E+03-5.03630E+00 1.39472E+01-6.58449E+00
 -1       140 4.65074E+03-7.56933E+01-2.75765E+03 5.03630E+00-1.39472E+01-6.58449E+00
 -1       141 4.84087E+03-5.11414E+01-2.97060E+03-9.34039E+00 1.62778E+01 7.12581E+01
 -1       142 4.84087E+03-5.11414E+01-2.97060E+03 9.34039E+00-1.62778E+01 7.12581E+01
 -1       143 4.78318E+03-8.17951E+00-2.90973E+03-3.26647E+00 1.74804E+01 5.69750E+01
 -1       144 4.78318E+03-8.17951E+00-2.90973E+03 3.26647E+00-1.74804E+01 5.69750E+01
 -1       145 4.72044E+03-1.41416E+01-2.86001E+03-4.67842E-01 1.80566E+01 3.55565E+01
 -1       146 4.72044E+03-1.41416E+01-2.86001E+03 4.67842E-01-1.80566E+01 3.55565E+01
 -1       147 4.70624E+03-1.73730E+01-2.83528E+03 3.00672E-01 1.81068E+01 2.59899E+01
 -1       148 4.70624E+03-1.73730E+01-2.83528E+03-3.00672E-01-1.81068E+01 2.59899E+01
 -1       149 4.71356E+03-1.91937E+01-2.82754E+03 4.35958E-01 1.80546E+01 2.31785E+01
 -1       150 4.71356E+03-1.91937E+01-2.82754E+03-4.35958E-01-1.80546E+01 2.31785E+01
 -1       151 4.72740E+03-1.97176E+01-2.82632E+03 3.74437E-01 1.80204E+01 2.28004E+01
 -1       152 4.72740E+03-1.97176E+01-2.82632E+03-3.74437E-01-1.80204E+01 2.28004E+01
 -1       153 4.74228E+03-1.98427E+01-2.82673E+03 3.33454E-01 1.80001E+01 2.29738E+01
 -1       154 4.74228E+03-1.98427E+01-2.82673E+03-3.33454E-01-1.80001E+01 2.29738E+01
 -1       155 4.75703E+03-1.98051E+01-2.82722E+03 3.14641E-01 1.79896E+01 2.30943E+01
 -1       156 4.75703E+03-1.98051E+01-2.82722E+03-3.14641E-01-1.79896E+01 2.30943E+01
 -1       157 4.77175E+03-1.97358E+01-2.82774E+03 3.21796E-01 1.79831E+01 2.30350E+01
 -1       158 4.77175E+03-1.97358E+01-2.82774E+03-3.21796E-01-1.79831E+01 2.30350E+01
 -1       159 4.78689E+03-1.97244E+01-2.82852E+03 3.57900E-01 1.79671E+01 2.27728E+01
 -1       160 4.78689E+03-1.97244E+01-2.82852E+03-3.57900E-01-1.79671E+01 2.27728E+01
 -1       161 4.80233E+03-1.99447E+01-2.82910E+03 4.34733E-01 1.79564E+01 2.24950E+01
 -1       162 4.80233E+03-1.99447E+01-2.82910E+03-4.34733E-01-1.79564E+01 2.24950E+01
 -1       163 4.81555E+03-2.10933E+01-2.82645E+03 5.45742E-01 1.78300E+01 2.32865E+01
 -1       164 4.81555E+03-2.10933E+01-2.82645E+03-5.45742E-01-1.78300E+01 2.32865E+01
 -1       165 4.81632E+03-2.35758E+01-2.81063E+03 9.41443E-02 1.80438E+01 2.84622E+01
 -1       166 4.81632E+03-2.35758E+01-2.81063E+03-9.41443E-02-1.80438E+01 2.84622E+01
 -1       167 4.76875E+03-3.59022E+01-2.76892E+03-9.69283E-01 1.69631E+01 4.68042E+01
 -1       168 4.76875E+03-3.59022E+01-2.76892E+03 9.69283E-01-1.69631E+01 4.68042E+01
 -1       169 4.62741E+03-2.66199E+01-2.67110E+03-9.60568E+00 2.35687E+01 8.46770E+01
 -1       170 4.62741E+03-2.66199E+01-2.67110E+03 9.60568E+00-2.35687E+01 8.46770E+01
 -1       171 4.72233E+03 6.39725E+01-2.57483E+03-7.05884E+00 5.28324E+00 5.32403E+01
 -1       172 4.72233E+03 6.39725E+01-2.57483E+03 7.05884E+00-5.28324E+00 5.32403E+01
 -1       173 5.57100E+03 3.43043E+02-3.12304E+03 5.43700E+01 8.47749E+01-3.35365E+01
 -1       174 5.57100E+03 3.43043E+02-3.12304E+03-5.43700E+01-8.47749E+01-3.35365E+01
 -1       175 3.92472E+03-5.19461E+02-2.00254E+03 7.61825E+00 3.07430E+01-4.32700E+02
 -1       176 3.92472E+03-5.19461E+02-2.00254E+03-7.61825E+00-3.07430E+01-4.32700E+02
 -1       177 4.60254E+03-1.03204E+02-2.94115E+03-4.13194E+00 3.55910E+01-1.75567E+01
 -1       178 4.60254E+03-1.03204E+02-2.94115E+03 4.13194E+00-3.55910E+01-1.75567E+01
 -1       179 4.76330E+03-7.24241E+01-3.06287E+03-9.02594E+00 4.10387E+01 1.11675E+02
 -1       180 4.76330E+03-7.24241E+01-3.06287E+03 9.02594E+00-4.10387E+01 1.11675E+02
 -1       181 4.70558E+03-3.91748E+01-3.00357E+03-2.68020E+00 4.39680E+01 7.76054E+01
 -1       182 4.70558E+03-3.91748E+01-3.00357E+03 2.68020E+00-4.39680E+01 7.76054E+01
 -1       183 4.66228E+03-4.78371E+01-2.96607E+03-1.01910E-01 4.50008E+01 3.97874E+01
 -1       184 4.66228E+03-4.78371E+01-2.96607E+03 1.01910E-01-4.50008E+01 3.97874E+01
 -1       185 4.65980E+03-4.97516E+01-2.94495E+03 3.95152E-01 4.50458E+01 2.32269E+01
 -1       186 4.65980E+03-4.97516E+01-2.94495E+03-3.95152E-01-4.50458E+01 2.32269E+01
 -1       187 4.67039E+03-5.08905E+01-2.93821E+03 4.26383E-01 4.49728E+01 1.83660E+01
 -1       188 4.67039E+03-5.08905E+01-2.93821E+03-4.26383E-01-4.49728E+01 1.83660E+01
 -1       189 4.68467E+03-5.12185E+01-2.93721E+03 3.52716E-01 4.49248E+01 1.78034E+01
 -1       190 4.68467E+03-5.12185E+01-2.93721E+03-3.52716E-01-4.49248E+01 1.78034E+01
 -1       191 4.69940E+03-5.12769E+01-2.93752E+03 3.12508E-01 4.49000E+01 1.81274E+01
 -1       192 4.69940E+03-5.12769E+01-2.93752E+03-3.12508E-01-4.49000E+01 1.81274E+01
 -1       193 4.71393E+03-5.12401E+01-2.93792E+03 2.96384E-01 4.48942E+01 1.83438E+01
 -1       194 4.71393E+03-5.12401E+01-2.93792E+03-2.96384E-01-4.48942E+01 1.83438E+01
 -1       195 4.72843E+03-5.11913E+01-2.93835E+03 3.01434E-01 4.48909E+01 1.82315E+01
 -1       196 4.72843E+03-5.11913E+01-2.93835E+03-3.01434E-01-4.48909E+01 1.82315E+01
 -1       197 4.74324E+03-5.11502E+01-2.93898E+03 3.32416E-01 4.48792E+01 1.77487E+01
 -1       198 4.74324E+03-5.11502E+01-2.93898E+03-3.32416E-01-4.48792E+01 1.77487E+01
 -1       199 4.75837E+03-5.13527E+01-2.93951E+03 4.07963E-01 4.48250E+01 1.72126E+01
 -1       200 4.75837E+03-5.13527E+01-2.93951E+03-4.07963E-01-4.48250E+01 1.72126E+01
 -1       201 4.77241E+03-5.18571E+01-2.93718E+03 5.18799E-01 4.47685E+01 1.85359E+01
 -1       202 4.77241E+03-5.18571E+01-2.93718E+03-5.18799E-01-4.47685E+01 1.85359E+01
 -1       203 4.78074E+03-5.35586E+01-2.92291E+03 5.07900E-01 4.45230E+01 2.78874E+01
 -1       204 4.78074E+03-5.35586E+01-2.92291E+03-5.07900E-01-4.45230E+01 2.78874E+01
 -1       205 4.75235E+03-6.23040E+01-2.89115E+03-1.13891E+00 4.48109E+01 6.02102E+01
 -1       206 4.75235E+03-6.23040E+01-2.89115E+03 1.13891E+00-4.48109E+01 6.02102E+01
 -1       207 4.65786E+03-6.39256E+01-2.80773E+03-4.93493E+00 4.81105E+01 1.26493E+02
 -1       208 4.65786E+03-6.39256E+01-2.80773E+03 4.93493E+00-4.81105E+01 1.26493E+02
 -1       209 4.57920E+03-2.67901E+01-2.76572E+03-2.38112E+01 4.52363E+01 1.30960E+02
 -1       210 4.57920E+03-2.67901E+01-2.76572E+03 2.38112E+01-4.52363E+01 1.30960E+02
 -1       211 5.40558E+03 3.50555E+02-2.77374E+03 6.40548E+01 9.45097E+01-2.79281E+02
 -1       212 5.40558E+03 3.50555E+02-2.77374E+03-6.40548E+01-9.45097E+01-2.79281E+02
 -1       213 3.83443E+03-6.31395E+02-2.55994E+03 1.58690E+01 6.65715E+01-6.26047E+02
 -1       214 3.83443E+03-6.31395E+02-2.55994E+03-1.58690E+01-6.65715E+01-6.26047E+02
 -1       215 4.48919E+03-1.60502E+02-3.28214E+03-2.85192E+00 7.28755E+01 6.67209E+00
 -1       216 4.48919E+03-1.60502E+02-3.28214E+03 2.85192E+00-7.28755E+01 6.67209E+00
 -1       217 4.59765E+03-1.27430E+02-3.27576E+03-8.30483E+00 8.37002E+01 1.39301E+02
 -1       218 4.59765E+03-1.27430E+02-3.27576E+03 8.30483E+00-8.37002E+01 1.39301E+02
 -1       219 4.55029E+03-1.14057E+02-3.23732E+03-1.46715E+00 8.85214E+01 8.37790E+01
 -1       220 4.55029E+03-1.14057E+02-3.23732E+03 1.46715E+00-8.85214E+01 8.37790E+01
 -1       221 4.54272E+03-1.23798E+02-3.21468E+03 5.15784E-01 8.96486E+01 3.91390E+01
 -1       222 4.54272E+03-1.23798E+02-3.21468E+03-5.15784E-01-8.96486E+01 3.91390E+01
 -1       223 4.55667E+03-1.23326E+02-3.19731E+03 5.11548E-01 8.95387E+01 1.90129E+01
 -1       224 4.55667E+03-1.23326E+02-3.19731E+03-5.11548E-01-8.95387E+01 1.90129E+01
 -1       225 4.57134E+03-1.23773E+02-3.19255E+03 4.32369E-01 8.94629E+01 1.34984E+01
 -1       226 4.57134E+03-1.23773E+02-3.19255E+03-4.32369E-01-8.94629E+01 1.34984E+01
 -1       227 4.58620E+03-1.23748E+02-3.19166E+03 3.33992E-01 8.93726E+01 1.29311E+01
 -1       228 4.58620E+03-1.23748E+02-3.19166E+03-3.33992E-01-8.93726E+01 1.29311E+01
 -1       229 4.60058E+03-1.23746E+02-3.19189E+03 2.99003E-01 8.93446E+01 1.33713E+01
 -1       230 4.60058E+03-1.23746E+02-3.19189E+03-2.99003E-01-8.93446E+01 1.33713E+01
 -1       231 4.61477E+03-1.23726E+02-3.19217E+03 2.87245E-01 8.93385E+01 1.36399E+01
 -1       232 4.61477E+03-1.23726E+02-3.19217E+03-2.87245E-01-8.93385E+01 1.36399E+01
 -1       233 4.62893E+03-1.23705E+02-3.19248E+03 2.88988E-01 8.93373E+01 1.35034E+01
 -1       234 4.62893E+03-1.23705E+02-3.19248E+03-2.88988E-01-8.93373E+01 1.35034E+01
 -1       235 4.64321E+03-1.23689E+02-3.19295E+03 3.11310E-01 8.93237E+01 1.28968E+01
 -1       236 4.64321E+03-1.23689E+02-3.19295E+03-3.11310E-01-8.93237E+01 1.28968E+01
 -1       237 4.65781E+03-1.23688E+02-3.19327E+03 3.72546E-01 8.92519E+01 1.21860E+01
 -1       238 4.65781E+03-1.23688E+02-3.19327E+03-3.72546E-01-8.92519E+01 1.21860E+01
 -1       239 4.67313E+03-1.23748E+02-3.19147E+03 5.56269E-01 8.91381E+01 1.35236E+01
 -1       240 4.67313E+03-1.23748E+02-3.19147E+03-5.56269E-01-8.91381E+01 1.35236E+01
 -1       241 4.68905E+03-1.23736E+02-3.18068E+03 7.01688E-01 8.88834E+01 2.49094E+01
 -1       242 4.68905E+03-1.23736E+02-3.18068E+03-7.01688E-01-8.88834E+01 2.49094E+01
 -1       243 4.70051E+03-1.25722E+02-3.15190E+03 5.23801E-01 8.88415E+01 6.17521E+01
 -1       244 4.70051E+03-1.25722E+02-3.15190E+03-5.23801E-01-8.88415E+01 6.17521E+01
 -1       245 4.63727E+03-1.52132E+02-3.13275E+03-4.78154E+00 9.17577E+01 1.48832E+02
 -1       246 4.63727E+03-1.52132E+02-3.13275E+03 4.78154E+00-9.17577E+01 1.48832E+02
 -1       247 4.51285E+03-1.21712E+02-3.00734E+03-2.31222E+01 9.77590E+01 1.78151E+02
 -1       248 4.51285E+03-1.21712E+02-3.00734E+03 2.31222E+01-9.77590E+01 1.78151E+02
 -1       249 5.37354E+03 3.15522E+02-2.68969E+03 6.03971E+01 1.39055E+02-2.06134E+02
 -1       250 5.37354E+03 3.15522E+02-2.68969E+03-6.03971E+01-1.39055E+02-2.06134E+02
 -1       251 3.58913E+03-8.96051E+02-3.65330E+03 3.19048E+01 1.32966E+02-7.40240E+02
 -1       252 3.58913E+03-8.96051E+02-3.65330E+03-3.19048E+01-1.32966E+02-7.40240E+02
 -1       253 4.24881E+03-2.70881E+02-3.83786E+03-3.32923E+00 1.34069E+02 7.35643E+01
 -1       254 4.24881E+03-2.70881E+02-3.83786E+03 3.32923E+00-1.34069E+02 7.35643E+01
 -1       255 4.26574E+03-2.76135E+02-3.75160E+03-6.65408E+00 1.53416E+02 1.25321E+02
 -1       256 4.26574E+03-2.76135E+02-3.75160E+03 6.65408E+00-1.53416E+02 1.25321E+02
 -1       257 4.26524E+03-2.89139E+02-3.76595E+03 9.86763E-01 1.60276E+02 7.56567E+01
 -1       258 4.26524E+03-2.89139E+02-3.76595E+03-9.86763E-01-1.60276E+02 7.56567E+01
 -1       259 4.31075E+03-2.92041E+02-3.74408E+03 1.11848E+00 1.60360E+02 3.13549E+01
 -1       260 4.31075E+03-2.92041E+02-3.74408E+03-1.11848E+00-1.60360E+02 3.13549E+01
 -1       261 4.33935E+03-2.90177E+02-3.73375E+03 6.52399E-01 1.60416E+02 1.35803E+01
 -1       262 4.33935E+03-2.90177E+02-3.73375E+03-6.52399E-01-1.60416E+02 1.35803E+01
 -1       263 4.35866E+03-2.89622E+02-3.73014E+03 4.19585E-01 1.60206E+02 8.66076E+00
 -1       264 4.35866E+03-2.89622E+02-3.73014E+03-4.19585E-01-1.60206E+02 8.66076E+00
 -1       265 4.37356E+03-2.89210E+02-3.72942E+03 3.04123E-01 1.60100E+02 8.30420E+00
 -1       266 4.37356E+03-2.89210E+02-3.72942E+03-3.04123E-01-1.60100E+02 8.30420E+00
 -1       267 4.38742E+03-2.89181E+02-3.72953E+03 2.81520E-01 1.60065E+02 8.75083E+00
 -1       268 4.38742E+03-2.89181E+02-3.72953E+03-2.81520E-01-1.60065E+02 8.75083E+00
 -1       269 4.40122E+03-2.89184E+02-3.72970E+03 2.77199E-01 1.60060E+02 9.01043E+00
 -1       270 4.40122E+03-2.89184E+02-3.72970E+03-2.77199E-01-1.60060E+02 9.01043E+00
 -1       271 4.41499E+03-2.89208E+02-3.72989E+03 2.75086E-01 1.60061E+02 8.88234E+00
 -1       272 4.41499E+03-2.89208E+02-3.72989E+03-2.75086E-01-1.60061E+02 8.88234E+00
 -1       273 4.42863E+03-2.89220E+02-3.73018E+03 2.79934E-01 1.60045E+02 8.31214E+00
 -1       274 4.42863E+03-2.89220E+02-3.73018E+03-2.79934E-01-1.60045E+02 8.31214E+00
 -1       275 4.44229E+03-2.89109E+02-3.73032E+03 3.24177E-01 1.59978E+02 7.53606E+00
 -1       276 4.44229E+03-2.89109E+02-3.73032E+03-3.24177E-01-1.59978E+02 7.53606E+00
 -1       277 4.45841E+03-2.88365E+02-3.72869E+03 5.51195E-01 1.59738E+02 8.69310E+00
 -1       278 4.45841E+03-2.88365E+02-3.72869E+03-5.51195E-01-1.59738E+02 8.69310E+00
 -1       279 4.48210E+03-2.87227E+02-3.72187E+03 9.58357E-01 1.59633E+02 1.81699E+01
 -1       280 4.48210E+03-2.87227E+02-3.72187E+03-9.58357E-01-1.59633E+02 1.81699E+01
 -1       281 4.52865E+03-2.82388E+02-3.69863E+03 2.10235E+00 1.58953E+02 5.39791E+01
 -1       282 4.52865E+03-2.82388E+02-3.69863E+03-2.10235E+00-1.58953E+02 5.39791E+01
 -1       283 4.55193E+03-3.12204E+02-3.70387E+03-1.22250E+00 1.60133E+02 1.27373E+02
 -1       284 4.55193E+03-3.12204E+02-3.70387E+03 1.22250E+00-1.60133E+02 1.27373E+02
 -1       285 4.43279E+03-3.27798E+02-3.65973E+03-2.36639E+01 1.78341E+02 2.14967E+02
 -1       286 4.43279E+03-3.27798E+02-3.65973E+03 2.36639E+01-1.78341E+02 2.14967E+02
 -1       287 5.53881E+03 2.31151E+02-2.71234E+03 8.39323E+01 1.99490E+02-1.26132E+02
 -1       288 5.53881E+03 2.31151E+02-2.71234E+03-8.39323E+01-1.99490E+02-1.26132E+02
 -1       289 2.98826E+03-1.51664E+03-5.74721E+03 7.29488E+01 1.28673E+02-4.33189E+02
 -1       290 2.98826E+03-1.51664E+03-5.74721E+03-7.29488E+01-1.28673E+02-4.33189E+02
 -1       291 3.75816E+03-5.05308E+02-4.61929E+03-2.32889E+01 1.02711E+02 1.27155E+01
 -1       292 3.75816E+03-5.05308E+02-4.61929E+03 2.32889E+01-1.02711E+02 1.27155E+01
 -1       293 3.59524E+03-7.02527E+02-4.85850E+03 3.47911E+00 1.49103E+02 7.95821E+01
 -1       294 3.59524E+03-7.02527E+02-4.85850E+03-3.47911E+00-1.49103E+02 7.95821E+01
 -1       295 3.76835E+03-6.91971E+02-4.82273E+03 3.23069E+00 1.48654E+02 4.39179E+01
 -1       296 3.76835E+03-6.91971E+02-4.82273E+03-3.23069E+00-1.48654E+02 4.39179E+01
 -1       297 3.84732E+03-6.90385E+02-4.81541E+03 1.99911E+00 1.50278E+02 1.80651E+01
 -1       298 3.84732E+03-6.90385E+02-4.81541E+03-1.99911E+00-1.50278E+02 1.80651E+01
 -1       299 3.89196E+03-6.87630E+02-4.80736E+03 7.51876E-01 1.49962E+02 7.21479E+00
 -1       300 3.89196E+03-6.87630E+02-4.80736E+03-7.51876E-01-1.49962E+02 7.21479E+00
 -1       301 3.91330E+03-6.85567E+02-4.80463E+03 3.72252E-01 1.49717E+02 4.25364E+00
 -1       302 3.91330E+03-6.85567E+02-4.80463E+03-3.72252E-01-1.49717E+02 4.25364E+00
 -1       303 3.92754E+03-6.85094E+02-4.80395E+03 2.52142E-01 1.49595E+02 4.02759E+00
 -1       304 3.92754E+03-6.85094E+02-4.80395E+03-2.52142E-01-1.49595E+02 4.02759E+00
 -1       305 3.94066E+03-6.85013E+02-4.80396E+03 2.56437E-01 1.49554E+02 4.29467E+00
 -1       306 3.94066E+03-6.85013E+02-4.80396E+03-2.56437E-01-1.49554E+02 4.29467E+00
 -1       307 3.95407E+03-6.85066E+02-4.80405E+03 2.62903E-01 1.49552E+02 4.44930E+00
 -1       308 3.95407E+03-6.85066E+02-4.80405E+03-2.62903E-01-1.49552E+02 4.44930E+00
 -1       309 3.96753E+03-6.85146E+02-4.80418E+03 2.56744E-01 1.49555E+02 4.37321E+00
 -1       310 3.96753E+03-6.85146E+02-4.80418E+03-2.56744E-01-1.49555E+02 4.37321E+00
 -1       311 3.98047E+03-6.85177E+02-4.80434E+03 2.33366E-01 1.49542E+02 4.02636E+00
 -1       312 3.98047E+03-6.85177E+02-4.80434E+03-2.33366E-01-1.49542E+02 4.02636E+00
 -1       313 3.99287E+03-6.85134E+02-4.80429E+03 2.44591E-01 1.49452E+02 3.58772E+00
 -1       314 3.99287E+03-6.85134E+02-4.80429E+03-2.44591E-01-1.49452E+02 3.58772E+00
 -1       315 4.00772E+03-6.83645E+02-4.80307E+03 4.54185E-01 1.49274E+02 4.21682E+00
 -1       316 4.00772E+03-6.83645E+02-4.80307E+03-4.54185E-01-1.49274E+02 4.21682E+00
 -1       317 4.03923E+03-6.80662E+02-4.79606E+03 1.40177E+00 1.48537E+02 1.03054E+01
 -1       318 4.03923E+03-6.80662E+02-4.79606E+03-1.40177E+00-1.48537E+02 1.03054E+01
 -1       319 4.09946E+03-6.77012E+02-4.79226E+03 2.69165E+00 1.50111E+02 3.07170E+01
 -1       320 4.09946E+03-6.77012E+02-4.79226E+03-2.69165E+00-1.50111E+02 3.07170E+01
 -1       321 4.25996E+03-6.67791E+02-4.73503E+03 1.02044E+01 1.42179E+02 7.97353E+01
 -1       322 4.25996E+03-6.67791E+02-4.73503E+03-1.02044E+01-1.42179E+02 7.97353E+01
 -1       323 4.26200E+03-7.76286E+02-4.97457E+03-3.44715E+01 1.84917E+02 1.33608E+02
 -1       324 4.26200E+03-7.76286E+02-4.97457E+03 3.44715E+01-1.84917E+02 1.33608E+02
 -1       325 5.96194E+03 3.70949E+01-3.07349E+03 1.32556E+02 1.62769E+02-2.86303E+02
 -1       326 5.96194E+03 3.70949E+01-3.07349E+03-1.32556E+02-1.62769E+02-2.86303E+02
 -1       327 3.04185E+03-8.48815E+02-6.62990E+03-1.35584E+02 8.91761E+02-3.04673E+02
 -1       328 3.04185E+03-8.48815E+02-6.62990E+03 1.35584E+02-8.91761E+02-3.04673E+02
 -1       329 3.23134E+03 1.87366E+02-4.85693E+03 9.66108E+00 6.39957E+02-3.55059E+01
 -1       330 3.23134E+03 1.87366E+02-4.85693E+03-9.66108E+00-6.39957E+02-3.55059E+01
 -1       331 3.52953E+03-1.27474E+02-5.24765E+03 2.14388E+01 7.58212E+02 3.17632E+01
 -1       332 3.52953E+03-1.27474E+02-5.24765E+03-2.14388E+01-7.58212E+02 3.17632E+01
 -1       333 3.83771E+03-3.41411E+01-5.11414E+03 9.97471E+00 7.32770E+02 2.07876E+01
 -1       334 3.83771E+03-3.41411E+01-5.11414E+03-9.97471E+00-7.32770E+02 2.07876E+01
 -1       335 3.94536E+03-4.81370E+01-5.12391E+03 3.59686E+00 7.41458E+02 8.28150E+00
 -1       336 3.94536E+03-4.81370E+01-5.12391E+03-3.59686E+00-7.41458E+02 8.28150E+00
 -1       337 3.99765E+03-3.85968E+01-5.11183E+03 7.40689E-01 7.39522E+02 3.55527E+00
 -1       338 3.99765E+03-3.85968E+01-5.11183E+03-7.40689E-01-7.39522E+02 3.55527E+00
 -1       339 4.01615E+03-3.78929E+01-5.11142E+03 1.34394E-01 7.39820E+02 1.92488E+00
 -1       340 4.01615E+03-3.78929E+01-5.11142E+03-1.34394E-01-7.39820E+02 1.92488E+00
 -1       341 4.02858E+03-3.72223E+01-5.11091E+03 1.06533E-01 7.39595E+02 1.77745E+00
 -1       342 4.02858E+03-3.72223E+01-5.11091E+03-1.06533E-01-7.39595E+02 1.77745E+00
 -1       343 4.04076E+03-3.73288E+01-5.11113E+03 1.91282E-01 7.39579E+02 1.86105E+00
 -1       344 4.04076E+03-3.73288E+01-5.11113E+03-1.91282E-01-7.39579E+02 1.86105E+00
 -1       345 4.05394E+03-3.74105E+01-5.11122E+03 2.32527E-01 7.39562E+02 1.92681E+00
 -1       346 4.05394E+03-3.74105E+01-5.11122E+03-2.32527E-01-7.39562E+02 1.92681E+00
 -1       347 4.06728E+03-3.75160E+01-5.11131E+03 2.12388E-01 7.39551E+02 1.89006E+00
 -1       348 4.06728E+03-3.75160E+01-5.11131E+03-2.12388E-01-7.39551E+02 1.89006E+00
 -1       349 4.07967E+03-3.76859E+01-5.11157E+03 1.28857E-01 7.39555E+02 1.74880E+00
 -1       350 4.07967E+03-3.76859E+01-5.11157E+03-1.28857E-01-7.39555E+02 1.74880E+00
 -1       351 4.09039E+03-3.76085E+01-5.11158E+03-3.87902E-02 7.39359E+02 1.59654E+00
 -1       352 4.09039E+03-3.76085E+01-5.11158E+03 3.87902E-02-7.39359E+02 1.59654E+00
 -1       353 4.10154E+03-3.71313E+01-5.11208E+03 1.57833E-01 7.39619E+02 2.02924E+00
 -1       354 4.10154E+03-3.71313E+01-5.11208E+03-1.57833E-01-7.39619E+02 2.02924E+00
 -1       355 4.13072E+03-3.11902E+01-5.10380E+03 1.27147E+00 7.37506E+02 4.98331E+00
 -1       356 4.13072E+03-3.11902E+01-5.10380E+03-1.27147E+00-7.37506E+02 4.98331E+00
 -1       357 4.20170E+03-3.37830E+01-5.11416E+03 6.63895E+00 7.45256E+02 1.54203E+01
 -1       358 4.20170E+03-3.37830E+01-5.11416E+03-6.63895E+00-7.45256E+02 1.54203E+01
 -1       359 4.41501E+03 4.02712E-01-5.00639E+03 2.44748E+01 7.17084E+02 3.48811E+01
 -1       360 4.41501E+03 4.02712E-01-5.00639E+03-2.44748E+01-7.17084E+02 3.48811E+01
 -1       361 4.76739E+03-4.82695E+01-5.32222E+03 3.84547E+00 8.30161E+02 8.82301E+01
 -1       362 4.76739E+03-4.82695E+01-5.32222E+03-3.84547E+00-8.30161E+02 8.82301E+01
 -1       363 8.68566E+03 1.10921E+03-2.31327E+03 1.81580E+02 4.82357E+02-8.44635E+02
 -1       364 8.68566E+03 1.10921E+03-2.31327E+03-1.81580E+02-4.82357E+02-8.44635E+02
 -1       365 4.04715E+03-3.52527E+02-1.55741E+03 1.45720E+01 6.30736E+00 2.96241E+01
 -1       366 4.75932E+03 7.73394E+02-2.66662E+03-1.06931E+02 4.44799E+02-5.70836E+01
 -1       367 4.74254E+03-9.53704E+01-2.64668E+03-1.13481E+01 5.76407E+00 6.10499E+01
 -1       368 4.54098E+03 1.36355E+03-1.75565E+03 2.55489E+00 3.54057E+02-7.17077E+01
 -1       369 4.82908E+03-5.39852E+01-2.93604E+03-4.29478E+00 8.42740E+00 5.71242E+01
 -1       370 4.90408E+03 1.21411E+03-1.96868E+03 1.70234E+01 3.81365E+02 1.41009E+01
 -1       371 4.78707E+03-2.00473E+01-2.89338E+03-1.27377E+00 1.10008E+01 3.84820E+01
 -1       372 5.21842E+03 1.26731E+03-1.88544E+03 8.26275E+00 3.75887E+02 1.37352E+01
 -1       373 4.72700E+03-2.21028E+01-2.84289E+03-7.03137E-01 1.20679E+01 2.84078E+01
 -1       374 5.33224E+03 1.26278E+03-1.88135E+03 1.90575E+00 3.76514E+02 6.51055E+00
 -1       375 4.71039E+03-2.61192E+01-2.81790E+03-1.25547E-01 1.22686E+01 2.57691E+01
 -1       376 5.38006E+03 1.26823E+03-1.87294E+03 9.12282E-02 3.76437E+02 3.61582E+00
 -1       377 4.71672E+03-2.79251E+01-2.80964E+03 8.05404E-02 1.22154E+01 2.54707E+01
 -1       378 5.39707E+03 1.26907E+03-1.87184E+03-1.97361E-01 3.76463E+02 2.16045E+00
 -1       379 4.73029E+03-2.85473E+01-2.80813E+03 9.68064E-02 1.21513E+01 2.56396E+01
 -1       380 5.40882E+03 1.26938E+03-1.87166E+03-1.34821E-01 3.76454E+02 1.93449E+00
 -1       381 4.74516E+03-2.87020E+01-2.80844E+03 8.27831E-02 1.21079E+01 2.57999E+01
 -1       382 5.42094E+03 1.26930E+03-1.87186E+03-5.55653E-02 3.76450E+02 1.92857E+00
 -1       383 4.75992E+03-2.86902E+01-2.80892E+03 7.35002E-02 1.20821E+01 2.58663E+01
 -1       384 5.43416E+03 1.26922E+03-1.87198E+03-2.11439E-02 3.76447E+02 1.96004E+00
 -1       385 4.77468E+03-2.86407E+01-2.80945E+03 7.73668E-02 1.20630E+01 2.58535E+01
 -1       386 5.44757E+03 1.26913E+03-1.87210E+03-3.44844E-02 3.76442E+02 1.93342E+00
 -1       387 4.78987E+03-2.86373E+01-2.81020E+03 1.00131E-01 1.20318E+01 2.57339E+01
 -1       388 5.46000E+03 1.26898E+03-1.87235E+03-1.03222E-01 3.76445E+02 1.87214E+00
 -1       389 4.80533E+03-2.88978E+01-2.81056E+03 1.21552E-01 1.19944E+01 2.54422E+01
 -1       390 5.47054E+03 1.26898E+03-1.87257E+03-2.46040E-01 3.76407E+02 1.84496E+00
 -1       391 4.81826E+03-2.99327E+01-2.80728E+03 8.20621E-02 1.18553E+01 2.51277E+01
 -1       392 5.48044E+03 1.26914E+03-1.87267E+03-3.18259E-01 3.76533E+02 2.49077E+00
 -1       393 4.81650E+03-3.31658E+01-2.79134E+03-5.00386E-01 1.20748E+01 2.51361E+01
 -1       394 5.50525E+03 1.27383E+03-1.86730E+03 2.16041E-01 3.75951E+02 4.85618E+00
 -1       395 4.76781E+03-4.26393E+01-2.74510E+03-1.17164E+00 1.16438E+01 3.10416E+01
 -1       396 5.57648E+03 1.27066E+03-1.86573E+03 4.19861E+00 3.79259E+02 1.05765E+01
 -1       397 4.65061E+03-3.58468E+01-2.65536E+03 6.21431E-01 1.80110E+01 4.66816E+01
 -1       398 5.77130E+03 1.29235E+03-1.81137E+03 2.20582E+01 3.62762E+02 3.10860E+01
 -1       399 4.70329E+03 5.13000E+01-2.57782E+03-2.53500E+01 8.42534E+00 7.60352E+01
 -1       400 6.45025E+03 1.32235E+03-1.81972E+03 1.16749E+01 4.29145E+02-4.27964E+01
 -1       401 5.39994E+03 4.07436E+02-3.42619E+03 6.80362E+01 5.33902E+01 1.28073E+02
 -1       402 8.09701E+03 1.81353E+03-8.21865E+02-7.02211E+01 1.61309E+02-1.79618E+02
 -1       403 4.11692E+03-2.34604E+02-1.44477E+03 3.15727E+01 5.36643E+00 3.08051E+01
 -1       404 4.52062E+03 3.96931E+02-3.10333E+03-6.90646E+01-4.98572E+01-7.54804E+01
 -1       405 4.75834E+03-1.79563E+02-2.59974E+03-2.54625E+01 5.23215E+00 6.09186E+01
 -1       406 4.37536E+03 9.72977E+02-2.05905E+03-8.71669E+00-2.08291E+01-4.89633E+01
 -1       407 4.85008E+03-5.04053E+01-2.87234E+03-2.93119E-01 6.93199E+00 5.61851E+01
 -1       408 4.71804E+03 9.45459E+02-2.28479E+03 1.75007E+01-2.48864E+01 9.24970E+00
 -1       409 4.78459E+03-3.45698E+01-2.85129E+03-3.66344E-01 8.15721E+00 3.78290E+01
 -1       410 5.02191E+03 9.64510E+02-2.21043E+03 5.90681E+00-2.17214E+01 1.10164E+01
 -1       411 4.73372E+03-3.63918E+01-2.80253E+03-3.20461E-01 8.73579E+00 2.81703E+01
 -1       412 5.14608E+03 9.63459E+02-2.20502E+03 1.39210E+00-2.28221E+01 5.90798E+00
 -1       413 4.71850E+03-4.01852E+01-2.77805E+03-1.21890E-02 8.81439E+00 2.56490E+01
 -1       414 5.19305E+03 9.67407E+02-2.19589E+03-8.98775E-02-2.26265E+01 3.41026E+00
 -1       415 4.72494E+03-4.18323E+01-2.76977E+03 1.27987E-01 8.78773E+00 2.53818E+01
 -1       416 5.20955E+03 9.68288E+02-2.19486E+03-1.82994E-01-2.26700E+01 2.21097E+00
 -1       417 4.73839E+03-4.24788E+01-2.76816E+03 1.46881E-01 8.75293E+00 2.55490E+01
 -1       418 5.22089E+03 9.68462E+02-2.19468E+03-1.09296E-01-2.26790E+01 1.96053E+00
 -1       419 4.75320E+03-4.26534E+01-2.76841E+03 1.38100E-01 8.73015E+00 2.57048E+01
 -1       420 5.23294E+03 9.68383E+02-2.19490E+03-3.96878E-02-2.26799E+01 1.94716E+00
 -1       421 4.76793E+03-4.26616E+01-2.76887E+03 1.32794E-01 8.71678E+00 2.57687E+01
 -1       422 5.24614E+03 9.68317E+02-2.19502E+03-1.21683E-02-2.26796E+01 1.96699E+00
 -1       423 4.78267E+03-4.26285E+01-2.76938E+03 1.35238E-01 8.70608E+00 2.57568E+01
 -1       424 5.25956E+03 9.68246E+02-2.19514E+03-2.08716E-02-2.26776E+01 1.94728E+00
 -1       425 4.79782E+03-4.26399E+01-2.77007E+03 1.48241E-01 8.69292E+00 2.56387E+01
 -1       426 5.27198E+03 9.68131E+02-2.19538E+03-8.04021E-02-2.26804E+01 1.89758E+00
 -1       427 4.81319E+03-4.29233E+01-2.77034E+03 1.69731E-01 8.66059E+00 2.53634E+01
 -1       428 5.28231E+03 9.68049E+02-2.19567E+03-1.80312E-01-2.26709E+01 1.91523E+00
 -1       429 4.82579E+03-4.39404E+01-2.76689E+03 9.31456E-02 8.64148E+00 2.49901E+01
 -1       430 5.29146E+03 9.68178E+02-2.19573E+03-3.89392E-01-2.27728E+01 2.52866E+00
 -1       431 4.82421E+03-4.65440E+01-2.75108E+03-2.69405E-01 8.54981E+00 2.51948E+01
 -1       432 5.31505E+03 9.72340E+02-2.19060E+03 1.89712E-02-2.24253E+01 4.37616E+00
 -1       433 4.78192E+03-5.44525E+01-2.70429E+03-4.87213E-01 9.03199E+00 2.97462E+01
 -1       434 5.38525E+03 9.69690E+02-2.18682E+03 2.92279E+00-2.34908E+01 1.04326E+01
 -1       435 4.69017E+03-5.72313E+01-2.61937E+03 2.18409E+00 9.95031E+00 4.91751E+01
 -1       436 5.64310E+03 9.94452E+02-2.11573E+03 1.55945E+01-2.23946E+01 1.48397E+01
 -1       437 4.58699E+03-1.00900E+01-2.62160E+03-5.22168E+00 1.17649E+01 6.30288E+01
 -1       438 6.06050E+03 8.39964E+02-2.28773E+03 4.03764E+01-2.21011E+01 4.77986E+00
 -1       439 5.22046E+03 6.01195E+02-3.34819E+03-1.14525E+02 1.85745E+01 1.62691E+02
 -1       440 7.74946E+03 2.23237E+03-9.15328E+02-2.47829E+02-2.45222E+01-2.01322E+02
 -1       441 4.14020E+03-1.97413E+02-1.39979E+03 1.20259E-12-1.82465E-13 3.13412E+01
 -1       442 4.50233E+03 3.21724E+02-3.08866E+03-2.32259E-12 3.33955E-13-7.77375E+01
 -1       443 4.76505E+03-2.05095E+02-2.57412E+03 1.78302E-13-7.64805E-13 6.09572E+01
 -1       444 4.36561E+03 8.81618E+02-2.04748E+03-1.20307E-12 1.17950E-12-4.40974E+01
 -1       445 4.85859E+03-5.85116E+01-2.84363E+03-1.20104E-12-5.49616E-13 5.58154E+01
 -1       446 4.71075E+03 8.99264E+02-2.26178E+03-4.01545E-12 9.13047E-13 9.17264E+00
 -1       447 4.78732E+03-3.96165E+01-2.82665E+03 1.70158E-12-7.23310E-13 3.75782E+01
 -1       448 5.00833E+03 9.12635E+02-2.19256E+03 1.71338E-12-1.22569E-12 1.00950E+01
 -1       449 4.73716E+03-4.49374E+01-2.78008E+03 8.99752E-13-3.66429E-13 2.80408E+01
 -1       450 5.13516E+03 9.08913E+02-2.18737E+03-3.39728E-12 1.70175E-12 5.67712E+00
 -1       451 4.72337E+03-4.77192E+01-2.75527E+03 4.73847E-12-2.83662E-14 2.55655E+01
 -1       452 5.18272E+03 9.13323E+02-2.17775E+03 9.77218E-13-1.62004E-12 3.35482E+00
 -1       453 4.72959E+03-4.95044E+01-2.74710E+03-3.32362E-12-3.28348E-13 2.53067E+01
 -1       454 5.19886E+03 9.13907E+02-2.17679E+03 3.57124E-12 4.61853E-14 2.21199E+00
 -1       455 4.74306E+03-5.01085E+01-2.74545E+03 1.58785E-12-3.63182E-13 2.54744E+01
 -1       456 5.21013E+03 9.14101E+02-2.17660E+03 5.20972E-14-1.92557E-12 1.97051E+00
 -1       457 4.75784E+03-5.02974E+01-2.74568E+03 5.70935E-12-5.52891E-14 2.56285E+01
 -1       458 5.22213E+03 9.14010E+02-2.17683E+03-4.86411E-12 4.00391E-12 1.95141E+00
 -1       459 4.77257E+03-5.03092E+01-2.74613E+03 4.20267E-12-1.16529E-12 2.56919E+01
 -1       460 5.23533E+03 9.13953E+02-2.17696E+03 4.44350E-12-3.97549E-12 1.96999E+00
 -1       461 4.78729E+03-5.02808E+01-2.74664E+03 9.59485E-12 7.88508E-13 2.56792E+01
 -1       462 5.24875E+03 9.13893E+02-2.17708E+03-5.76193E-12 3.17257E-12 1.95139E+00
 -1       463 4.80243E+03-5.02933E+01-2.74731E+03 1.90109E-11-1.35941E-12 2.55664E+01
 -1       464 5.26117E+03 9.13792E+02-2.17733E+03 1.14309E-11-3.31823E-12 1.90364E+00
 -1       465 4.81773E+03-5.06130E+01-2.74755E+03 4.87816E-12 2.54269E-13 2.52766E+01
 -1       466 5.27134E+03 9.13638E+02-2.17761E+03-2.02145E-11 2.58993E-12 1.94605E+00
 -1       467 4.83043E+03-5.14456E+01-2.74399E+03 3.13082E-12-7.20840E-13 2.49613E+01
 -1       468 5.28070E+03 9.14076E+02-2.17765E+03-4.39773E-12-2.49045E-12 2.45994E+00
 -1       469 4.82776E+03-5.46890E+01-2.72868E+03 8.88765E-12-8.04745E-13 2.49418E+01
 -1       470 5.30175E+03 9.16226E+02-2.17320E+03-2.80140E-11 2.35900E-12 4.54235E+00
 -1       471 4.79328E+03-5.74471E+01-2.67906E+03-1.42519E-11-1.50421E-12 3.00328E+01
 -1       472 5.38110E+03 9.22283E+02-2.16429E+03 2.82112E-11-1.66622E-12 8.95565E+00
 -1       473 4.69165E+03-8.49709E+01-2.60685E+03-3.25162E-12 5.57887E-14 4.76660E+01
 -1       474 5.63424E+03 9.11298E+02-2.10706E+03-5.53935E-12-4.68958E-13 1.42035E+01
 -1       475 4.56737E+03 1.71252E+01-2.60664E+03 9.51639E-12-5.65326E-13 6.45653E+01
 -1       476 6.00033E+03 7.93891E+02-2.28314E+03-1.57101E-11-2.77112E-13 1.29743E+01
 -1       477 5.15338E+03 5.91341E+02-3.33451E+03 3.52074E-12-4.42868E-13 1.62097E+02
 -1       478 7.67663E+03 2.35097E+03-8.78182E+02 8.71125E-12-2.83862E-12-2.01547E+02
 -1       479 4.11692E+03-2.34604E+02-1.44477E+03-3.15727E+01-5.36643E+00 3.08051E+01
 -1       480 4.52062E+03 3.96931E+02-3.10333E+03 6.90646E+01 4.98572E+01-7.54804E+01
 -1       481 4.75834E+03-1.79563E+02-2.59974E+03 2.54625E+01-5.23215E+00 6.09186E+01
 -1       482 4.37536E+03 9.72977E+02-2.05905E+03 8.71669E+00 2.08291E+01-4.89633E+01
 -1       483 4.85008E+03-5.04053E+01-2.87234E+03 2.93119E-01-6.93199E+00 5.61851E+01
 -1       484 4.71804E+03 9.45459E+02-2.28479E+03-1.75007E+01 2.48864E+01 9.24970E+00
 -1       485 4.78459E+03-3.45698E+01-2.85129E+03 3.66344E-01-8.15721E+00 3.78290E+01
 -1       486 5.02191E+03 9.64510E+02-2.21043E+03-5.90681E+00 2.17214E+01 1.10164E+01
 -1       487 4.73372E+03-3.63918E+01-2.80253E+03 3.20461E-01-8.73579E+00 2.81703E+01
 -1       488 5.14608E+03 9.63459E+02-2.20502E+03-1.39210E+00 2.28221E+01 5.90798E+00
 -1       489 4.71850E+03-4.01852E+01-2.77805E+03 1.21890E-02-8.81439E+00 2.56490E+01
 -1       490 5.19305E+03 9.67407E+02-2.19589E+03 8.98775E-02 2.26265E+01 3.41026E+00
 -1       491 4.72494E+03-4.18323E+01-2.76977E+03-1.27987E-01-8.78773E+00 2.53818E+01
 -1       492 5.20955E+03 9.68288E+02-2.19486E+03 1.82994E-01 2.26700E+01 2.21097E+00
 -1       493 4.73839E+03-4.24788E+01-2.76816E+03-1.46881E-01-8.75293E+00 2.55490E+01
 -1       494 5.22089E+03 9.68462E+02-2.19468E+03 1.09296E-01 2.26790E+01 1.96053E+00
 -1       495 4.75320E+03-4.26534E+01-2.76841E+03-1.38100E-01-8.73015E+00 2.57048E+01
 -1       496 5.23294E+03 9.68383E+02-2.19490E+03 3.96878E-02 2.26799E+01 1.94716E+00
 -1       497 4.76793E+03-4.26616E+01-2.76887E+03-1.32794E-01-8.71678E+00 2.57687E+01
 -1       498 5.24614E+03 9.68317E+02-2.19502E+03 1.21683E-02 2.26796E+01 1.96699E+00
 -1       499 4.78267E+03-4.26285E+01-2.76938E+03-1.35238E-01-8.70608E+00 2.57568E+01
 -1       500 5.25956E+03 9.68246E+02-2.19514E+03 2.08716E-02 2.26776E+01 1.94728E+00
 -1       501 4.79782E+03-4.26399E+01-2.77007E+03-1.48241E-01-8.69292E+00 2.56387E+01
 -1       502 5.27198E+03 9.68131E+02-2.19538E+03 8.04021E-02 2.26804E+01 1.89758E+00
 -1       503 4.81319E+03-4.29233E+01-2.77034E+03-1.69731E-01-8.66059E+00 2.53634E+01
 -1       504 5.28231E+03 9.68049E+02-2.19567E+03 1.80312E-01 2.26709E+01 1.91523E+00
 -1       505 4.82579E+03-4.39404E+01-2.76689E+03-9.31456E-02-8.64148E+00 2.49901E+01
 -1       506 5.29146E+03 9.68178E+02-2.19573E+03 3.89392E-01 2.27728E+01 2.52866E+00
 -1       507 4.82421E+03-4.65440E+01-2.75108E+03 2.69405E-01-8.54981E+00 2.51948E+01
 -1       508 5.31505E+03 9.72340E+02-2.19060E+03-1.89712E-02 2.24253E+01 4.37616E+00
 -1       509 4.78192E+03-5.44525E+01-2.70429E+03 4.87213E-01-9.03199E+00 2.97462E+01
 -1       510 5.38525E+03 9.69690E+02-2.18682E+03-2.92279E+00 2.34908E+01 1.04326E+01
 -1       511 4.69017E+03-5.72313E+01-2.61937E+03-2.18409E+00-9.95031E+00 4.91751E+01
 -1       512 5.64310E+03 9.94452E+02-2.11573E+03-1.55945E+01 2.23946E+01 1.48397E+01
 -1       513 4.58699E+03-1.00900E+01-2.62160E+03 5.22168E+00-1.17649E+01 6.30288E+01
 -1       514 6.06050E+03 8.39964E+02-2.28773E+03-4.03764E+01 2.21011E+01 4.77986E+00
 -1       515 5.22046E+03 6.01195E+02-3.34819E+03 1.14525E+02-1.85745E+01 1.62691E+02
 -1       516 7.74946E+03 2.23237E+03-9.15328E+02 2.47829E+02 2.45222E+01-2.01322E+02
 -1       517 4.04715E+03-3.52527E+02-1.55741E+03-1.45720E+01-6.30736E+00 2.96241E+01
 -1       518 4.75932E+03 7.73394E+02-2.66662E+03 1.06931E+02-4.44799E+02-5.70836E+01
 -1       519 4.74254E+03-9.53704E+01-2.64668E+03 1.13481E+01-5.76407E+00 6.10499E+01
 -1       520 4.54098E+03 1.36355E+03-1.75565E+03-2.55489E+00-3.54057E+02-7.17077E+01
 -1       521 4.82908E+03-5.39852E+01-2.93604E+03 4.29478E+00-8.42740E+00 5.71242E+01
 -1       522 4.90408E+03 1.21411E+03-1.96868E+03-1.70234E+01-3.81365E+02 1.41009E+01
 -1       523 4.78707E+03-2.00473E+01-2.89338E+03 1.27377E+00-1.10008E+01 3.84820E+01
 -1       524 5.21842E+03 1.26731E+03-1.88544E+03-8.26275E+00-3.75887E+02 1.37352E+01
 -1       525 4.72700E+03-2.21028E+01-2.84289E+03 7.03137E-01-1.20679E+01 2.84078E+01
 -1       526 5.33224E+03 1.26278E+03-1.88135E+03-1.90575E+00-3.76514E+02 6.51055E+00
 -1       527 4.71039E+03-2.61192E+01-2.81790E+03 1.25547E-01-1.22686E+01 2.57691E+01
 -1       528 5.38006E+03 1.26823E+03-1.87294E+03-9.12282E-02-3.76437E+02 3.61582E+00
 -1       529 4.71672E+03-2.79251E+01-2.80964E+03-8.05404E-02-1.22154E+01 2.54707E+01
 -1       530 5.39707E+03 1.26907E+03-1.87184E+03 1.97361E-01-3.76463E+02 2.16045E+00
 -1       531 4.73029E+03-2.85473E+01-2.80813E+03-9.68064E-02-1.21513E+01 2.56396E+01
 -1       532 5.40882E+03 1.26938E+03-1.87166E+03 1.34821E-01-3.76454E+02 1.93449E+00
 -1       533 4.74516E+03-2.87020E+01-2.80844E+03-8.27831E-02-1.21079E+01 2.57999E+01
 -1       534 5.42094E+03 1.26930E+03-1.87186E+03 5.55653E-02-3.76450E+02 1.92857E+00
 -1       535 4.75992E+03-2.86902E+01-2.80892E+03-7.35002E-02-1.20821E+01 2.58663E+01
 -1       536 5.43416E+03 1.26922E+03-1.87198E+03 2.11439E-02-3.76447E+02 1.96004E+00
 -1       537 4.77468E+03-2.86407E+01-2.80945E+03-7.73668E-02-1.20630E+01 2.58535E+01
 -1       538 5.44757E+03 1.26913E+03-1.87210E+03 3.44844E-02-3.76442E+02 1.93342E+00
 -1       539 4.78987E+03-2.86373E+01-2.81020E+03-1.00131E-01-1.20318E+01 2.57339E+01
 -1       540 5.46000E+03 1.26898E+03-1.87235E+03 1.03222E-01-3.76445E+02 1.87214E+00
 -1       541 4.80533E+03-2.88978E+01-2.81056E+03-1.21552E-01-1.19944E+01 2.54422E+01
 -1       542 5.47054E+03 1.26898E+03-1.87257E+03 2.46040E-01-3.76407E+02 1.84496E+00
 -1       543 4.81826E+03-2.99327E+01-2.80728E+03-8.20621E-02-1.18553E+01 2.51277E+01
 -1       544 5.48044E+03 1.26914E+03-1.87267E+03 3.18259E-01-3.76533E+02 2.49077E+00
 -1       545 4.81650E+03-3.31658E+01-2.79134E+03 5.00386E-01-1.20748E+01 2.51361E+01
 -1       546 5.50525E+03 1.27383E+03-1.86730E+03-2.16041E-01-3.75951E+02 4.85618E+00
 -1       547 4.76781E+03-4.26393E+01-2.74510E+03 1.17164E+00-1.16438E+01 3.10416E+01
 -1       548 5.57648E+03 1.27066E+03-1.86573E+03-4.19861E+00-3.79259E+02 1.05765E+01
 -1       549 4.65061E+03-3.58468E+01-2.65536E+03-6.21431E-01-1.80110E+01 4.66816E+01
 -1       550 5.77130E+03 1.29235E+03-1.81137E+03-2.20582E+01-3.62762E+02 3.10860E+01
 -1       551 4.70329E+03 5.13000E+01-2.57782E+03 2.53500E+01-8.42534E+00 7.60352E+01
 -1       552 6.45025E+03 1.32235E+03-1.81972E+03-1.16749E+01-4.29145E+02-4.27964E+01
 -1       553 5.39994E+03 4.07436E+02-3.42619E+03-6.80362E+01-5.33902E+01 1.28073E+02
 -1       554 8.09701E+03 1.81353E+03-8.21865E+02 7.02211E+01-1.61309E+02-1.79618E+02
 -1       555 4.05608E+03-3.64208E+02-1.61711E+03 1.64241E+01 2.74601E+01-2.10033E+02
 -1       556 4.73765E+03-1.02189E+02-2.68207E+03-1.06721E+01 3.03593E+01-9.02141E+00
 -1       557 4.81129E+03-6.11255E+01-2.94300E+03-4.33560E+00 3.12695E+01 6.58640E+01
 -1       558 4.76906E+03-2.96967E+01-2.89902E+03-1.28913E+00 3.15284E+01 5.37945E+01
 -1       559 4.71524E+03-3.28215E+01-2.85244E+03-6.67901E-01 3.15056E+01 3.45115E+01
 -1       560 4.70285E+03-3.63278E+01-2.82876E+03-1.33250E-01 3.13981E+01 2.58714E+01
 -1       561 4.71036E+03-3.78361E+01-2.82080E+03 5.57041E-02 3.13380E+01 2.32598E+01
 -1       562 4.72408E+03-3.83652E+01-2.81939E+03 7.05078E-02 3.13157E+01 2.28822E+01
 -1       563 4.73891E+03-3.84753E+01-2.81967E+03 5.75321E-02 3.13033E+01 2.30279E+01
 -1       564 4.75361E+03-3.84457E+01-2.82012E+03 4.91820E-02 3.12959E+01 2.31333E+01
 -1       565 4.76829E+03-3.83877E+01-2.82062E+03 5.35860E-02 3.12908E+01 2.30797E+01
 -1       566 4.78336E+03-3.83695E+01-2.82132E+03 7.34399E-02 3.12846E+01 2.28447E+01
 -1       567 4.79871E+03-3.85999E+01-2.82169E+03 9.72490E-02 3.12788E+01 2.26150E+01
 -1       568 4.81162E+03-3.95913E+01-2.81865E+03 5.27595E-02 3.12289E+01 2.33814E+01
 -1       569 4.81280E+03-4.19633E+01-2.80285E+03-4.91038E-01 3.12425E+01 2.80947E+01
 -1       570 4.76895E+03-5.28682E+01-2.76244E+03-7.16492E-01 3.04323E+01 4.47451E+01
 -1       571 4.66702E+03-4.25144E+01-2.66821E+03-1.94397E+00 3.41676E+01 7.67993E+01
 -1       572 4.72458E+03 2.98761E+01-2.61726E+03-8.02493E+00 1.83802E+01 6.06894E+01
 -1       573 4.84320E+03 2.08716E+02-3.40079E+03-4.37149E+01 8.73111E+01-7.75095E+01
 -1       574 4.13257E+03-2.47110E+02-1.48162E+03 3.31682E+01 2.55853E+01-2.02681E+02
 -1       575 4.75862E+03-1.90256E+02-2.61136E+03-2.48835E+01 2.85644E+01-9.25690E+00
 -1       576 4.83851E+03-6.04995E+01-2.85491E+03-3.60202E-01 2.95253E+01 6.28686E+01
 -1       577 4.77313E+03-4.78195E+01-2.83283E+03-4.32544E-01 2.98076E+01 5.18090E+01
 -1       578 4.72866E+03-5.03833E+01-2.78753E+03-3.88015E-01 2.98143E+01 3.38339E+01
 -1       579 4.71753E+03-5.36565E+01-2.76435E+03-9.99708E-02 2.97244E+01 2.57059E+01
 -1       580 4.72510E+03-5.49825E+01-2.75635E+03 3.19993E-02 2.96801E+01 2.32268E+01
 -1       581 4.73869E+03-5.55243E+01-2.75484E+03 5.16511E-02 2.96614E+01 2.28554E+01
 -1       582 4.75347E+03-5.56427E+01-2.75506E+03 4.36780E-02 2.96522E+01 2.29867E+01
 -1       583 4.76814E+03-5.56242E+01-2.75549E+03 3.92640E-02 2.96469E+01 2.30842E+01
 -1       584 4.78280E+03-5.55751E+01-2.75598E+03 4.16242E-02 2.96433E+01 2.30335E+01
 -1       585 4.79784E+03-5.55633E+01-2.75663E+03 5.38312E-02 2.96393E+01 2.28142E+01
 -1       586 4.81307E+03-5.58328E+01-2.75689E+03 7.41867E-02 2.96286E+01 2.26068E+01
 -1       587 4.82576E+03-5.67093E+01-2.75369E+03-1.10815E-02 2.96198E+01 2.33389E+01
 -1       588 4.82631E+03-5.90407E+01-2.73819E+03-2.86740E-01 2.94647E+01 2.78306E+01
 -1       589 4.79175E+03-6.56796E+01-2.69591E+03-7.67560E-01 2.95865E+01 4.30828E+01
 -1       590 4.70395E+03-7.57629E+01-2.61196E+03 3.35952E+00 2.94489E+01 7.44573E+01
 -1       591 4.64444E+03-5.35336E+00-2.61645E+03-9.54820E+00 2.78801E+01 5.44827E+01
 -1       592 4.63915E+03 3.59719E+02-3.34392E+03-1.03297E+02 5.42128E+01-5.52349E+01
 -1       593 4.15820E+03-2.10919E+02-1.42803E+03 1.75415E-14-5.28910E-13-1.99379E+02
 -1       594 4.76732E+03-2.17682E+02-2.57623E+03 3.56437E-13-1.41220E-13-9.05121E+00
 -1       595 4.84917E+03-7.02983E+01-2.81694E+03-1.32339E-13-1.35425E-12 6.19063E+01
 -1       596 4.77824E+03-5.48085E+01-2.79880E+03-3.35904E-12-1.27587E-12 5.11375E+01
 -1       597 4.73449E+03-6.07879E+01-2.75564E+03 2.96535E-12-2.64899E-13 3.35795E+01
 -1       598 4.72474E+03-6.30385E+01-2.73210E+03 3.46178E-12-9.25482E-13 2.56227E+01
 -1       599 4.73208E+03-6.45046E+01-2.72422E+03 2.03206E-12-2.13163E-13 2.31881E+01
 -1       600 4.74569E+03-6.50027E+01-2.72266E+03-1.24322E-12-2.22977E-12 2.28203E+01
 -1       601 4.76043E+03-6.51342E+01-2.72287E+03-1.21120E-12 1.01408E-12 2.29470E+01
 -1       602 4.77509E+03-6.51190E+01-2.72329E+03 2.49256E-12-1.88094E-12 2.30422E+01
 -1       603 4.78975E+03-6.50715E+01-2.72377E+03 5.90413E-13-1.50990E-14 2.29922E+01
 -1       604 4.80478E+03-6.50714E+01-2.72441E+03 8.71724E-12-2.37343E-12 2.27792E+01
 -1       605 4.81997E+03-6.53293E+01-2.72464E+03-1.02562E-11 2.11609E-13 2.25715E+01
 -1       606 4.83259E+03-6.62224E+01-2.72140E+03-1.32692E-11-1.81921E-12 2.33220E+01
 -1       607 4.83257E+03-6.84552E+01-2.70609E+03-4.22905E-12 2.08056E-12 2.76056E+01
 -1       608 4.80403E+03-7.25375E+01-2.66203E+03 7.93943E-12-1.76437E-12 4.28854E+01
 -1       609 4.71104E+03-9.90098E+01-2.58739E+03-1.76370E-12-1.10290E-12 7.25009E+01
 -1       610 4.62108E+03 3.55080E+00-2.59713E+03 7.98228E-12-1.29519E-12 5.54980E+01
 -1       611 4.59482E+03 3.86387E+02-3.31113E+03-5.63638E-12-2.89546E-13-5.17633E+01
 -1       612 4.13257E+03-2.47110E+02-1.48162E+03-3.31682E+01-2.55853E+01-2.02681E+02
 -1       613 4.75862E+03-1.90256E+02-2.61136E+03 2.48835E+01-2.85644E+01-9.25690E+00
 -1       614 4.83851E+03-6.04995E+01-2.85491E+03 3.60202E-01-2.95253E+01 6.28686E+01
 -1       615 4.77313E+03-4.78195E+01-2.83283E+03 4.32544E-01-2.98076E+01 5.18090E+01
 -1       616 4.72866E+03-5.03833E+01-2.78753E+03 3.88015E-01-2.98143E+01 3.38339E+01
 -1       617 4.71753E+03-5.36565E+01-2.76435E+03 9.99708E-02-2.97244E+01 2.57059E+01
 -1       618 4.72510E+03-5.49825E+01-2.75635E+03-3.19993E-02-2.96801E+01 2.32268E+01
 -1       619 4.73869E+03-5.55243E+01-2.75484E+03-5.16511E-02-2.96614E+01 2.28554E+01
 -1       620 4.75347E+03-5.56427E+01-2.75506E+03-4.36780E-02-2.96522E+01 2.29867E+01
 -1       621 4.76814E+03-5.56242E+01-2.75549E+03-3.92640E-02-2.96469E+01 2.30842E+01
 -1       622 4.78280E+03-5.55751E+01-2.75598E+03-4.16242E-02-2.96433E+01 2.30335E+01
 -1       623 4.79784E+03-5.55633E+01-2.75663E+03-5.38312E-02-2.96393E+01 2.28142E+01
 -1       624 4.81307E+03-5.58328E+01-2.75689E+03-7.41867E-02-2.96286E+01 2.26068E+01
 -1       625 4.82576E+03-5.67093E+01-2.75369E+03 1.10815E-02-2.96198E+01 2.33389E+01
 -1       626 4.82631E+03-5.90407E+01-2.73819E+03 2.86740E-01-2.94647E+01 2.78306E+01
 -1       627 4.79175E+03-6.56796E+01-2.69591E+03 7.67560E-01-2.95865E+01 4.30828E+01
 -1       628 4.70395E+03-7.57629E+01-2.61196E+03-3.35952E+00-2.94489E+01 7.44573E+01
 -1       629 4.64444E+03-5.35336E+00-2.61645E+03 9.54820E+00-2.78801E+01 5.44827E+01
 -1       630 4.63915E+03 3.59719E+02-3.34392E+03 1.03297E+02-5.42128E+01-5.52349E+01
 -1       631 4.05608E+03-3.64208E+02-1.61711E+03-1.64241E+01-2.74601E+01-2.10033E+02
 -1       632 4.73765E+03-1.02189E+02-2.68207E+03 1.06721E+01-3.03593E+01-9.02141E+00
 -1       633 4.81129E+03-6.11255E+01-2.94300E+03 4.33560E+00-3.12695E+01 6.58640E+01
 -1       634 4.76906E+03-2.96967E+01-2.89902E+03 1.28913E+00-3.15284E+01 5.37945E+01
 -1       635 4.71524E+03-3.28215E+01-2.85244E+03 6.67901E-01-3.15056E+01 3.45115E+01
 -1       636 4.70285E+03-3.63278E+01-2.82876E+03 1.33250E-01-3.13981E+01 2.58714E+01
 -1       637 4.71036E+03-3.78361E+01-2.82080E+03-5.57041E-02-3.13380E+01 2.32598E+01
 -1       638 4.72408E+03-3.83652E+01-2.81939E+03-7.05078E-02-3.13157E+01 2.28822E+01
 -1       639 4.73891E+03-3.84753E+01-2.81967E+03-5.75321E-02-3.13033E+01 2.30279E+01
 -1       640 4.75361E+03-3.84457E+01-2.82012E+03-4.91820E-02-3.12959E+01 2.31333E+01
 -1       641 4.76829E+03-3.83877E+01-2.82062E+03-5.35860E-02-3.12908E+01 2.30797E+01
 -1       642 4.78336E+03-3.83695E+01-2.82132E+03-7.34399E-02-3.12846E+01 2.28447E+01
 -1       643 4.79871E+03-3.85999E+01-2.82169E+03-9.72490E-02-3.12788E+01 2.26150E+01
 -1       644 4.81162E+03-3.95913E+01-2.81865E+03-5.27595E-02-3.12289E+01 2.33814E+01
 -1       645 4.81280E+03-4.19633E+01-2.80285E+03 4.91038E-01-3.12425E+01 2.80947E+01
 -1       646 4.76895E+03-5.28682E+01-2.76244E+03 7.16492E-01-3.04323E+01 4.47451E+01
 -1       647 4.66702E+03-4.25144E+01-2.66821E+03 1.94397E+00-3.41676E+01 7.67993E+01
 -1       648 4.72458E+03 2.98761E+01-2.61726E+03 8.02493E+00-1.83802E+01 6.06894E+01
 -1       649 4.84320E+03 2.08716E+02-3.40079E+03 4.37149E+01-8.73111E+01-7.75095E+01
 -1       650 4.05267E+03-4.04070E+02-1.81113E+03 2.29966E+01 6.55474E+01-4.17694E+02
 -1       651 4.71519E+03-1.18371E+02-2.78033E+03-9.62798E+00 7.18233E+01-2.23520E+01
 -1       652 4.76038E+03-7.29324E+01-2.95641E+03-4.42573E+00 7.48009E+01 1.00533E+02
 -1       653 4.71999E+03-5.13449E+01-2.91379E+03-1.15385E+00 7.57653E+01 7.13550E+01
 -1       654 4.68553E+03-5.66930E+01-2.87807E+03-5.23618E-01 7.56857E+01 3.78682E+01
 -1       655 4.68428E+03-5.88909E+01-2.85764E+03-1.04437E-01 7.54692E+01 2.29682E+01
 -1       656 4.69474E+03-5.97970E+01-2.85075E+03 4.28737E-02 7.53914E+01 1.84668E+01
 -1       657 4.70884E+03-6.01451E+01-2.84959E+03 5.14243E-02 7.53660E+01 1.79005E+01
 -1       658 4.72350E+03-6.01955E+01-2.84981E+03 3.80704E-02 7.53595E+01 1.81718E+01
 -1       659 4.73798E+03-6.01693E+01-2.85019E+03 3.08540E-02 7.53598E+01 1.83607E+01
 -1       660 4.75244E+03-6.01284E+01-2.85062E+03 3.45366E-02 7.53614E+01 1.82594E+01
 -1       661 4.76720E+03-6.00966E+01-2.85119E+03 5.18179E-02 7.53621E+01 1.78337E+01
 -1       662 4.78221E+03-6.02709E+01-2.85154E+03 7.95169E-02 7.53434E+01 1.73857E+01
 -1       663 4.79589E+03-6.08137E+01-2.84886E+03 2.05561E-02 7.53338E+01 1.86778E+01
 -1       664 4.80329E+03-6.21868E+01-2.83495E+03-2.70208E-01 7.50144E+01 2.73477E+01
 -1       665 4.78095E+03-6.99997E+01-2.80163E+03-9.97903E-01 7.50176E+01 5.54903E+01
 -1       666 4.71370E+03-6.99076E+01-2.72785E+03 4.33444E-01 7.46211E+01 1.16922E+02
 -1       667 4.65135E+03-3.96471E+01-2.69639E+03-1.73578E+01 7.38441E+01 1.09193E+02
 -1       668 4.71850E+03 2.13180E+02-3.03696E+03-3.74114E+01 1.14789E+02-2.05604E+02
 -1       669 4.14762E+03-2.96813E+02-1.60466E+03 3.86722E+01 5.92456E+01-3.98314E+02
 -1       670 4.75281E+03-2.17145E+02-2.63422E+03-2.37272E+01 6.54901E+01-2.22987E+01
 -1       671 4.80645E+03-8.34208E+01-2.79348E+03-1.78411E-01 6.80782E+01 9.46263E+01
 -1       672 4.74426E+03-8.13228E+01-2.77243E+03-3.43991E-01 6.90668E+01 6.77553E+01
 -1       673 4.71927E+03-8.57041E+01-2.73715E+03-3.20762E-01 6.89997E+01 3.67081E+01
 -1       674 4.71886E+03-8.76526E+01-2.71716E+03-1.05784E-01 6.88339E+01 2.27665E+01
 -1       675 4.72925E+03-8.83673E+01-2.71019E+03 1.39455E-02 6.87687E+01 1.85080E+01
 -1       676 4.74318E+03-8.87254E+01-2.70897E+03 3.20995E-02 6.87456E+01 1.79495E+01
 -1       677 4.75778E+03-8.87761E+01-2.70914E+03 2.52614E-02 6.87394E+01 1.81938E+01
 -1       678 4.77224E+03-8.87569E+01-2.70951E+03 2.19011E-02 6.87390E+01 1.83682E+01
 -1       679 4.78669E+03-8.87174E+01-2.70992E+03 2.36357E-02 6.87403E+01 1.82729E+01
 -1       680 4.80141E+03-8.87006E+01-2.71047E+03 3.47810E-02 6.87381E+01 1.78785E+01
 -1       681 4.81635E+03-8.88589E+01-2.71070E+03 4.82681E-02 6.87302E+01 1.74685E+01
 -1       682 4.82953E+03-8.95214E+01-2.70801E+03-1.55308E-02 6.86847E+01 1.87559E+01
 -1       683 4.83656E+03-9.00225E+01-2.69382E+03-3.24995E-01 6.85352E+01 2.67711E+01
 -1       684 4.82146E+03-9.62272E+01-2.65991E+03-4.56400E-01 6.82736E+01 5.33906E+01
 -1       685 4.77126E+03-1.08486E+02-2.59179E+03 3.19264E+00 6.83766E+01 1.08850E+02
 -1       686 4.59666E+03-9.54363E+01-2.61586E+03-9.80110E+00 6.84463E+01 1.06997E+02
 -1       687 4.59512E+03 3.68505E+02-2.92223E+03-1.03974E+02 9.78387E+01-1.78679E+02
 -1       688 4.17830E+03-2.67664E+02-1.52764E+03 1.27010E-13-1.11022E-13-3.90098E+02
 -1       689 4.76608E+03-2.51675E+02-2.57318E+03 6.69409E-13 4.26326E-13-2.17253E+01
 -1       690 4.82203E+03-1.01201E+02-2.73052E+03-4.35540E-12-8.88178E-14 9.28423E+01
 -1       691 4.75498E+03-9.64084E+01-2.71282E+03-1.50439E-12-7.51399E-13 6.65894E+01
 -1       692 4.73068E+03-1.04168E+02-2.67962E+03-3.30468E-12-5.12035E-13 3.63132E+01
 -1       693 4.73157E+03-1.05029E+02-2.65919E+03 1.68061E-12-2.39808E-14 2.26886E+01
 -1       694 4.74167E+03-1.05902E+02-2.65234E+03-1.07150E-11-3.18856E-13 1.85150E+01
 -1       695 4.75559E+03-1.06207E+02-2.65107E+03-3.29306E-13-1.32827E-12 1.79611E+01
 -1       696 4.77016E+03-1.06271E+02-2.65123E+03-5.27624E-12 2.34879E-12 1.81974E+01
 -1       697 4.78462E+03-1.06252E+02-2.65159E+03 3.51418E-12-1.77192E-12 1.83671E+01
 -1       698 4.79907E+03-1.06216E+02-2.65201E+03-7.40676E-12 1.32605E-12 1.82745E+01
 -1       699 4.81378E+03-1.06200E+02-2.65254E+03-1.29424E-13-2.10365E-12 1.78873E+01
 -1       700 4.82866E+03-1.06377E+02-2.65276E+03-6.07216E-12 5.82645E-13 1.74961E+01
 -1       701 4.84177E+03-1.06975E+02-2.64999E+03-2.93550E-13-1.00542E-12 1.87550E+01
 -1       702 4.84810E+03-1.07573E+02-2.63606E+03-6.57048E-12 2.28617E-12 2.66012E+01
 -1       703 4.83882E+03-1.10858E+02-2.60024E+03 2.60986E-12 2.28262E-13 5.26096E+01
 -1       704 4.78340E+03-1.39627E+02-2.54094E+03 1.56075E-12-2.41185E-12 1.06293E+02
 -1       705 4.58419E+03-9.36787E+01-2.56835E+03-8.13127E-13-2.08944E-12 1.07074E+02
 -1       706 4.55541E+03 3.83449E+02-2.87633E+03 7.98828E-12 1.31983E-12-1.68936E+02
 -1       707 4.14762E+03-2.96813E+02-1.60466E+03-3.86722E+01-5.92456E+01-3.98314E+02
 -1       708 4.75281E+03-2.17145E+02-2.63422E+03 2.37272E+01-6.54901E+01-2.22987E+01
 -1       709 4.80645E+03-8.34208E+01-2.79348E+03 1.78411E-01-6.80782E+01 9.46263E+01
 -1       710 4.74426E+03-8.13228E+01-2.77243E+03 3.43991E-01-6.90668E+01 6.77553E+01
 -1       711 4.71927E+03-8.57041E+01-2.73715E+03 3.20762E-01-6.89997E+01 3.67081E+01
 -1       712 4.71886E+03-8.76526E+01-2.71716E+03 1.05784E-01-6.88339E+01 2.27665E+01
 -1       713 4.72925E+03-8.83673E+01-2.71019E+03-1.39455E-02-6.87687E+01 1.85080E+01
 -1       714 4.74318E+03-8.87254E+01-2.70897E+03-3.20995E-02-6.87456E+01 1.79495E+01
 -1       715 4.75778E+03-8.87761E+01-2.70914E+03-2.52614E-02-6.87394E+01 1.81938E+01
 -1       716 4.77224E+03-8.87569E+01-2.70951E+03-2.19011E-02-6.87390E+01 1.83682E+01
 -1       717 4.78669E+03-8.87174E+01-2.70992E+03-2.36357E-02-6.87403E+01 1.82729E+01
 -1       718 4.80141E+03-8.87006E+01-2.71047E+03-3.47810E-02-6.87381E+01 1.78785E+01
 -1       719 4.81635E+03-8.88589E+01-2.71070E+03-4.82681E-02-6.87302E+01 1.74685E+01
 -1       720 4.82953E+03-8.95214E+01-2.70801E+03 1.55308E-02-6.86847E+01 1.87559E+01
 -1       721 4.83656E+03-9.00225E+01-2.69382E+03 3.24995E-01-6.85352E+01 2.67711E+01
 -1       722 4.82146E+03-9.62272E+01-2.65991E+03 4.56400E-01-6.82736E+01 5.33906E+01
 -1       723 4.77126E+03-1.08486E+02-2.59179E+03-3.19264E+00-6.83766E+01 1.08850E+02
 -1       724 4.59666E+03-9.54363E+01-2.61586E+03 9.80110E+00-6.84463E+01 1.06997E+02
 -1       725 4.59512E+03 3.68505E+02-2.92223E+03 1.03974E+02-9.78387E+01-1.78679E+02
 -1       726 4.05267E+03-4.04070E+02-1.81113E+03-2.29966E+01-6.55474E+01-4.17694E+02
 -1       727 4.71519E+03-1.18371E+02-2.78033E+03 9.62798E+00-7.18233E+01-2.23520E+01
 -1       728 4.76038E+03-7.29324E+01-2.95641E+03 4.42573E+00-7.48009E+01 1.00533E+02
 -1       729 4.71999E+03-5.13449E+01-2.91379E+03 1.15385E+00-7.57653E+01 7.13550E+01
 -1       730 4.68553E+03-5.66930E+01-2.87807E+03 5.23618E-01-7.56857E+01 3.78682E+01
 -1       731 4.68428E+03-5.88909E+01-2.85764E+03 1.04437E-01-7.54692E+01 2.29682E+01
 -1       732 4.69474E+03-5.97970E+01-2.85075E+03-4.28737E-02-7.53914E+01 1.84668E+01
 -1       733 4.70884E+03-6.01451E+01-2.84959E+03-5.14243E-02-7.53660E+01 1.79005E+01
 -1       734 4.72350E+03-6.01955E+01-2.84981E+03-3.80704E-02-7.53595E+01 1.81718E+01
 -1       735 4.73798E+03-6.01693E+01-2.85019E+03-3.08540E-02-7.53598E+01 1.83607E+01
 -1       736 4.75244E+03-6.01284E+01-2.85062E+03-3.45366E-02-7.53614E+01 1.82594E+01
 -1       737 4.76720E+03-6.00966E+01-2.85119E+03-5.18179E-02-7.53621E+01 1.78337E+01
 -1       738 4.78221E+03-6.02709E+01-2.85154E+03-7.95169E-02-7.53434E+01 1.73857E+01
 -1       739 4.79589E+03-6.08137E+01-2.84886E+03-2.05561E-02-7.53338E+01 1.86778E+01
 -1       740 4.80329E+03-6.21868E+01-2.83495E+03 2.70208E-01-7.50144E+01 2.73477E+01
 -1       741 4.78095E+03-6.99997E+01-2.80163E+03 9.97903E-01-7.50176E+01 5.54903E+01
 -1       742 4.71370E+03-6.99076E+01-2.72785E+03-4.33444E-01-7.46211E+01 1.16922E+02
 -1       743 4.65135E+03-3.96471E+01-2.69639E+03 1.73578E+01-7.38441E+01 1.09193E+02
 -1       744 4.71850E+03 2.13180E+02-3.03696E+03 3.74114E+01-1.14789E+02-2.05604E+02
 -1       745 4.04201E+03-4.67282E+02-2.14929E+03 3.60248E+01 1.25276E+02-5.86763E+02
 -1       746 4.67729E+03-1.23910E+02-2.89762E+03-8.27223E+00 1.31232E+02-1.01093E+00
 -1       747 4.67501E+03-7.92341E+01-2.95347E+03-4.33399E+00 1.38161E+02 1.21554E+02
 -1       748 4.64925E+03-7.64586E+01-2.92904E+03-6.47590E-01 1.40068E+02 7.51569E+01
 -1       749 4.65013E+03-8.21219E+01-2.90557E+03-2.75331E-01 1.39589E+02 3.67002E+01
 -1       750 4.66405E+03-8.22080E+01-2.88892E+03-6.13868E-02 1.39276E+02 1.87479E+01
 -1       751 4.67822E+03-8.24931E+01-2.88391E+03 4.52649E-02 1.39169E+02 1.36685E+01
 -1       752 4.69279E+03-8.25138E+01-2.88291E+03 3.98339E-02 1.39132E+02 1.30840E+01
 -1       753 4.70708E+03-8.25122E+01-2.88308E+03 2.91818E-02 1.39126E+02 1.34424E+01
 -1       754 4.72125E+03-8.24997E+01-2.88336E+03 2.34846E-02 1.39130E+02 1.36740E+01
 -1       755 4.73540E+03-8.24834E+01-2.88367E+03 2.59426E-02 1.39136E+02 1.35519E+01
 -1       756 4.74963E+03-8.24744E+01-2.88411E+03 3.91692E-02 1.39138E+02 1.30279E+01
 -1       757 4.76412E+03-8.24687E+01-2.88428E+03 5.99215E-02 1.39123E+02 1.24441E+01
 -1       758 4.77876E+03-8.26162E+01-2.88228E+03 4.74288E-02 1.39054E+02 1.37979E+01
 -1       759 4.79316E+03-8.24414E+01-2.87148E+03-2.49639E-01 1.38856E+02 2.42040E+01
 -1       760 4.80737E+03-8.43907E+01-2.84252E+03-1.23282E-01 1.38013E+02 5.65128E+01
 -1       761 4.77632E+03-1.03427E+02-2.81896E+03-1.77950E-01 1.37662E+02 1.31379E+02
 -1       762 4.67594E+03-9.08464E+01-2.73189E+03-1.71075E+01 1.42603E+02 1.53528E+02
 -1       763 4.81050E+03 2.44740E+02-2.71721E+03-2.64373E+01 1.63699E+02-1.53487E+02
 -1       764 4.16804E+03-3.78098E+02-1.82217E+03 4.82120E+01 1.01426E+02-5.46605E+02
 -1       765 4.74188E+03-2.36747E+02-2.62809E+03-2.20618E+01 1.08513E+02-9.09078E-01
 -1       766 4.75161E+03-1.06848E+02-2.67033E+03 3.34456E-01 1.14225E+02 1.12991E+02
 -1       767 4.70730E+03-1.23721E+02-2.66473E+03 3.15335E-02 1.15993E+02 7.03993E+01
 -1       768 4.71724E+03-1.28085E+02-2.64121E+03-2.21250E-01 1.15664E+02 3.51637E+01
 -1       769 4.73149E+03-1.27889E+02-2.62469E+03-9.92985E-02 1.15421E+02 1.85209E+01
 -1       770 4.74533E+03-1.28022E+02-2.61963E+03 4.64780E-03 1.15331E+02 1.37452E+01
 -1       771 4.75967E+03-1.28041E+02-2.61859E+03 2.03202E-02 1.15298E+02 1.31632E+01
 -1       772 4.77390E+03-1.28046E+02-2.61872E+03 1.71589E-02 1.15292E+02 1.34853E+01
 -1       773 4.78806E+03-1.28036E+02-2.61899E+03 1.53252E-02 1.15295E+02 1.36966E+01
 -1       774 4.80221E+03-1.28024E+02-2.61930E+03 1.68795E-02 1.15299E+02 1.35835E+01
 -1       775 4.81642E+03-1.28018E+02-2.61972E+03 2.20351E-02 1.15299E+02 1.31010E+01
 -1       776 4.83079E+03-1.28036E+02-2.61983E+03 3.44473E-02 1.15286E+02 1.25765E+01
 -1       777 4.84481E+03-1.28210E+02-2.61783E+03-2.79251E-02 1.15217E+02 1.39183E+01
 -1       778 4.85847E+03-1.27437E+02-2.60671E+03-3.35847E-01 1.15097E+02 2.35781E+01
 -1       779 4.87816E+03-1.27486E+02-2.57715E+03-3.17487E-02 1.14262E+02 5.35440E+01
 -1       780 4.86697E+03-1.56759E+02-2.55534E+03 3.02591E+00 1.14576E+02 1.20390E+02
 -1       781 4.66642E+03-1.67793E+02-2.52390E+03-8.28169E+00 1.18208E+02 1.49872E+02
 -1       782 4.71444E+03 3.79271E+02-2.50900E+03-9.32949E+01 1.36470E+02-1.10383E+02
 -1       783 4.19928E+03-3.65692E+02-1.72708E+03 1.02141E-14-3.64153E-14-5.32177E+02
 -1       784 4.75447E+03-2.86334E+02-2.54729E+03 2.42600E-12 1.82965E-13 2.90028E-01
 -1       785 4.76830E+03-1.40043E+02-2.58704E+03-1.02207E-12-1.53033E-12 1.10544E+02
 -1       786 4.71984E+03-1.54919E+02-2.58464E+03-5.36928E-13 5.87974E-13 6.89191E+01
 -1       787 4.73059E+03-1.62252E+02-2.56274E+03-6.38878E-13-1.12088E-12 3.46352E+01
 -1       788 4.74592E+03-1.61060E+02-2.54578E+03 4.09602E-12 4.73399E-13 1.84367E+01
 -1       789 4.75941E+03-1.61327E+02-2.54082E+03 3.43590E-12-2.22489E-12 1.37633E+01
 -1       790 4.77372E+03-1.61298E+02-2.53974E+03 1.30079E-12-1.18394E-12 1.31867E+01
 -1       791 4.78792E+03-1.61314E+02-2.53987E+03-1.44572E-13 1.76836E-12 1.34985E+01
 -1       792 4.80208E+03-1.61303E+02-2.54014E+03-2.55954E-12 3.85469E-13 1.37037E+01
 -1       793 4.81622E+03-1.61293E+02-2.54045E+03 1.67522E-12 4.77840E-13 1.35936E+01
 -1       794 4.83043E+03-1.61285E+02-2.54085E+03 1.26738E-11-1.72395E-12 1.31225E+01
 -1       795 4.84473E+03-1.61333E+02-2.54097E+03-4.98693E-12-6.39488E-13 1.26183E+01
 -1       796 4.85865E+03-1.61402E+02-2.53889E+03 1.22493E-11-1.33227E-12 1.39368E+01
 -1       797 4.87144E+03-1.60848E+02-2.52801E+03-1.16374E-12 1.77813E-12 2.33756E+01
 -1       798 4.89640E+03-1.57855E+02-2.49661E+03 5.60169E-12-2.54907E-13 5.24754E+01
 -1       799 4.88174E+03-2.02323E+02-2.48158E+03 2.56305E-11-1.97442E-12 1.16905E+02
 -1       800 4.65716E+03-1.86626E+02-2.45733E+03 7.25153E-12-1.96909E-12 1.50983E+02
 -1       801 4.68242E+03 3.86930E+02-2.44327E+03 4.67804E-12 4.31655E-13-9.66936E+01
 -1       802 4.16804E+03-3.78098E+02-1.82217E+03-4.82120E+01-1.01426E+02-5.46605E+02
 -1       803 4.74188E+03-2.36747E+02-2.62809E+03 2.20618E+01-1.08513E+02-9.09078E-01
 -1       804 4.75161E+03-1.06848E+02-2.67033E+03-3.34456E-01-1.14225E+02 1.12991E+02
 -1       805 4.70730E+03-1.23721E+02-2.66473E+03-3.15335E-02-1.15993E+02 7.03993E+01
 -1       806 4.71724E+03-1.28085E+02-2.64121E+03 2.21250E-01-1.15664E+02 3.51637E+01
 -1       807 4.73149E+03-1.27889E+02-2.62469E+03 9.92985E-02-1.15421E+02 1.85209E+01
 -1       808 4.74533E+03-1.28022E+02-2.61963E+03-4.64780E-03-1.15331E+02 1.37452E+01
 -1       809 4.75967E+03-1.28041E+02-2.61859E+03-2.03202E-02-1.15298E+02 1.31632E+01
 -1       810 4.77390E+03-1.28046E+02-2.61872E+03-1.71589E-02-1.15292E+02 1.34853E+01
 -1       811 4.78806E+03-1.28036E+02-2.61899E+03-1.53252E-02-1.15295E+02 1.36966E+01
 -1       812 4.80221E+03-1.28024E+02-2.61930E+03-1.68795E-02-1.15299E+02 1.35835E+01
 -1       813 4.81642E+03-1.28018E+02-2.61972E+03-2.20351E-02-1.15299E+02 1.31010E+01
 -1       814 4.83079E+03-1.28036E+02-2.61983E+03-3.44473E-02-1.15286E+02 1.25765E+01
 -1       815 4.84481E+03-1.28210E+02-2.61783E+03 2.79251E-02-1.15217E+02 1.39183E+01
 -1       816 4.85847E+03-1.27437E+02-2.60671E+03 3.35847E-01-1.15097E+02 2.35781E+01
 -1       817 4.87816E+03-1.27486E+02-2.57715E+03 3.17487E-02-1.14262E+02 5.35440E+01
 -1       818 4.86697E+03-1.56759E+02-2.55534E+03-3.02591E+00-1.14576E+02 1.20390E+02
 -1       819 4.66642E+03-1.67793E+02-2.52390E+03 8.28169E+00-1.18208E+02 1.49872E+02
 -1       820 4.71444E+03 3.79271E+02-2.50900E+03 9.32949E+01-1.36470E+02-1.10383E+02
 -1       821 4.04201E+03-4.67282E+02-2.14929E+03-3.60248E+01-1.25276E+02-5.86763E+02
 -1       822 4.67729E+03-1.23910E+02-2.89762E+03 8.27223E+00-1.31232E+02-1.01093E+00
 -1       823 4.67501E+03-7.92341E+01-2.95347E+03 4.33399E+00-1.38161E+02 1.21554E+02
 -1       824 4.64925E+03-7.64586E+01-2.92904E+03 6.47590E-01-1.40068E+02 7.51569E+01
 -1       825 4.65013E+03-8.21219E+01-2.90557E+03 2.75331E-01-1.39589E+02 3.67002E+01
 -1       826 4.66405E+03-8.22080E+01-2.88892E+03 6.13868E-02-1.39276E+02 1.87479E+01
 -1       827 4.67822E+03-8.24931E+01-2.88391E+03-4.52649E-02-1.39169E+02 1.36685E+01
 -1       828 4.69279E+03-8.25138E+01-2.88291E+03-3.98339E-02-1.39132E+02 1.30840E+01
 -1       829 4.70708E+03-8.25122E+01-2.88308E+03-2.91818E-02-1.39126E+02 1.34424E+01
 -1       830 4.72125E+03-8.24997E+01-2.88336E+03-2.34846E-02-1.39130E+02 1.36740E+01
 -1       831 4.73540E+03-8.24834E+01-2.88367E+03-2.59426E-02-1.39136E+02 1.35519E+01
 -1       832 4.74963E+03-8.24744E+01-2.88411E+03-3.91692E-02-1.39138E+02 1.30279E+01
 -1       833 4.76412E+03-8.24687E+01-2.88428E+03-5.99215E-02-1.39123E+02 1.24441E+01
 -1       834 4.77876E+03-8.26162E+01-2.88228E+03-4.74288E-02-1.39054E+02 1.37979E+01
 -1       835 4.79316E+03-8.24414E+01-2.87148E+03 2.49639E-01-1.38856E+02 2.42040E+01
 -1       836 4.80737E+03-8.43907E+01-2.84252E+03 1.23282E-01-1.38013E+02 5.65128E+01
 -1       837 4.77632E+03-1.03427E+02-2.81896E+03 1.77950E-01-1.37662E+02 1.31379E+02
 -1       838 4.67594E+03-9.08464E+01-2.73189E+03 1.71075E+01-1.42603E+02 1.53528E+02
 -1       839 4.81050E+03 2.44740E+02-2.71721E+03 2.64373E+01-1.63699E+02-1.53487E+02
 -1       840 4.05739E+03-5.23506E+02-2.58236E+03 5.54480E+01 1.93666E+02-6.35668E+02
 -1       841 4.65416E+03-4.82200E+01-2.86610E+03-9.14122E+00 1.86311E+02 5.30019E+01
 -1       842 4.58001E+03-3.92195E+01-2.84174E+03-3.14305E+00 2.02584E+02 1.03508E+02
 -1       843 4.60910E+03-5.91218E+01-2.85948E+03 6.75735E-01 2.03485E+02 6.51853E+01
 -1       844 4.66024E+03-5.80022E+01-2.83667E+03-5.94800E-02 2.02854E+02 2.89740E+01
 -1       845 4.68744E+03-5.72672E+01-2.82676E+03 1.58187E-02 2.02446E+02 1.33202E+01
 -1       846 4.70573E+03-5.65716E+01-2.82297E+03 2.83603E-02 2.02330E+02 8.93349E+00
 -1       847 4.72020E+03-5.62910E+01-2.82220E+03 2.21039E-02 2.02275E+02 8.49376E+00
 -1       848 4.73397E+03-5.62600E+01-2.82228E+03 1.75478E-02 2.02271E+02 8.84419E+00
 -1       849 4.74777E+03-5.62688E+01-2.82246E+03 1.61409E-02 2.02276E+02 9.05649E+00
 -1       850 4.76157E+03-5.62925E+01-2.82266E+03 1.60893E-02 2.02282E+02 8.94793E+00
 -1       851 4.77519E+03-5.63064E+01-2.82294E+03 2.17264E-02 2.02289E+02 8.46676E+00
 -1       852 4.78869E+03-5.62209E+01-2.82303E+03 2.53644E-02 2.02262E+02 7.89015E+00
 -1       853 4.80394E+03-5.56361E+01-2.82127E+03 5.12417E-02 2.02187E+02 9.02244E+00
 -1       854 4.82492E+03-5.46064E+01-2.81465E+03-1.62828E-01 2.01979E+02 1.77672E+01
 -1       855 4.87135E+03-5.06709E+01-2.79045E+03 5.29875E-01 2.01034E+02 4.80939E+01
 -1       856 4.92274E+03-7.19488E+01-2.79213E+03 2.14274E+00 1.98243E+02 1.07327E+02
 -1       857 4.86965E+03-9.59369E+01-2.74263E+03-1.92934E+01 2.15548E+02 1.71346E+02
 -1       858 5.14792E+03 3.18574E+02-2.31438E+03 4.37325E+00 1.89257E+02-4.63801E+01
 -1       859 4.19093E+03-4.73772E+02-2.18921E+03 5.61123E+01 1.08508E+02-5.76601E+02
 -1       860 4.72037E+03-1.84604E+02-2.53417E+03-2.10962E+01 1.16585E+02 5.35842E+01
 -1       861 4.66784E+03-9.32882E+01-2.49410E+03 2.22403E+00 1.25368E+02 9.42329E+01
 -1       862 4.68130E+03-1.33017E+02-2.52835E+03 8.72281E-01 1.27688E+02 6.01574E+01
 -1       863 4.74115E+03-1.29887E+02-2.50440E+03-1.04932E-01 1.26998E+02 2.72992E+01
 -1       864 4.76796E+03-1.29292E+02-2.49449E+03-8.09186E-02 1.26759E+02 1.31412E+01
 -1       865 4.78570E+03-1.28326E+02-2.49059E+03-1.83135E-02 1.26644E+02 9.00776E+00
 -1       866 4.79985E+03-1.28112E+02-2.48984E+03 1.23464E-03 1.26604E+02 8.58420E+00
 -1       867 4.81355E+03-1.28069E+02-2.48990E+03 7.59969E-03 1.26597E+02 8.88915E+00
 -1       868 4.82735E+03-1.28084E+02-2.49008E+03 8.71997E-03 1.26601E+02 9.08183E+00
 -1       869 4.84116E+03-1.28108E+02-2.49029E+03 8.79065E-03 1.26606E+02 8.98103E+00
 -1       870 4.85476E+03-1.28124E+02-2.49056E+03 7.79495E-03 1.26609E+02 8.54820E+00
 -1       871 4.86816E+03-1.28055E+02-2.49060E+03-1.95273E-03 1.26589E+02 8.02894E+00
 -1       872 4.88257E+03-1.27568E+02-2.48901E+03-3.81520E-02 1.26503E+02 9.16570E+00
 -1       873 4.90246E+03-1.25843E+02-2.48171E+03-3.55117E-01 1.26451E+02 1.72163E+01
 -1       874 4.95198E+03-1.20921E+02-2.45757E+03 3.63460E-01 1.25149E+02 4.47511E+01
 -1       875 5.02873E+03-1.47163E+02-2.45441E+03 4.40781E+00 1.25410E+02 9.52862E+01
 -1       876 4.87467E+03-2.17632E+02-2.47093E+03-5.06056E+00 1.33121E+02 1.68846E+02
 -1       877 5.06560E+03 4.81400E+02-2.04128E+03-8.01074E+01 1.31378E+02 1.22679E+01
 -1       878 4.19311E+03-4.84198E+02-2.16820E+03-4.55802E-13 2.04281E-13-5.59526E+02
 -1       879 4.71240E+03-2.42133E+02-2.50658E+03 3.41949E-14 1.60760E-12 5.51852E+01
 -1       880 4.66217E+03-1.39796E+02-2.46940E+03-2.60691E-12-2.52243E-13 9.23784E+01
 -1       881 4.67367E+03-1.75959E+02-2.50444E+03 3.31653E-12-2.41585E-13 5.84993E+01
 -1       882 4.73400E+03-1.76206E+02-2.48220E+03-2.28845E-13 5.16920E-13 2.67923E+01
 -1       883 4.76179E+03-1.74572E+02-2.47168E+03 2.14935E-12-6.25278E-13 1.30482E+01
 -1       884 4.77908E+03-1.73755E+02-2.46790E+03-5.52419E-12-6.57252E-13 9.02553E+00
 -1       885 4.79319E+03-1.73499E+02-2.46713E+03 2.71488E-12-1.49925E-12 8.60573E+00
 -1       886 4.80685E+03-1.73465E+02-2.46718E+03 7.60995E-13 2.31104E-12 8.90185E+00
 -1       887 4.82065E+03-1.73478E+02-2.46736E+03 8.91155E-12 2.48690E-13 9.08811E+00
 -1       888 4.83446E+03-1.73505E+02-2.46757E+03 2.76143E-12 1.13154E-12 8.99053E+00
 -1       889 4.84806E+03-1.73513E+02-2.46783E+03-1.25323E-13-1.60760E-12 8.56895E+00
 -1       890 4.86137E+03-1.73486E+02-2.46789E+03-2.65694E-12 7.67386E-13 8.07117E+00
 -1       891 4.87568E+03-1.72864E+02-2.46622E+03 1.92523E-12-7.88702E-13 9.16641E+00
 -1       892 4.89443E+03-1.71509E+02-2.45921E+03-4.55082E-12 9.29035E-13 1.71001E+01
 -1       893 4.94888E+03-1.63249E+02-2.43296E+03-7.30638E-12 3.32179E-13 4.33375E+01
 -1       894 5.02426E+03-2.04604E+02-2.43521E+03-7.77600E-12-1.36069E-12 9.21412E+01
 -1       895 4.84264E+03-2.54259E+02-2.46445E+03 8.07132E-12-1.63780E-12 1.71658E+02
 -1       896 5.01490E+03 4.98880E+02-2.01140E+03-3.56870E-12 1.68754E-13 2.75396E+01
 -1       897 4.19093E+03-4.73772E+02-2.18921E+03-5.61123E+01-1.08508E+02-5.76601E+02
 -1       898 4.72037E+03-1.84604E+02-2.53417E+03 2.10962E+01-1.16585E+02 5.35842E+01
 -1       899 4.66784E+03-9.32882E+01-2.49410E+03-2.22403E+00-1.25368E+02 9.42329E+01
 -1       900 4.68130E+03-1.33017E+02-2.52835E+03-8.72281E-01-1.27688E+02 6.01574E+01
 -1       901 4.74115E+03-1.29887E+02-2.50440E+03 1.04932E-01-1.26998E+02 2.72992E+01
 -1       902 4.76796E+03-1.29292E+02-2.49449E+03 8.09186E-02-1.26759E+02 1.31412E+01
 -1       903 4.78570E+03-1.28326E+02-2.49059E+03 1.83135E-02-1.26644E+02 9.00776E+00
 -1       904 4.79985E+03-1.28112E+02-2.48984E+03-1.23464E-03-1.26604E+02 8.58420E+00
 -1       905 4.81355E+03-1.28069E+02-2.48990E+03-7.59969E-03-1.26597E+02 8.88915E+00
 -1       906 4.82735E+03-1.28084E+02-2.49008E+03-8.71997E-03-1.26601E+02 9.08183E+00
 -1       907 4.84116E+03-1.28108E+02-2.49029E+03-8.79065E-03-1.26606E+02 8.98103E+00
 -1       908 4.85476E+03-1.28124E+02-2.49056E+03-7.79495E-03-1.26609E+02 8.54820E+00
 -1       909 4.86816E+03-1.28055E+02-2.49060E+03 1.95273E-03-1.26589E+02 8.02894E+00
 -1       910 4.88257E+03-1.27568E+02-2.48901E+03 3.81520E-02-1.26503E+02 9.16570E+00
 -1       911 4.90246E+03-1.25843E+02-2.48171E+03 3.55117E-01-1.26451E+02 1.72163E+01
 -1       912 4.95198E+03-1.20921E+02-2.45757E+03-3.63460E-01-1.25149E+02 4.47511E+01
 -1       913 5.02873E+03-1.47163E+02-2.45441E+03-4.40781E+00-1.25410E+02 9.52862E+01
 -1       914 4.87467E+03-2.17632E+02-2.47093E+03 5.06056E+00-1.33121E+02 1.68846E+02
 -1       915 5.06560E+03 4.81400E+02-2.04128E+03 8.01074E+01-1.31378E+02 1.22679E+01
 -1       916 4.05739E+03-5.23506E+02-2.58236E+03-5.54480E+01-1.93666E+02-6.35668E+02
 -1       917 4.65416E+03-4.82200E+01-2.86610E+03 9.14122E+00-1.86311E+02 5.30019E+01
 -1       918 4.58001E+03-3.92195E+01-2.84174E+03 3.14305E+00-2.02584E+02 1.03508E+02
 -1       919 4.60910E+03-5.91218E+01-2.85948E+03-6.75735E-01-2.03485E+02 6.51853E+01
 -1       920 4.66024E+03-5.80022E+01-2.83667E+03 5.94800E-02-2.02854E+02 2.89740E+01
 -1       921 4.68744E+03-5.72672E+01-2.82676E+03-1.58187E-02-2.02446E+02 1.33202E+01
 -1       922 4.70573E+03-5.65716E+01-2.82297E+03-2.83603E-02-2.02330E+02 8.93349E+00
 -1       923 4.72020E+03-5.62910E+01-2.82220E+03-2.21039E-02-2.02275E+02 8.49376E+00
 -1       924 4.73397E+03-5.62600E+01-2.82228E+03-1.75478E-02-2.02271E+02 8.84419E+00
 -1       925 4.74777E+03-5.62688E+01-2.82246E+03-1.61409E-02-2.02276E+02 9.05649E+00
 -1       926 4.76157E+03-5.62925E+01-2.82266E+03-1.60893E-02-2.02282E+02 8.94793E+00
 -1       927 4.77519E+03-5.63064E+01-2.82294E+03-2.17264E-02-2.02289E+02 8.46676E+00
 -1       928 4.78869E+03-5.62209E+01-2.82303E+03-2.53644E-02-2.02262E+02 7.89015E+00
 -1       929 4.80394E+03-5.56361E+01-2.82127E+03-5.12417E-02-2.02187E+02 9.02244E+00
 -1       930 4.82492E+03-5.46064E+01-2.81465E+03 1.62828E-01-2.01979E+02 1.77672E+01
 -1       931 4.87135E+03-5.06709E+01-2.79045E+03-5.29875E-01-2.01034E+02 4.80939E+01
 -1       932 4.92274E+03-7.19488E+01-2.79213E+03-2.14274E+00-1.98243E+02 1.07327E+02
 -1       933 4.86965E+03-9.59369E+01-2.74263E+03 1.92934E+01-2.15548E+02 1.71346E+02
 -1       934 5.14792E+03 3.18574E+02-2.31438E+03-4.37325E+00-1.89257E+02-4.63801E+01
 -1       935 4.14065E+03-5.18120E+02-3.01353E+03 6.55856E+01 1.68637E+02-2.84404E+02
 -1       936 4.65950E+03 2.29492E+02-2.39023E+03-2.07134E+01 1.54071E+02-8.29253E+00
 -1       937 4.50286E+03 8.30335E+01-2.57784E+03 5.06616E+00 1.70634E+02 5.67397E+01
 -1       938 4.69554E+03 8.86096E+01-2.56001E+03 2.01288E+00 1.70971E+02 3.57058E+01
 -1       939 4.77914E+03 9.12953E+01-2.54761E+03 6.25777E-01 1.70213E+02 1.58011E+01
 -1       940 4.82022E+03 9.31167E+01-2.54088E+03 4.16558E-02 1.70044E+02 7.14828E+00
 -1       941 4.84015E+03 9.48645E+01-2.53794E+03-1.49449E-02 1.69910E+02 4.51044E+00
 -1       942 4.85378E+03 9.52128E+01-2.53738E+03-2.14250E-02 1.69875E+02 4.20902E+00
 -1       943 4.86683E+03 9.52714E+01-2.53738E+03-3.69525E-03 1.69869E+02 4.37959E+00
 -1       944 4.88028E+03 9.52224E+01-2.53750E+03 3.05508E-03 1.69873E+02 4.49307E+00
 -1       945 4.89379E+03 9.51525E+01-2.53764E+03 6.01039E-04 1.69878E+02 4.43129E+00
 -1       946 4.90677E+03 9.51147E+01-2.53781E+03-1.74592E-02 1.69881E+02 4.17371E+00
 -1       947 4.91896E+03 9.51581E+01-2.53783E+03-3.16077E-02 1.69866E+02 3.88950E+00
 -1       948 4.93281E+03 9.62406E+01-2.53642E+03-7.68756E-02 1.69790E+02 4.66461E+00
 -1       949 4.95998E+03 9.90033E+01-2.53095E+03 2.42004E-01 1.69577E+02 9.84301E+00
 -1       950 5.01948E+03 1.00733E+02-2.52079E+03 5.35152E-01 1.69663E+02 2.61371E+01
 -1       951 5.18530E+03 1.10144E+02-2.48914E+03 1.09819E+01 1.62646E+02 6.39323E+01
 -1       952 5.35288E+03 3.79041E+01-2.56405E+03-2.49387E+01 1.96805E+02 6.24367E+01
 -1       953 5.96274E+03 5.49184E+02-1.84260E+03 2.89487E+01 9.89481E+01-2.20365E+01
 -1       954 4.14668E+03-5.38048E+02-2.96955E+03 3.01148E+01 4.69318E+01-2.52707E+02
 -1       955 4.64748E+03 1.05381E+02-2.32136E+03-1.89835E+01 5.84106E+01 1.38992E+00
 -1       956 4.49875E+03 1.67279E+01-2.51734E+03 7.74032E+00 6.45183E+01 5.09276E+01
 -1       957 4.68395E+03 1.34679E+01-2.50518E+03 2.47993E+00 6.69047E+01 3.17456E+01
 -1       958 4.77390E+03 1.31285E+01-2.49379E+03 2.50048E-01 6.61504E+01 1.47208E+01
 -1       959 4.81494E+03 1.62013E+01-2.48585E+03-4.44214E-02 6.60251E+01 6.93942E+00
 -1       960 4.83384E+03 1.76298E+01-2.48314E+03-8.54751E-02 6.59407E+01 4.56318E+00
 -1       961 4.84720E+03 1.80479E+01-2.48251E+03-3.30713E-02 6.59029E+01 4.26314E+00
 -1       962 4.86016E+03 1.80828E+01-2.48254E+03-1.08700E-02 6.58988E+01 4.40864E+00
 -1       963 4.87361E+03 1.80405E+01-2.48265E+03 2.47357E-05 6.59012E+01 4.50785E+00
 -1       964 4.88714E+03 1.79796E+01-2.48280E+03-3.94348E-03 6.59053E+01 4.45256E+00
 -1       965 4.90010E+03 1.79223E+01-2.48297E+03-2.07338E-02 6.59074E+01 4.22521E+00
 -1       966 4.91219E+03 1.80305E+01-2.48296E+03-6.69034E-02 6.58961E+01 3.98282E+00
 -1       967 4.92514E+03 1.87858E+01-2.48175E+03-1.48158E-01 6.57839E+01 4.74805E+00
 -1       968 4.95070E+03 2.25326E+01-2.47581E+03-1.55569E-01 6.59366E+01 9.30099E+00
 -1       969 5.01180E+03 2.37374E+01-2.46462E+03 5.96730E-01 6.44413E+01 2.43956E+01
 -1       970 5.21159E+03 3.33602E+01-2.42435E+03 9.46466E+00 6.55263E+01 5.05836E+01
 -1       971 5.25044E+03-1.26131E+02-2.59011E+03 4.94052E+00 7.19799E+01 8.26113E+01
 -1       972 5.76160E+03 8.25299E+02-1.75594E+03-1.04200E+02 5.56614E+01 1.40350E+01
 -1       973 4.22783E+03-3.47185E+02-2.88802E+03-1.36435E-12 1.27898E-13-2.48678E+02
 -1       974 4.70250E+03 2.11210E+02-2.25492E+03 1.31561E-13-2.02505E-13 5.51780E+00
 -1       975 4.56136E+03 1.52078E+02-2.44650E+03-6.31717E-14-6.82121E-13 5.02625E+01
 -1       976 4.74244E+03 1.47031E+02-2.43682E+03 1.62495E-12-7.05214E-13 3.04975E+01
 -1       977 4.83399E+03 1.44137E+02-2.42632E+03-4.84668E-13 8.08242E-13 1.43748E+01
 -1       978 4.87568E+03 1.47915E+02-2.41781E+03-1.17088E-12-6.39488E-13 6.85869E+00
 -1       979 4.89416E+03 1.49212E+02-2.41517E+03-1.80300E-13-7.67386E-13 4.56839E+00
 -1       980 4.90744E+03 1.49645E+02-2.41454E+03-1.61694E-12-7.19425E-13 4.27669E+00
 -1       981 4.92036E+03 1.49679E+02-2.41457E+03-2.80370E-12 1.36602E-12 4.41628E+00
 -1       982 4.93381E+03 1.49636E+02-2.41469E+03 5.43485E-12-8.63309E-13 4.51198E+00
 -1       983 4.94735E+03 1.49576E+02-2.41483E+03-5.56449E-12 1.14397E-12 4.45926E+00
 -1       984 4.96031E+03 1.49524E+02-2.41501E+03 3.69511E-12-2.73381E-12 4.23580E+00
 -1       985 4.97229E+03 1.49598E+02-2.41500E+03 8.11562E-12 2.03570E-12 4.02020E+00
 -1       986 4.98520E+03 1.50508E+02-2.41379E+03-4.41446E-12-1.45306E-12 4.69250E+00
 -1       987 5.00906E+03 1.53433E+02-2.40815E+03 4.01221E-12 2.79243E-12 9.35457E+00
 -1       988 5.07632E+03 1.59730E+02-2.39385E+03-3.44108E-12-8.38440E-13 2.29251E+01
 -1       989 5.27445E+03 1.47475E+02-2.36143E+03 1.50066E-11-1.59872E-12 4.87966E+01
 -1       990 5.28056E+03 1.76099E+01-2.53466E+03 1.24167E-12-1.69109E-12 8.98729E+01
 -1       991 5.74669E+03 1.00948E+03-1.69333E+03 1.59144E-11-3.67706E-13 1.48829E+01
 -1       992 4.14668E+03-5.38048E+02-2.96955E+03-3.01148E+01-4.69318E+01-2.52707E+02
 -1       993 4.64748E+03 1.05381E+02-2.32136E+03 1.89835E+01-5.84106E+01 1.38992E+00
 -1       994 4.49875E+03 1.67279E+01-2.51734E+03-7.74032E+00-6.45183E+01 5.09276E+01
 -1       995 4.68395E+03 1.34679E+01-2.50518E+03-2.47993E+00-6.69047E+01 3.17456E+01
 -1       996 4.77390E+03 1.31285E+01-2.49379E+03-2.50048E-01-6.61504E+01 1.47208E+01
 -1       997 4.81494E+03 1.62013E+01-2.48585E+03 4.44214E-02-6.60251E+01 6.93942E+00
 -1       998 4.83384E+03 1.76298E+01-2.48314E+03 8.54751E-02-6.59407E+01 4.56318E+00
 -1       999 4.84720E+03 1.80479E+01-2.48251E+03 3.30713E-02-6.59029E+01 4.26314E+00
 -1      1000 4.86016E+03 1.80828E+01-2.48254E+03 1.08700E-02-6.58988E+01 4.40864E+00
 -1      1001 4.87361E+03 1.80405E+01-2.48265E+03-2.47357E-05-6.59012E+01 4.50785E+00
 -1      1002 4.88714E+03 1.79796E+01-2.48280E+03 3.94348E-03-6.59053E+01 4.45256E+00
 -1      1003 4.90010E+03 1.79223E+01-2.48297E+03 2.07338E-02-6.59074E+01 4.22521E+00
 -1      1004 4.91219E+03 1.80305E+01-2.48296E+03 6.69034E-02-6.58961E+01 3.98282E+00
 -1      1005 4.92514E+03 1.87858E+01-2.48175E+03 1.48158E-01-6.57839E+01 4.74805E+00
 -1      1006 4.95070E+03 2.25326E+01-2.47581E+03 1.55569E-01-6.59366E+01 9.30099E+00
 -1      1007 5.01180E+03 2.37374E+01-2.46462E+03-5.96730E-01-6.44413E+01 2.43956E+01
 -1      1008 5.21159E+03 3.33602E+01-2.42435E+03-9.46466E+00-6.55263E+01 5.05836E+01
 -1      1009 5.25044E+03-1.26131E+02-2.59011E+03-4.94052E+00-7.19799E+01 8.26113E+01
 -1      1010 5.76160E+03 8.25299E+02-1.75594E+03 1.04200E+02-5.56614E+01 1.40350E+01
 -1      1011 4.14065E+03-5.18120E+02-3.01353E+03-6.55856E+01-1.68637E+02-2.84404E+02
 -1      1012 4.65950E+03 2.29492E+02-2.39023E+03 2.07134E+01-1.54071E+02-8.29253E+00
 -1      1013 4.50286E+03 8.30335E+01-2.57784E+03-5.06616E+00-1.70634E+02 5.67397E+01
 -1      1014 4.69554E+03 8.86096E+01-2.56001E+03-2.01288E+00-1.70971E+02 3.57058E+01
 -1      1015 4.77914E+03 9.12953E+01-2.54761E+03-6.25777E-01-1.70213E+02 1.58011E+01
 -1      1016 4.82022E+03 9.31167E+01-2.54088E+03-4.16558E-02-1.70044E+02 7.14828E+00
 -1      1017 4.84015E+03 9.48645E+01-2.53794E+03 1.49449E-02-1.69910E+02 4.51044E+00
 -1      1018 4.85378E+03 9.52128E+01-2.53738E+03 2.14250E-02-1.69875E+02 4.20902E+00
 -1      1019 4.86683E+03 9.52714E+01-2.53738E+03 3.69525E-03-1.69869E+02 4.37959E+00
 -1      1020 4.88028E+03 9.52224E+01-2.53750E+03-3.05508E-03-1.69873E+02 4.49307E+00
 -1      1021 4.89379E+03 9.51525E+01-2.53764E+03-6.01039E-04-1.69878E+02 4.43129E+00
 -1      1022 4.90677E+03 9.51147E+01-2.53781E+03 1.74592E-02-1.69881E+02 4.17371E+00
 -1      1023 4.91896E+03 9.51581E+01-2.53783E+03 3.16077E-02-1.69866E+02 3.88950E+00
 -1      1024 4.93281E+03 9.62406E+01-2.53642E+03 7.68756E-02-1.69790E+02 4.66461E+00
 -1      1025 4.95998E+03 9.90033E+01-2.53095E+03-2.42004E-01-1.69577E+02 9.84301E+00
 -1      1026 5.01948E+03 1.00733E+02-2.52079E+03-5.35152E-01-1.69663E+02 2.61371E+01
 -1      1027 5.18530E+03 1.10144E+02-2.48914E+03-1.09819E+01-1.62646E+02 6.39323E+01
 -1      1028 5.35288E+03 3.79041E+01-2.56405E+03 2.49387E+01-1.96805E+02 6.24367E+01
 -1      1029 5.96274E+03 5.49184E+02-1.84260E+03-2.89487E+01-9.89481E+01-2.20365E+01
 -1      1030-2.75039E+02-2.75040E+02-6.41755E+02 3.72099E-04-2.02658E+02-2.53471E+02
 -1      1031-3.06448E+01-3.06451E+01-7.15050E+01 3.66575E-05-9.65425E+00 3.93891E+01
 -1      1032-1.95704E+02-1.95704E+02-4.56640E+02 5.70829E-04-1.65715E+02-2.49355E+02
 -1      1033-2.94771E+01-2.94774E+01-6.87804E+01 3.56306E-05-2.87878E+00 3.96270E+01
 -1      1034-2.20632E+02-2.20633E+02-5.14806E+02 9.28091E-04-1.54943E+02-2.72327E+02
 -1      1035-2.89088E+01-2.89090E+01-6.74543E+01 2.31452E-05 3.55196E-01 3.78097E+01
 -1      1036-2.58540E+02-2.58541E+02-6.03258E+02 1.01565E-03-1.36714E+02-3.08534E+02
 -1      1037-2.78348E+01-2.78350E+01-6.49483E+01 1.12578E-05 1.58627E+00 3.55575E+01
 -1      1038-2.95979E+02-2.95980E+02-6.90614E+02 8.48501E-04-1.03051E+02-3.45317E+02
 -1      1039-2.68586E+01-2.68587E+01-6.26704E+01 4.25251E-06 1.64152E+00 3.35293E+01
 -1      1040-3.22279E+02-3.22281E+02-7.51981E+02 4.80127E-04-5.54943E+01-3.71954E+02
 -1      1041-2.61700E+01-2.61701E+01-6.10637E+01 1.08746E-06 9.90281E-01 3.21459E+01
 -1      1042-3.31685E+02-3.31687E+02-7.73927E+02-4.04676E-14-2.31549E-10-3.81604E+02
 -1      1043-2.59229E+01-2.59231E+01-6.04872E+01-8.81413E-15-8.24985E-12 3.16570E+01
 -1      1044-3.22279E+02-3.22281E+02-7.51981E+02-4.80127E-04 5.54943E+01-3.71954E+02
 -1      1045-2.61700E+01-2.61701E+01-6.10637E+01-1.08746E-06-9.90281E-01 3.21459E+01
 -1      1046-2.95979E+02-2.95980E+02-6.90614E+02-8.48501E-04 1.03051E+02-3.45317E+02
 -1      1047-2.68586E+01-2.68587E+01-6.26704E+01-4.25251E-06-1.64152E+00 3.35293E+01
 -1      1048-2.58540E+02-2.58541E+02-6.03258E+02-1.01565E-03 1.36714E+02-3.08534E+02
 -1      1049-2.78348E+01-2.78350E+01-6.49483E+01-1.12578E-05-1.58627E+00 3.55575E+01
 -1      1050-2.20632E+02-2.20633E+02-5.14806E+02-9.28091E-04 1.54943E+02-2.72327E+02
 -1      1051-2.89088E+01-2.89090E+01-6.74543E+01-2.31452E-05-3.55196E-01 3.78097E+01
 -1      1052-1.95704E+02-1.95704E+02-4.56640E+02-5.70829E-04 1.65715E+02-2.49355E+02
 -1      1053-2.94771E+01-2.94774E+01-6.87804E+01-3.56306E-05 2.87878E+00 3.96270E+01
 -1      1054-2.75039E+02-2.75040E+02-6.41755E+02-3.72099E-04 2.02658E+02-2.53471E+02
 -1      1055-3.06448E+01-3.06451E+01-7.15050E+01-3.66575E-05 9.65425E+00 3.93891E+01
 -1      1056-7.67986E+01-2.22724E+01-3.17609E+02-1.81199E+01-8.30114E+01-1.94799E+02
 -1      1057-3.10931E+01-6.40316E+00-4.89710E+01-4.50957E-01-1.44809E+00 3.14808E+01
 -1      1058-6.52040E+01-4.90641E+01-3.05103E+02-3.00759E+01-1.16028E+02-1.85572E+02
 -1      1059-2.98495E+01-1.17079E+01-5.25510E+01-7.54812E-03 9.39176E-02 2.98457E+01
 -1      1060-8.85875E+01-9.89766E+01-3.67005E+02-4.82372E+01-1.45683E+02-2.07850E+02
 -1      1061-3.11516E+01-1.97595E+01-5.40619E+01-5.24926E-01 1.51298E+00 2.80717E+01
 -1      1062-1.00076E+02-9.32799E+01-4.35723E+02-5.16637E+01-1.33374E+02-2.41826E+02
 -1      1063-3.22692E+01-2.42898E+01-5.42710E+01-5.17364E-01 2.25148E+00 2.61791E+01
 -1      1064-1.07412E+02-7.57121E+01-4.96914E+02-4.24140E+01-1.01974E+02-2.75596E+02
 -1      1065-3.32929E+01-2.69662E+01-5.40118E+01-3.90850E-01 2.01442E+00 2.44840E+01
 -1      1066-1.11973E+02-6.12959E+01-5.38905E+02-2.36887E+01-5.51069E+01-2.99764E+02
 -1      1067-3.40602E+01-2.84745E+01-5.37414E+01-2.07793E-01 1.16839E+00 2.33229E+01
 -1      1068-1.13496E+02-5.58682E+01-5.53686E+02-5.84626E-11-2.21167E-10-3.08464E+02
 -1      1069-3.43436E+01-2.89667E+01-5.36296E+01 1.21195E-13-7.67763E-12 2.29111E+01
 -1      1070-1.11973E+02-6.12959E+01-5.38905E+02 2.36887E+01 5.51069E+01-2.99764E+02
 -1      1071-3.40602E+01-2.84745E+01-5.37414E+01 2.07793E-01-1.16839E+00 2.33229E+01
 -1      1072-1.07412E+02-7.57121E+01-4.96914E+02 4.24140E+01 1.01974E+02-2.75596E+02
 -1      1073-3.32929E+01-2.69662E+01-5.40118E+01 3.90850E-01-2.01442E+00 2.44840E+01
 -1      1074-1.00076E+02-9.32799E+01-4.35723E+02 5.16637E+01 1.33374E+02-2.41826E+02
 -1      1075-3.22692E+01-2.42898E+01-5.42710E+01 5.17364E-01-2.25148E+00 2.61791E+01
 -1      1076-8.85875E+01-9.89766E+01-3.67005E+02 4.82372E+01 1.45683E+02-2.07850E+02
 -1      1077-3.11516E+01-1.97595E+01-5.40619E+01 5.24926E-01-1.51298E+00 2.80717E+01
 -1      1078-6.52040E+01-4.90641E+01-3.05103E+02 3.00759E+01 1.16028E+02-1.85572E+02
 -1      1079-2.98495E+01-1.17079E+01-5.25510E+01 7.54812E-03-9.39176E-02 2.98457E+01
 -1      1080-7.67986E+01-2.22724E+01-3.17609E+02 1.81199E+01 8.30114E+01-1.94799E+02
 -1      1081-3.10931E+01-6.40316E+00-4.89710E+01 4.50957E-01 1.44809E+00 3.14808E+01
 -1      1082 1.12444E+01 1.33989E+01 3.30671E+00-4.51692E+01-2.21246E+01-1.09159E+02
 -1      1083-3.52068E+01-9.79399E+00-2.76303E+01 1.09433E+00 3.75813E+00 2.33294E+01
 -1      1084-1.00947E+01-1.40807E+01-1.33577E+02-5.83232E+01-6.71562E+01-1.04658E+02
 -1      1085-3.20474E+01-1.07899E+01-3.15832E+01 3.54001E-01 2.73540E+00 2.01424E+01
 -1      1086-3.88115E+00 1.13086E+01-1.82931E+02-8.07699E+01-9.92421E+01-1.26334E+02
 -1      1087-3.04584E+01-1.34161E+01-3.20530E+01-5.85545E-01 3.25440E+00 1.86840E+01
 -1      1088-3.74581E+00 4.14754E+01-2.39431E+02-8.42854E+01-1.00084E+02-1.58135E+02
 -1      1089-3.10321E+01-1.79707E+01-3.31510E+01-8.02067E-01 2.86188E+00 1.73369E+01
 -1      1090-3.00177E-02 8.34493E+01-2.85603E+02-6.84085E+01-7.80916E+01-1.89032E+02
 -1      1091-3.22011E+01-2.17346E+01-3.40808E+01-6.79241E-01 2.20921E+00 1.61270E+01
 -1      1092 4.00667E+00 1.16682E+02-3.14712E+02-3.79626E+01-4.23143E+01-2.10438E+02
 -1      1093-3.32245E+01-2.41638E+01-3.46725E+01-3.77143E-01 1.21269E+00 1.52721E+01
 -1      1094 5.73167E+00 1.29077E+02-3.24368E+02-8.88831E-11-1.73044E-10-2.17928E+02
 -1      1095-3.36242E+01-2.50034E+01-3.48743E+01 7.80320E-13-1.08159E-11 1.49609E+01
 -1      1096 4.00667E+00 1.16682E+02-3.14712E+02 3.79626E+01 4.23143E+01-2.10438E+02
 -1      1097-3.32245E+01-2.41638E+01-3.46725E+01 3.77143E-01-1.21269E+00 1.52721E+01
 -1      1098-3.00177E-02 8.34493E+01-2.85603E+02 6.84085E+01 7.80916E+01-1.89032E+02
 -1      1099-3.22011E+01-2.17346E+01-3.40808E+01 6.79241E-01-2.20921E+00 1.61270E+01
 -1      1100-3.74581E+00 4.14754E+01-2.39431E+02 8.42854E+01 1.00084E+02-1.58135E+02
 -1      1101-3.10321E+01-1.79707E+01-3.31510E+01 8.02067E-01-2.86188E+00 1.73369E+01
 -1      1102-3.88115E+00 1.13086E+01-1.82931E+02 8.07699E+01 9.92421E+01-1.26334E+02
 -1      1103-3.04584E+01-1.34161E+01-3.20530E+01 5.85545E-01-3.25440E+00 1.86840E+01
 -1      1104-1.00947E+01-1.40807E+01-1.33577E+02 5.83232E+01 6.71562E+01-1.04658E+02
 -1      1105-3.20474E+01-1.07899E+01-3.15832E+01-3.54001E-01-2.73540E+00 2.01424E+01
 -1      1106 1.12444E+01 1.33989E+01 3.30671E+00 4.51692E+01 2.21246E+01-1.09159E+02
 -1      1107-3.52068E+01-9.79399E+00-2.76303E+01-1.09433E+00-3.75813E+00 2.33294E+01
 -1      1108 5.15850E+01 3.50867E+01 1.45897E+02-5.21831E+01-8.72633E+00-4.49570E+01
 -1      1109-3.12269E+01-8.77191E+00-1.46262E+01 1.22580E+00 2.74360E+00 1.45612E+01
 -1      1110 2.78502E+01 1.08510E+01-1.64601E-01-7.13016E+01-2.74442E+01-5.08654E+01
 -1      1111-2.65306E+01-7.99535E+00-1.41157E+01 4.13826E-01 2.92692E+00 1.23613E+01
 -1      1112 3.39406E+01 5.16008E+01-6.35435E+01-1.00390E+02-5.23749E+01-7.55437E+01
 -1      1113-2.41478E+01-9.73008E+00-1.56602E+01-5.48408E-01 3.49486E+00 1.12175E+01
 -1      1114 4.46733E+01 1.07391E+02-1.02590E+02-1.04549E+02-6.06579E+01-1.11450E+02
 -1      1115-2.26222E+01-1.23000E+01-1.64208E+01-8.66351E-01 3.02064E+00 1.03212E+01
 -1      1116 5.48989E+01 1.62515E+02-1.31335E+02-8.41560E+01-4.98184E+01-1.46408E+02
 -1      1117-2.20863E+01-1.52523E+01-1.70692E+01-7.75970E-01 2.22178E+00 9.53321E+00
 -1      1118 6.37515E+01 2.03407E+02-1.45055E+02-4.59626E+01-2.68115E+01-1.68724E+02
 -1      1119-2.20419E+01-1.74173E+01-1.74973E+01-4.50426E-01 1.20357E+00 8.95417E+00
 -1      1120 6.72577E+01 2.18140E+02-1.48533E+02-8.04281E-11-1.03334E-10-1.75885E+02
 -1      1121-2.21114E+01-1.82277E+01-1.76956E+01 2.08161E-12-1.18956E-11 8.74208E+00
 -1      1122 6.37515E+01 2.03407E+02-1.45055E+02 4.59626E+01 2.68115E+01-1.68724E+02
 -1      1123-2.20419E+01-1.74173E+01-1.74973E+01 4.50426E-01-1.20357E+00 8.95417E+00
 -1      1124 5.48989E+01 1.62515E+02-1.31335E+02 8.41560E+01 4.98184E+01-1.46408E+02
 -1      1125-2.20863E+01-1.52523E+01-1.70692E+01 7.75970E-01-2.22178E+00 9.53321E+00
 -1      1126 4.46733E+01 1.07391E+02-1.02590E+02 1.04549E+02 6.06579E+01-1.11450E+02
 -1      1127-2.26222E+01-1.23000E+01-1.64208E+01 8.66351E-01-3.02064E+00 1.03212E+01
 -1      1128 3.39406E+01 5.16008E+01-6.35435E+01 1.00390E+02 5.23749E+01-7.55437E+01
 -1      1129-2.41478E+01-9.73008E+00-1.56602E+01 5.48408E-01-3.49486E+00 1.12175E+01
 -1      1130 2.78502E+01 1.08510E+01-1.64601E-01 7.13016E+01 2.74442E+01-5.08654E+01
 -1      1131-2.65306E+01-7.99535E+00-1.41157E+01-4.13826E-01-2.92692E+00 1.23613E+01
 -1      1132 5.15850E+01 3.50867E+01 1.45897E+02 5.21831E+01 8.72633E+00-4.49570E+01
 -1      1133-3.12269E+01-8.77191E+00-1.46262E+01-1.22580E+00-2.74360E+00 1.45612E+01
 -1      1134 5.30103E+01 2.73568E+01 1.52779E+02-4.40904E+01 3.10636E+00 1.07646E+01
 -1      1135-2.15537E+01-6.48017E+00-7.25659E+00 7.62695E-01 1.56484E+00 6.86576E+00
 -1      1136 3.85450E+01 1.32934E+01 4.75781E+01-6.52421E+01 2.96892E+00-1.02711E+01
 -1      1137-1.67003E+01-5.02295E+00-4.60174E+00-1.23227E-03 1.92160E+00 6.27009E+00
 -1      1138 4.60157E+01 5.28297E+01 3.93230E+00-9.86790E+01-7.22038E+00-3.41838E+01
 -1      1139-1.30169E+01-5.66244E+00-4.38286E+00-8.38601E-01 2.64494E+00 5.59851E+00
 -1      1140 5.81428E+01 1.09900E+02-1.71475E+01-1.06721E+02-1.77797E+01-7.54593E+01
 -1      1141-9.48821E+00-6.59686E+00-3.30925E+00-1.06680E+00 2.34373E+00 4.43342E+00
 -1      1142 6.99225E+01 1.64815E+02-2.55303E+01-8.39611E+01-1.59877E+01-1.15771E+02
 -1      1143-6.77230E+00-7.82665E+00-1.87635E+00-9.12488E-01 1.83762E+00 3.25357E+00
 -1      1144 7.91816E+01 2.00718E+02-2.34978E+01-4.30599E+01-7.51855E+00-1.35613E+02
 -1      1145-5.16965E+00-8.94979E+00-8.82025E-01-5.10950E-01 1.06770E+00 2.72332E+00
 -1      1146 8.27172E+01 2.12344E+02-2.10257E+01-4.45834E-11-3.85025E-11-1.40713E+02
 -1      1147-4.64419E+00-9.43333E+00-5.92554E-01 3.32556E-12-1.13732E-11 2.51082E+00
 -1      1148 7.91816E+01 2.00718E+02-2.34978E+01 4.30599E+01 7.51855E+00-1.35613E+02
 -1      1149-5.16965E+00-8.94979E+00-8.82025E-01 5.10950E-01-1.06770E+00 2.72332E+00
 -1      1150 6.99225E+01 1.64815E+02-2.55303E+01 8.39611E+01 1.59877E+01-1.15771E+02
 -1      1151-6.77230E+00-7.82665E+00-1.87635E+00 9.12488E-01-1.83762E+00 3.25357E+00
 -1      1152 5.81428E+01 1.09900E+02-1.71475E+01 1.06721E+02 1.77797E+01-7.54593E+01
 -1      1153-9.48821E+00-6.59686E+00-3.30925E+00 1.06680E+00-2.34373E+00 4.43342E+00
 -1      1154 4.60157E+01 5.28297E+01 3.93230E+00 9.86790E+01 7.22038E+00-3.41838E+01
 -1      1155-1.30169E+01-5.66244E+00-4.38286E+00 8.38601E-01-2.64494E+00 5.59851E+00
 -1      1156 3.85450E+01 1.32934E+01 4.75781E+01 6.52421E+01-2.96892E+00-1.02711E+01
 -1      1157-1.67003E+01-5.02295E+00-4.60174E+00 1.23227E-03-1.92160E+00 6.27009E+00
 -1      1158 5.30103E+01 2.73568E+01 1.52779E+02 4.40904E+01-3.10636E+00 1.07646E+01
 -1      1159-2.15537E+01-6.48017E+00-7.25659E+00-7.62695E-01-1.56484E+00 6.86576E+00
 -1      1160 4.31692E+01 2.04827E+01 8.97380E+01-1.75891E+01 9.07843E+00 3.45178E+01
 -1      1161-9.29910E+00-2.67577E+00-2.08958E+00-1.62118E-01 6.61472E-01 2.28950E+00
 -1      1162 3.69814E+01 1.25082E+01 3.86550E+01-2.77469E+01 1.86889E+01 1.03529E+01
 -1      1163-6.09432E+00-2.39747E+00 1.38181E-02-8.74108E-01 1.09280E+00 2.72507E+00
 -1      1164 4.36540E+01 3.12402E+01 1.65435E+01-5.55061E+01 2.07388E+01-4.62991E+00
 -1      1165-2.71422E+00-3.44769E+00 1.59078E+00-2.55386E+00 2.07997E+00 2.48619E+00
 -1      1166 5.00706E+01 6.29733E+01 1.03623E+01-7.12454E+01 1.41155E+01-4.85481E+01
 -1      1167-3.72247E+00-6.03094E+00-7.17627E-01-3.59672E+00 2.37879E+00 2.37955E+00
 -1      1168 5.50212E+01 9.25679E+01 1.34611E+01-4.81376E+01 1.03312E+01-9.20691E+01
 -1      1169-6.23151E+00-8.85880E+00-3.59470E+00-2.56169E+00 1.93794E+00 2.31613E+00
 -1      1170 5.96161E+01 1.06866E+02 1.93839E+01-1.72128E+01 6.89940E+00-1.04672E+02
 -1      1171-5.51966E+00-1.01242E+01-2.47297E+00-1.00354E+00 1.03154E+00 2.05813E+00
 -1      1172 6.08025E+01 1.09577E+02 2.23370E+01-2.50122E-11-1.17755E-11-1.04932E+02
 -1      1173-5.51888E+00-1.10746E+01-2.41303E+00 7.13196E-12-9.48205E-12 1.89558E+00
 -1      1174 5.96161E+01 1.06866E+02 1.93839E+01 1.72128E+01-6.89940E+00-1.04672E+02
 -1      1175-5.51966E+00-1.01242E+01-2.47297E+00 1.00354E+00-1.03154E+00 2.05813E+00
 -1      1176 5.50212E+01 9.25679E+01 1.34611E+01 4.81376E+01-1.03312E+01-9.20691E+01
 -1      1177-6.23151E+00-8.85880E+00-3.59470E+00 2.56169E+00-1.93794E+00 2.31613E+00
 -1      1178 5.00706E+01 6.29733E+01 1.03623E+01 7.12454E+01-1.41155E+01-4.85481E+01
 -1      1179-3.72247E+00-6.03094E+00-7.17627E-01 3.59672E+00-2.37879E+00 2.37955E+00
 -1      1180 4.36540E+01 3.12402E+01 1.65435E+01 5.55061E+01-2.07388E+01-4.62991E+00
 -1      1181-2.71422E+00-3.44769E+00 1.59078E+00 2.55386E+00-2.07997E+00 2.48619E+00
 -1      1182 3.69814E+01 1.25082E+01 3.86550E+01 2.77469E+01-1.86889E+01 1.03529E+01
 -1      1183-6.09432E+00-2.39747E+00 1.38181E-02 8.74108E-01-1.09280E+00 2.72507E+00
 -1      1184 4.31692E+01 2.04827E+01 8.97380E+01 1.75891E+01-9.07843E+00 3.45178E+01
 -1      1185-9.29910E+00-2.67577E+00-2.08958E+00 1.62118E-01-6.61472E-01 2.28950E+00
 -1      1186 3.79596E+01 1.80192E+01 4.96618E+01 2.98448E+01 8.58801E+00 3.36021E+01
 -1      1187-1.24957E+00-6.62912E-01 8.05695E-01-1.65502E+00 3.59494E-01 1.06364E+00
 -1      1188 4.16888E+01 1.68500E+01 2.77968E+01 4.48410E+01 1.83873E+01 1.00145E+01
 -1      1189 8.26778E-01-1.02674E+00 2.10691E+00-2.43909E+00 9.74174E-01 1.82208E+00
 -1      1190 6.07160E+01 2.20432E+01 1.72838E+01 6.95457E+01 2.57241E+01 7.58953E+00
 -1      1191 3.49213E+00-2.03141E+00 4.19442E+00-3.22799E+00 1.29923E+00 2.19620E+00
 -1      1192 8.81736E+01 1.92456E+01 1.80260E+01 7.52834E+01 2.45225E+01-6.50346E+01
 -1      1193 4.47352E+00-4.76869E+00-5.14602E-02-2.80786E+00 7.91005E-01 1.82453E+00
 -1      1194 1.15896E+02 1.30753E+01 2.61745E+01 5.62625E+01 1.90181E+01-1.33854E+02
 -1      1195 4.23413E+00-7.58593E+00-5.39532E+00-2.45985E+00 1.13953E+00 1.28246E+00
 -1      1196 1.33661E+02 1.20469E+01 3.37231E+01 2.64850E+01 1.06384E+01-1.30326E+02
 -1      1197 4.48946E+00-7.83503E+00-4.27811E+00-1.65447E+00 1.01175E+00 1.36881E+00
 -1      1198 1.40701E+02 1.42785E+01 3.85077E+01-7.49472E-11-1.59730E-11-1.27932E+02
 -1      1199 4.00221E+00-8.22711E+00-4.35409E+00 1.13068E-11-5.94164E-12 1.18910E+00
 -1      1200 1.33661E+02 1.20469E+01 3.37231E+01-2.64850E+01-1.06384E+01-1.30326E+02
 -1      1201 4.48946E+00-7.83503E+00-4.27811E+00 1.65447E+00-1.01175E+00 1.36881E+00
 -1      1202 1.15896E+02 1.30753E+01 2.61745E+01-5.62625E+01-1.90181E+01-1.33854E+02
 -1      1203 4.23413E+00-7.58593E+00-5.39532E+00 2.45985E+00-1.13953E+00 1.28246E+00
 -1      1204 8.81736E+01 1.92456E+01 1.80260E+01-7.52834E+01-2.45225E+01-6.50346E+01
 -1      1205 4.47352E+00-4.76869E+00-5.14602E-02 2.80786E+00-7.91005E-01 1.82453E+00
 -1      1206 6.07160E+01 2.20432E+01 1.72838E+01-6.95457E+01-2.57241E+01 7.58953E+00
 -1      1207 3.49213E+00-2.03141E+00 4.19442E+00 3.22799E+00-1.29923E+00 2.19620E+00
 -1      1208 4.16888E+01 1.68500E+01 2.77968E+01-4.48410E+01-1.83873E+01 1.00145E+01
 -1      1209 8.26778E-01-1.02674E+00 2.10691E+00 2.43909E+00-9.74174E-01 1.82208E+00
 -1      1210 3.79596E+01 1.80192E+01 4.96618E+01-2.98448E+01-8.58801E+00 3.36021E+01
 -1      1211-1.24957E+00-6.62912E-01 8.05695E-01 1.65502E+00-3.59494E-01 1.06364E+00
 -1      1212-2.63286E+02-2.63288E+02-6.14333E+02 6.37357E-04-2.69366E+02-2.24433E+02
 -1      1213-2.63286E+02-2.63288E+02-6.14333E+02-6.37357E-04 2.69366E+02-2.24433E+02
 -1      1214-4.54653E+02-4.54654E+02-1.06085E+03 8.64883E-04-4.50440E+02-2.07362E+02
 -1      1215-4.54653E+02-4.54654E+02-1.06085E+03-8.64883E-04 4.50440E+02-2.07362E+02
 -1      1216-5.72089E+02-5.72090E+02-1.33487E+03 5.07685E-04-5.70897E+02-1.25368E+02
 -1      1217-5.72089E+02-5.72090E+02-1.33487E+03-5.07685E-04 5.70897E+02-1.25368E+02
 -1      1218-6.18183E+02-6.18184E+02-1.44242E+03 1.83630E-04-6.20210E+02-5.41266E+01
 -1      1219-6.18183E+02-6.18184E+02-1.44242E+03-1.83630E-04 6.20210E+02-5.41266E+01
 -1      1220-6.24512E+02-6.24513E+02-1.45719E+03 2.51992E-05-6.30295E+02-1.52243E+01
 -1      1221-6.24512E+02-6.24513E+02-1.45719E+03-2.51992E-05 6.30295E+02-1.52243E+01
 -1      1222-6.21372E+02-6.21373E+02-1.44986E+03-1.90037E-05-6.28898E+02-2.15617E-02
 -1      1223-6.21372E+02-6.21373E+02-1.44986E+03 1.90037E-05 6.28898E+02-2.15617E-02
 -1      1224-6.19435E+02-6.19436E+02-1.44534E+03-2.64364E-05-6.27021E+02 5.09495E+00
 -1      1225-6.19435E+02-6.19436E+02-1.44534E+03 2.64364E-05 6.27021E+02 5.09495E+00
 -1      1226-6.19518E+02-6.19520E+02-1.44554E+03-2.93375E-05-6.26619E+02 7.42316E+00
 -1      1227-6.19518E+02-6.19520E+02-1.44554E+03 2.93375E-05 6.26619E+02 7.42316E+00
 -1      1228-6.20311E+02-6.20312E+02-1.44739E+03-3.35726E-05-6.26991E+02 9.16181E+00
 -1      1229-6.20311E+02-6.20312E+02-1.44739E+03 3.35726E-05 6.26991E+02 9.16181E+00
 -1      1230-6.21042E+02-6.21043E+02-1.44909E+03-3.80509E-05-6.27480E+02 1.06482E+01
 -1      1231-6.21042E+02-6.21043E+02-1.44909E+03 3.80509E-05 6.27480E+02 1.06482E+01
 -1      1232-6.21526E+02-6.21527E+02-1.45022E+03-4.23292E-05-6.27814E+02 1.20277E+01
 -1      1233-6.21526E+02-6.21527E+02-1.45022E+03 4.23292E-05 6.27814E+02 1.20277E+01
 -1      1234-6.21637E+02-6.21639E+02-1.45048E+03-4.81710E-05-6.27764E+02 1.37553E+01
 -1      1235-6.21637E+02-6.21639E+02-1.45048E+03 4.81710E-05 6.27764E+02 1.37553E+01
 -1      1236-6.20712E+02-6.20713E+02-1.44832E+03-5.96223E-05-6.26694E+02 1.65522E+01
 -1      1237-6.20712E+02-6.20713E+02-1.44832E+03 5.96223E-05 6.26694E+02 1.65522E+01
 -1      1238-6.17145E+02-6.17146E+02-1.44000E+03-7.88917E-05-6.23404E+02 2.04819E+01
 -1      1239-6.17145E+02-6.17146E+02-1.44000E+03 7.88917E-05 6.23404E+02 2.04819E+01
 -1      1240-6.09725E+02-6.09726E+02-1.42269E+03-9.23979E-05-6.17425E+02 2.26384E+01
 -1      1241-6.09725E+02-6.09726E+02-1.42269E+03 9.23979E-05 6.17425E+02 2.26384E+01
 -1      1242-6.03428E+02-6.03430E+02-1.40799E+03-5.94605E-05-6.12840E+02 1.69474E+01
 -1      1243-6.03428E+02-6.03430E+02-1.40799E+03 5.94605E-05 6.12840E+02 1.69474E+01
 -1      1244-6.15191E+02-6.15192E+02-1.43544E+03 3.97127E-05-6.21536E+02 7.72658E+00
 -1      1245-6.15191E+02-6.15192E+02-1.43544E+03-3.97127E-05 6.21536E+02 7.72658E+00
 -1      1246-6.51434E+02-6.51434E+02-1.52000E+03-2.04087E-05-6.47580E+02 3.71913E+01
 -1      1247-6.51434E+02-6.51434E+02-1.52000E+03 2.04087E-05 6.47580E+02 3.71913E+01
 -1      1248-6.35461E+02-6.35461E+02-1.48273E+03-7.03098E-04-6.24401E+02 1.53607E+02
 -1      1249-6.35461E+02-6.35461E+02-1.48273E+03 7.03098E-04 6.24401E+02 1.53607E+02
 -1      1250-4.27742E+02-4.27743E+02-9.98061E+02-1.15485E-03-4.27156E+02 2.64357E+02
 -1      1251-4.27742E+02-4.27743E+02-9.98061E+02 1.15485E-03 4.27156E+02 2.64357E+02
 -1      1252-1.60121E+02-1.60123E+02-3.73617E+02-6.19753E-04-1.74507E+02 2.35408E+02
 -1      1253-1.60121E+02-1.60123E+02-3.73617E+02 6.19753E-04 1.74507E+02 2.35408E+02
 -1      1254-2.94068E+01-2.94083E+01-6.86185E+01-1.17405E-04-4.54153E+01 1.28848E+02
 -1      1255-2.94068E+01-2.94083E+01-6.86185E+01 1.17405E-04 4.54153E+01 1.28848E+02
 -1      1256 2.12322E+00 2.12255E+00 4.95288E+00 1.68137E-05-7.58731E+00 5.60975E+01
 -1      1257 2.12322E+00 2.12255E+00 4.95288E+00-1.68137E-05 7.58731E+00 5.60975E+01
 -1      1258-9.27892E+01-2.47446E+01-3.51154E+02-1.88577E+01-1.28582E+02-2.13772E+02
 -1      1259-9.27892E+01-2.47446E+01-3.51154E+02 1.88577E+01 1.28582E+02-2.13772E+02
 -1      1260-1.50858E+02-5.33373E+01-5.92616E+02-1.92995E+01-2.18311E+02-2.00240E+02
 -1      1261-1.50858E+02-5.33373E+01-5.92616E+02 1.92995E+01 2.18311E+02-2.00240E+02
 -1      1262-1.77002E+02-6.66800E+01-7.44666E+02-1.09475E+01-2.77300E+02-1.20964E+02
 -1      1263-1.77002E+02-6.66800E+01-7.44666E+02 1.09475E+01 2.77300E+02-1.20964E+02
 -1      1264-2.14172E+02-7.07540E+01-8.02249E+02-3.44088E+00-2.98933E+02-5.17063E+01
 -1      1265-2.14172E+02-7.07540E+01-8.02249E+02 3.44088E+00 2.98933E+02-5.17063E+01
 -1      1266-2.41861E+02-7.34484E+01-8.10905E+02-8.14384E-02-3.02665E+02-1.43685E+01
 -1      1267-2.41861E+02-7.34484E+01-8.10905E+02 8.14384E-02 3.02665E+02-1.43685E+01
 -1      1268-2.56000E+02-7.47772E+01-8.07903E+02 6.24512E-01-3.01539E+02 4.62148E-02
 -1      1269-2.56000E+02-7.47772E+01-8.07903E+02-6.24512E-01 3.01539E+02 4.62148E-02
 -1      1270-2.61407E+02-7.54890E+01-8.06620E+02 4.89987E-01-3.00515E+02 4.92052E+00
 -1      1271-2.61407E+02-7.54890E+01-8.06620E+02-4.89987E-01 3.00515E+02 4.92052E+00
 -1      1272-2.63230E+02-7.57534E+01-8.07554E+02 2.94044E-01-3.00263E+02 7.21719E+00
 -1      1273-2.63230E+02-7.57534E+01-8.07554E+02-2.94044E-01 3.00263E+02 7.21719E+00
 -1      1274-2.64074E+02-7.58568E+01-8.09045E+02 2.00465E-01-3.00394E+02 8.96155E+00
 -1      1275-2.64074E+02-7.58568E+01-8.09045E+02-2.00465E-01 3.00394E+02 8.96155E+00
 -1      1276-2.64597E+02-7.59041E+01-8.10223E+02 1.78307E-01-3.00593E+02 1.04414E+01
 -1      1277-2.64597E+02-7.59041E+01-8.10223E+02-1.78307E-01 3.00593E+02 1.04414E+01
 -1      1278-2.64709E+02-7.59033E+01-8.10948E+02 1.96447E-01-3.00735E+02 1.17931E+01
 -1      1279-2.64709E+02-7.59033E+01-8.10948E+02-1.96447E-01 3.00735E+02 1.17931E+01
 -1      1280-2.64129E+02-7.58364E+01-8.11125E+02 2.74684E-01-3.00723E+02 1.34635E+01
 -1      1281-2.64129E+02-7.58364E+01-8.11125E+02-2.74684E-01 3.00723E+02 1.34635E+01
 -1      1282-2.62795E+02-7.57346E+01-8.09962E+02 4.71303E-01-3.00272E+02 1.61794E+01
 -1      1283-2.62795E+02-7.57346E+01-8.09962E+02-4.71303E-01 3.00272E+02 1.61794E+01
 -1      1284-2.61664E+02-7.56656E+01-8.05338E+02 7.82925E-01-2.98799E+02 2.00877E+01
 -1      1285-2.61664E+02-7.56656E+01-8.05338E+02-7.82925E-01 2.98799E+02 2.00877E+01
 -1      1286-2.62654E+02-7.53219E+01-7.95084E+02 8.56554E-01-2.95926E+02 2.24536E+01
 -1      1287-2.62654E+02-7.53219E+01-7.95084E+02-8.56554E-01 2.95926E+02 2.24536E+01
 -1      1288-2.63979E+02-7.36200E+01-7.84768E+02-2.80384E-01-2.93248E+02 1.70203E+01
 -1      1289-2.63979E+02-7.36200E+01-7.84768E+02 2.80384E-01 2.93248E+02 1.70203E+01
 -1      1290-2.51788E+02-7.05888E+01-7.97946E+02-2.38135E+00-2.96670E+02 6.87922E+00
 -1      1291-2.51788E+02-7.05888E+01-7.97946E+02 2.38135E+00 2.96670E+02 6.87922E+00
 -1      1292-2.13077E+02-7.24510E+01-8.48522E+02 6.10518E-01-3.11539E+02 3.34396E+01
 -1      1293-2.13077E+02-7.24510E+01-8.48522E+02-6.10518E-01 3.11539E+02 3.34396E+01
 -1      1294-1.76296E+02-7.85504E+01-8.37231E+02 1.51745E+01-3.06769E+02 1.48171E+02
 -1      1295-1.76296E+02-7.85504E+01-8.37231E+02-1.51745E+01 3.06769E+02 1.48171E+02
 -1      1296-1.47984E+02-5.21311E+01-5.59304E+02 2.91879E+01-2.06935E+02 2.58877E+02
 -1      1297-1.47984E+02-5.21311E+01-5.59304E+02-2.91879E+01 2.06935E+02 2.58877E+02
 -1      1298-1.24146E+02-1.73791E+01-2.00707E+02 2.53791E+01-7.80098E+01 2.28997E+02
 -1      1299-1.24146E+02-1.73791E+01-2.00707E+02-2.53791E+01 7.80098E+01 2.28997E+02
 -1      1300-9.05167E+01-8.54211E+00-3.41760E+01 1.14350E+01-1.84229E+01 1.23144E+02
 -1      1301-9.05167E+01-8.54211E+00-3.41760E+01-1.14350E+01 1.84229E+01 1.23144E+02
 -1      1302-4.04549E+01-5.91038E+00 2.80552E-01 1.68779E+00-3.19547E+00 5.24592E+01
 -1      1303-4.04549E+01-5.91038E+00 2.80552E-01-1.68779E+00 3.19547E+00 5.24592E+01
 -1      1304 1.32048E+01 3.41042E+01-8.10347E+01-3.50561E+01-6.32249E+01-1.49274E+02
 -1      1305 1.32048E+01 3.41042E+01-8.10347E+01 3.50561E+01 6.32249E+01-1.49274E+02
 -1      1306 6.16733E+01 4.62004E+01-1.03571E+02-3.27034E+01-1.13153E+02-1.34312E+02
 -1      1307 6.16733E+01 4.62004E+01-1.03571E+02 3.27034E+01 1.13153E+02-1.34312E+02
 -1      1308 8.32067E+01 6.05204E+01-1.29969E+02-1.79902E+01-1.43370E+02-8.13069E+01
 -1      1309 8.32067E+01 6.05204E+01-1.29969E+02 1.79902E+01 1.43370E+02-8.13069E+01
 -1      1310 5.78453E+01 6.72822E+01-1.30941E+02-5.31578E+00-1.51272E+02-3.49310E+01
 -1      1311 5.78453E+01 6.72822E+01-1.30941E+02 5.31578E+00 1.51272E+02-3.49310E+01
 -1      1312 2.18721E+01 6.68806E+01-1.25025E+02 4.45084E-02-1.51501E+02-1.02193E+01
 -1      1313 2.18721E+01 6.68806E+01-1.25025E+02-4.45084E-02 1.51501E+02-1.02193E+01
 -1      1314-1.07143E+00 6.45161E+01-1.22193E+02 1.13804E+00-1.50466E+02-9.24655E-02
 -1      1315-1.07143E+00 6.45161E+01-1.22193E+02-1.13804E+00 1.50466E+02-9.24655E-02
 -1      1316-1.12080E+01 6.29043E+01-1.22892E+02 9.18253E-01-1.49912E+02 4.16658E+00
 -1      1317-1.12080E+01 6.29043E+01-1.22892E+02-9.18253E-01 1.49912E+02 4.16658E+00
 -1      1318-1.48604E+01 6.22684E+01-1.24561E+02 6.09773E-01-1.49787E+02 6.66781E+00
 -1      1319-1.48604E+01 6.22684E+01-1.24561E+02-6.09773E-01 1.49787E+02 6.66781E+00
 -1      1320-1.62963E+01 6.21225E+01-1.25866E+02 4.62472E-01-1.49829E+02 8.51762E+00
 -1      1321-1.62963E+01 6.21225E+01-1.25866E+02-4.62472E-01 1.49829E+02 8.51762E+00
 -1      1322-1.69820E+01 6.21304E+01-1.26619E+02 4.27753E-01-1.49899E+02 9.93289E+00
 -1      1323-1.69820E+01 6.21304E+01-1.26619E+02-4.27753E-01 1.49899E+02 9.93289E+00
 -1      1324-1.70323E+01 6.21920E+01-1.27045E+02 4.56530E-01-1.49955E+02 1.10899E+01
 -1      1325-1.70323E+01 6.21920E+01-1.27045E+02-4.56530E-01 1.49955E+02 1.10899E+01
 -1      1326-1.62277E+01 6.22537E+01-1.27384E+02 5.79347E-01-1.49967E+02 1.23468E+01
 -1      1327-1.62277E+01 6.22537E+01-1.27384E+02-5.79347E-01 1.49967E+02 1.23468E+01
 -1      1328-1.48723E+01 6.21067E+01-1.27552E+02 8.88720E-01-1.49834E+02 1.42795E+01
 -1      1329-1.48723E+01 6.21067E+01-1.27552E+02-8.88720E-01 1.49834E+02 1.42795E+01
 -1      1330-1.49859E+01 6.13780E+01-1.26495E+02 1.39180E+00-1.49271E+02 1.72946E+01
 -1      1331-1.49859E+01 6.13780E+01-1.26495E+02-1.39180E+00 1.49271E+02 1.72946E+01
 -1      1332-1.94955E+01 6.04355E+01-1.21839E+02 1.60901E+00-1.47810E+02 2.00417E+01
 -1      1333-1.94955E+01 6.04355E+01-1.21839E+02-1.60901E+00 1.47810E+02 2.00417E+01
 -1      1334-2.32934E+01 6.18635E+01-1.14327E+02-1.04934E-02-1.45544E+02 1.77982E+01
 -1      1335-2.32934E+01 6.18635E+01-1.14327E+02 1.04934E-02 1.45544E+02 1.77982E+01
 -1      1336 3.93622E-01 6.83463E+01-1.19220E+02-3.83423E+00-1.45597E+02 9.78502E+00
 -1      1337 3.93622E-01 6.83463E+01-1.19220E+02 3.83423E+00 1.45597E+02 9.78502E+00
 -1      1338 7.20877E+01 7.17075E+01-1.52381E+02-1.64393E-01-1.56491E+02 2.22829E+01
 -1      1339 7.20877E+01 7.17075E+01-1.52381E+02 1.64393E-01 1.56491E+02 2.22829E+01
 -1      1340 1.11868E+02 5.48937E+01-1.74183E+02 2.48834E+01-1.66374E+02 9.73774E+01
 -1      1341 1.11868E+02 5.48937E+01-1.74183E+02-2.48834E+01 1.66374E+02 9.73774E+01
 -1      1342 3.53276E+01 4.05013E+01-1.00181E+02 5.00782E+01-1.06782E+02 1.73020E+02
 -1      1343 3.53276E+01 4.05013E+01-1.00181E+02-5.00782E+01 1.06782E+02 1.73020E+02
 -1      1344-7.99511E+01 2.45595E+01 5.54953E-01 4.25085E+01-2.85849E+01 1.50567E+02
 -1      1345-7.99511E+01 2.45595E+01 5.54953E-01-4.25085E+01 2.85849E+01 1.50567E+02
 -1      1346-1.05073E+02 1.89541E+00 2.96010E+01 1.80766E+01-4.04927E+00 7.99031E+01
 -1      1347-1.05073E+02 1.89541E+00 2.96010E+01-1.80766E+01 4.04927E+00 7.99031E+01
 -1      1348-5.64204E+01-6.07098E+00 9.69521E+00 3.76245E+00-9.59773E-01 3.79870E+01
 -1      1349-5.64204E+01-6.07098E+00 9.69521E+00-3.76245E+00 9.59773E-01 3.79870E+01
 -1      1350 6.75383E+01 5.47498E+01 6.54609E+01-4.30764E+01-3.80065E+01-6.52498E+01
 -1      1351 6.75383E+01 5.47498E+01 6.54609E+01 4.30764E+01 3.80065E+01-6.52498E+01
 -1      1352 1.66158E+02 7.96680E+01 1.56250E+02-3.74386E+01-7.72340E+01-6.20634E+01
 -1      1353 1.66158E+02 7.96680E+01 1.56250E+02 3.74386E+01 7.72340E+01-6.20634E+01
 -1      1354 2.09697E+02 1.05982E+02 1.99721E+02-1.90958E+01-9.51527E+01-3.71536E+01
 -1      1355 2.09697E+02 1.05982E+02 1.99721E+02 1.90958E+01 9.51527E+01-3.71536E+01
 -1      1356 1.88915E+02 1.16438E+02 2.20490E+02-4.83993E+00-9.72865E+01-1.64876E+01
 -1      1357 1.88915E+02 1.16438E+02 2.20490E+02 4.83993E+00 9.72865E+01-1.64876E+01
 -1      1358 1.51678E+02 1.17124E+02 2.30231E+02 6.68853E-01-9.55657E+01-5.46785E+00
 -1      1359 1.51678E+02 1.17124E+02 2.30231E+02-6.68853E-01 9.55657E+01-5.46785E+00
 -1      1360 1.25787E+02 1.14699E+02 2.31722E+02 1.62576E+00-9.44604E+01-2.40143E-01
 -1      1361 1.25787E+02 1.14699E+02 2.31722E+02-1.62576E+00 9.44604E+01-2.40143E-01
 -1      1362 1.13358E+02 1.12950E+02 2.30081E+02 1.32180E+00-9.41505E+01 3.09999E+00
 -1      1363 1.13358E+02 1.12950E+02 2.30081E+02-1.32180E+00 9.41505E+01 3.09999E+00
 -1      1364 1.08270E+02 1.12270E+02 2.28326E+02 9.87180E-01-9.41568E+01 5.63664E+00
 -1      1365 1.08270E+02 1.12270E+02 2.28326E+02-9.87180E-01 9.41568E+01 5.63664E+00
 -1      1366 1.06072E+02 1.12125E+02 2.27289E+02 8.41216E-01-9.42197E+01 7.49348E+00
 -1      1367 1.06072E+02 1.12125E+02 2.27289E+02-8.41216E-01 9.42197E+01 7.49348E+00
 -1      1368 1.05035E+02 1.12151E+02 2.26823E+02 8.12505E-01-9.42689E+01 8.77606E+00
 -1      1369 1.05035E+02 1.12151E+02 2.26823E+02-8.12505E-01 9.42689E+01 8.77606E+00
 -1      1370 1.04854E+02 1.12225E+02 2.26589E+02 8.44946E-01-9.43059E+01 9.67992E+00
 -1      1371 1.04854E+02 1.12225E+02 2.26589E+02-8.44946E-01 9.43059E+01 9.67992E+00
 -1      1372 1.05611E+02 1.12275E+02 2.26258E+02 9.71403E-01-9.43433E+01 1.04615E+01
 -1      1373 1.05611E+02 1.12275E+02 2.26258E+02-9.71403E-01 9.43433E+01 1.04615E+01
 -1      1374 1.06914E+02 1.12066E+02 2.25620E+02 1.30197E+00-9.43535E+01 1.15385E+01
 -1      1375 1.06914E+02 1.12066E+02 2.25620E+02-1.30197E+00 9.43535E+01 1.15385E+01
 -1      1376 1.06736E+02 1.11128E+02 2.25020E+02 1.87632E+00-9.41460E+01 1.35514E+01
 -1      1377 1.06736E+02 1.11128E+02 2.25020E+02-1.87632E+00 9.41460E+01 1.35514E+01
 -1      1378 1.02103E+02 1.09699E+02 2.26053E+02 2.28896E+00-9.31064E+01 1.64896E+01
 -1      1379 1.02103E+02 1.09699E+02 2.26053E+02-2.28896E+00 9.31064E+01 1.64896E+01
 -1      1380 9.78061E+01 1.10487E+02 2.29657E+02 8.55400E-01-9.05620E+01 1.72012E+01
 -1      1381 9.78061E+01 1.10487E+02 2.29657E+02-8.55400E-01 9.05620E+01 1.72012E+01
 -1      1382 1.21929E+02 1.17715E+02 2.27256E+02-4.15677E+00-8.88682E+01 1.16257E+01
 -1      1383 1.21929E+02 1.17715E+02 2.27256E+02 4.15677E+00 8.88682E+01 1.16257E+01
 -1      1384 2.02102E+02 1.24441E+02 2.12496E+02-2.74172E+00-9.95857E+01 1.01663E+01
 -1      1385 2.02102E+02 1.24441E+02 2.12496E+02 2.74172E+00 9.95857E+01 1.01663E+01
 -1      1386 2.44830E+02 1.00494E+02 1.97227E+02 2.73654E+01-1.19635E+02 4.13108E+01
 -1      1387 2.44830E+02 1.00494E+02 1.97227E+02-2.73654E+01 1.19635E+02 4.13108E+01
 -1      1388 1.20884E+02 7.29699E+01 1.43799E+02 5.98893E+01-7.07811E+01 7.69357E+01
 -1      1389 1.20884E+02 7.29699E+01 1.43799E+02-5.98893E+01 7.07811E+01 7.69357E+01
 -1      1390-5.44587E+01 4.17458E+01 8.21740E+01 4.84804E+01-6.02306E+00 6.39338E+01
 -1      1391-5.44587E+01 4.17458E+01 8.21740E+01-4.84804E+01 6.02306E+00 6.39338E+01
 -1      1392-1.00658E+02 5.33462E+00 4.77933E+01 1.81822E+01 3.35173E+00 3.29853E+01
 -1      1393-1.00658E+02 5.33462E+00 4.77933E+01-1.81822E+01-3.35173E+00 3.29853E+01
 -1      1394-5.54267E+01-5.74658E+00 1.13263E+01 3.74671E+00 7.11151E-01 1.92696E+01
 -1      1395-5.54267E+01-5.74658E+00 1.13263E+01-3.74671E+00-7.11151E-01 1.92696E+01
 -1      1396 7.20004E+01 2.56011E+01 1.04881E+02-3.77923E+01-1.37228E+01 1.26941E+01
 -1      1397 7.20004E+01 2.56011E+01 1.04881E+02 3.77923E+01 1.37228E+01 1.26941E+01
 -1      1398 1.62196E+02 1.87459E+01 2.19732E+02-3.09375E+01-3.40501E+01 7.66884E+00
 -1      1399 1.62196E+02 1.87459E+01 2.19732E+02 3.09375E+01 3.40501E+01 7.66884E+00
 -1      1400 2.02586E+02 3.61337E+01 2.79756E+02-1.37438E+01-4.00521E+01 5.64061E-01
 -1      1401 2.02586E+02 3.61337E+01 2.79756E+02 1.37438E+01 4.00521E+01 5.64061E-01
 -1      1402 1.85833E+02 4.42092E+01 3.00837E+02-2.23726E+00-3.78450E+01-2.09590E+00
 -1      1403 1.85833E+02 4.42092E+01 3.00837E+02 2.23726E+00 3.78450E+01-2.09590E+00
 -1      1404 1.54778E+02 4.56874E+01 3.07676E+02 1.62834E+00-3.53346E+01-2.32947E+00
 -1      1405 1.54778E+02 4.56874E+01 3.07676E+02-1.62834E+00 3.53346E+01-2.32947E+00
 -1      1406 1.31595E+02 4.44415E+01 3.07783E+02 2.10211E+00-3.45252E+01-7.45978E-01
 -1      1407 1.31595E+02 4.44415E+01 3.07783E+02-2.10211E+00 3.45252E+01-7.45978E-01
 -1      1408 1.18912E+02 4.33428E+01 3.06159E+02 1.77417E+00-3.45012E+01 1.76332E+00
 -1      1409 1.18912E+02 4.33428E+01 3.06159E+02-1.77417E+00 3.45012E+01 1.76332E+00
 -1      1410 1.12690E+02 4.28531E+01 3.04831E+02 1.51584E+00-3.46195E+01 4.07119E+00
 -1      1411 1.12690E+02 4.28531E+01 3.04831E+02-1.51584E+00 3.46195E+01 4.07119E+00
 -1      1412 1.09605E+02 4.26983E+01 3.04136E+02 1.42694E+00-3.46940E+01 5.70505E+00
 -1      1413 1.09605E+02 4.26983E+01 3.04136E+02-1.42694E+00 3.46940E+01 5.70505E+00
 -1      1414 1.08093E+02 4.26739E+01 3.03867E+02 1.42318E+00-3.47235E+01 6.73186E+00
 -1      1415 1.08093E+02 4.26739E+01 3.03867E+02-1.42318E+00 3.47235E+01 6.73186E+00
 -1      1416 1.07639E+02 4.26959E+01 3.03748E+02 1.45487E+00-3.47412E+01 7.34947E+00
 -1      1417 1.07639E+02 4.26959E+01 3.03748E+02-1.45487E+00 3.47412E+01 7.34947E+00
 -1      1418 1.08102E+02 4.27083E+01 3.03525E+02 1.54954E+00-3.47854E+01 7.70798E+00
 -1      1419 1.08102E+02 4.27083E+01 3.03525E+02-1.54954E+00 3.47854E+01 7.70798E+00
 -1      1420 1.09161E+02 4.25890E+01 3.02983E+02 1.80904E+00-3.48884E+01 8.02653E+00
 -1      1421 1.09161E+02 4.25890E+01 3.02983E+02-1.80904E+00 3.48884E+01 8.02653E+00
 -1      1422 1.09680E+02 4.20656E+01 3.02116E+02 2.30166E+00-3.49625E+01 8.90299E+00
 -1      1423 1.09680E+02 4.20656E+01 3.02116E+02-2.30166E+00 3.49625E+01 8.90299E+00
 -1      1424 1.07960E+02 4.13211E+01 3.01366E+02 2.78844E+00-3.44866E+01 1.10954E+01
 -1      1425 1.07960E+02 4.13211E+01 3.01366E+02-2.78844E+00 3.44866E+01 1.10954E+01
 -1      1426 1.06671E+02 4.23834E+01 3.01446E+02 2.04790E+00-3.22791E+01 1.35489E+01
 -1      1427 1.06671E+02 4.23834E+01 3.01446E+02-2.04790E+00 3.22791E+01 1.35489E+01
 -1      1428 1.23805E+02 4.83377E+01 2.98604E+02-2.80939E+00-2.95674E+01 1.30038E+01
 -1      1429 1.23805E+02 4.83377E+01 2.98604E+02 2.80939E+00 2.95674E+01 1.30038E+01
 -1      1430 1.87091E+02 5.59541E+01 3.00842E+02-4.90891E+00-3.80471E+01 6.85321E+00
 -1      1431 1.87091E+02 5.59541E+01 3.00842E+02 4.90891E+00 3.80471E+01 6.85321E+00
 -1      1432 2.14972E+02 1.17123E+01 2.99521E+02 2.16999E+01-5.93389E+01-8.01119E+00
 -1      1433 2.14972E+02 1.17123E+01 2.99521E+02-2.16999E+01 5.93389E+01-8.01119E+00
 -1      1434 1.11650E+02 2.31167E+01 2.03384E+02 5.28835E+01-2.95657E+01-2.14265E+01
 -1      1435 1.11650E+02 2.31167E+01 2.03384E+02-5.28835E+01 2.95657E+01-2.14265E+01
 -1      1436-3.31784E+01 3.85473E+01 8.37209E+01 4.00124E+01 9.94947E+00-1.77766E+01
 -1      1437-3.31784E+01 3.85473E+01 8.37209E+01-4.00124E+01-9.94947E+00-1.77766E+01
 -1      1438-7.45145E+01 2.67483E+00 3.58414E+01 1.20642E+01 7.62285E+00-4.30949E+00
 -1      1439-7.45145E+01 2.67483E+00 3.58414E+01-1.20642E+01-7.62285E+00-4.30949E+00
 -1      1440-3.95722E+01-4.00176E+00 8.18859E+00 2.00845E+00 1.34499E+00 4.63926E+00
 -1      1441-3.95722E+01-4.00176E+00 8.18859E+00-2.00845E+00-1.34499E+00 4.63926E+00
 -1      1442 5.71502E+01 9.06534E+00 7.02125E+01-1.37166E+01 8.00009E+00 4.75177E+01
 -1      1443 5.71502E+01 9.06534E+00 7.02125E+01 1.37166E+01-8.00009E+00 4.75177E+01
 -1      1444 1.10907E+02-3.17304E+00 1.42493E+02-8.87299E+00 1.35225E+01 4.09478E+01
 -1      1445 1.10907E+02-3.17304E+00 1.42493E+02 8.87299E+00-1.35225E+01 4.09478E+01
 -1      1446 1.35431E+02 7.60091E+00 1.82182E+02-1.72558E+00 1.61235E+01 1.70590E+01
 -1      1447 1.35431E+02 7.60091E+00 1.82182E+02 1.72558E+00-1.61235E+01 1.70590E+01
 -1      1448 1.27888E+02 1.36368E+01 1.94086E+02 1.35679E+00 2.00933E+01 2.94781E+00
 -1      1449 1.27888E+02 1.36368E+01 1.94086E+02-1.35679E+00-2.00933E+01 2.94781E+00
 -1      1450 1.09831E+02 1.53792E+01 1.97305E+02 2.16956E+00 2.18951E+01-1.34289E+00
 -1      1451 1.09831E+02 1.53792E+01 1.97305E+02-2.16956E+00-2.18951E+01-1.34289E+00
 -1      1452 9.29112E+01 1.52854E+01 1.97359E+02 2.13737E+00 2.20768E+01-1.06476E+00
 -1      1453 9.29112E+01 1.52854E+01 1.97359E+02-2.13737E+00-2.20768E+01-1.06476E+00
 -1      1454 8.08655E+01 1.48682E+01 1.96592E+02 1.99523E+00 2.18422E+01 5.74004E-01
 -1      1455 8.08655E+01 1.48682E+01 1.96592E+02-1.99523E+00-2.18422E+01 5.74004E-01
 -1      1456 7.35391E+01 1.45446E+01 1.95889E+02 1.94898E+00 2.16658E+01 2.09230E+00
 -1      1457 7.35391E+01 1.45446E+01 1.95889E+02-1.94898E+00-2.16658E+01 2.09230E+00
 -1      1458 6.95292E+01 1.43622E+01 1.95487E+02 1.97468E+00 2.16007E+01 3.10617E+00
 -1      1459 6.95292E+01 1.43622E+01 1.95487E+02-1.97468E+00-2.16007E+01 3.10617E+00
 -1      1460 6.75498E+01 1.42793E+01 1.95315E+02 2.01421E+00 2.15916E+01 3.70027E+00
 -1      1461 6.75498E+01 1.42793E+01 1.95315E+02-2.01421E+00-2.15916E+01 3.70027E+00
 -1      1462 6.67997E+01 1.42427E+01 1.95231E+02 2.04572E+00 2.15934E+01 4.01963E+00
 -1      1463 6.67997E+01 1.42427E+01 1.95231E+02-2.04572E+00-2.15934E+01 4.01963E+00
 -1      1464 6.68071E+01 1.42062E+01 1.95099E+02 2.08363E+00 2.15648E+01 4.12529E+00
 -1      1465 6.68071E+01 1.42062E+01 1.95099E+02-2.08363E+00-2.15648E+01 4.12529E+00
 -1      1466 6.72921E+01 1.41551E+01 1.94848E+02 2.18110E+00 2.14419E+01 4.05448E+00
 -1      1467 6.72921E+01 1.41551E+01 1.94848E+02-2.18110E+00-2.14419E+01 4.05448E+00
 -1      1468 6.84180E+01 1.40700E+01 1.94519E+02 2.36281E+00 2.12133E+01 4.03715E+00
 -1      1469 6.84180E+01 1.40700E+01 1.94519E+02-2.36281E+00-2.12133E+01 4.03715E+00
 -1      1470 7.13673E+01 1.40278E+01 1.94002E+02 2.58022E+00 2.11361E+01 4.60017E+00
 -1      1471 7.13673E+01 1.40278E+01 1.94002E+02-2.58022E+00-2.11361E+01 4.60017E+00
 -1      1472 7.71921E+01 1.43031E+01 1.92293E+02 2.52251E+00 2.22042E+01 6.40100E+00
 -1      1473 7.71921E+01 1.43031E+01 1.92293E+02-2.52251E+00-2.22042E+01 6.40100E+00
 -1      1474 8.61178E+01 1.68139E+01 1.88657E+02 8.95040E-01 2.46993E+01 1.14554E+01
 -1      1475 8.61178E+01 1.68139E+01 1.88657E+02-8.95040E-01-2.46993E+01 1.14554E+01
 -1      1476 1.07429E+02 2.25287E+01 1.95361E+02-2.58790E+00 1.85935E+01 1.04858E+01
 -1      1477 1.07429E+02 2.25287E+01 1.95361E+02 2.58790E+00-1.85935E+01 1.04858E+01
 -1      1478 1.08427E+02-1.19184E+01 2.01900E+02 6.00446E+00 1.22871E+01-2.86764E+01
 -1      1479 1.08427E+02-1.19184E+01 2.01900E+02-6.00446E+00-1.22871E+01-2.86764E+01
 -1      1480 6.12151E+01 5.65216E+00 1.33338E+02 1.83683E+01 1.15725E+01-7.23970E+01
 -1      1481 6.12151E+01 5.65216E+00 1.33338E+02-1.83683E+01-1.15725E+01-7.23970E+01
 -1      1482-1.61267E+00 2.68427E+01 4.64680E+01 1.11939E+01 1.29704E+01-5.59162E+01
 -1      1483-1.61267E+00 2.68427E+01 4.64680E+01-1.11939E+01-1.29704E+01-5.59162E+01
 -1      1484-2.46499E+01 2.76696E+00 1.75435E+01 1.02505E+00 8.29453E+00-1.66875E+01
 -1      1485-2.46499E+01 2.76696E+00 1.75435E+01-1.02505E+00-8.29453E+00-1.66875E+01
 -1      1486-1.45582E+01-8.65158E-01 4.99527E+00-2.67047E-01 9.65671E-01-5.91177E-01
 -1      1487-1.45582E+01-8.65158E-01 4.99527E+00 2.67047E-01-9.65671E-01-5.91177E-01
 -1      1488 7.12164E+01 6.63571E+01 6.33423E+01 4.31971E+01 6.74829E+00 4.71251E+01
 -1      1489 7.12164E+01 6.63571E+01 6.33423E+01-4.31971E+01-6.74829E+00 4.71251E+01
 -1      1490 1.32020E+02 1.44242E+02 1.34542E+02 4.31232E+01 1.34948E+01 4.24808E+01
 -1      1491 1.32020E+02 1.44242E+02 1.34542E+02-4.31232E+01-1.34948E+01 4.24808E+01
 -1      1492 1.51912E+02 1.75991E+02 1.65334E+02 2.03180E+01 1.67555E+01 1.77259E+01
 -1      1493 1.51912E+02 1.75991E+02 1.65334E+02-2.03180E+01-1.67555E+01 1.77259E+01
 -1      1494 1.54942E+02 1.80042E+02 1.72801E+02 5.76051E+00 1.99946E+01 2.62373E+00
 -1      1495 1.54942E+02 1.80042E+02 1.72801E+02-5.76051E+00-1.99946E+01 2.62373E+00
 -1      1496 1.50000E+02 1.78307E+02 1.75240E+02 1.46203E+00 2.11099E+01-1.12272E+00
 -1      1497 1.50000E+02 1.78307E+02 1.75240E+02-1.46203E+00-2.11099E+01-1.12272E+00
 -1      1498 1.37911E+02 1.77112E+02 1.75666E+02 9.98191E-01 2.10556E+01-7.63111E-01
 -1      1499 1.37911E+02 1.77112E+02 1.75666E+02-9.98191E-01-2.10556E+01-7.63111E-01
 -1      1500 1.25408E+02 1.76371E+02 1.75067E+02 1.46295E+00 2.08054E+01 3.09075E-01
 -1      1501 1.25408E+02 1.76371E+02 1.75067E+02-1.46295E+00-2.08054E+01 3.09075E-01
 -1      1502 1.16734E+02 1.75941E+02 1.74398E+02 1.90751E+00 2.06557E+01 1.15569E+00
 -1      1503 1.16734E+02 1.75941E+02 1.74398E+02-1.90751E+00-2.06557E+01 1.15569E+00
 -1      1504 1.11964E+02 1.75736E+02 1.74013E+02 2.17681E+00 2.06058E+01 1.67474E+00
 -1      1505 1.11964E+02 1.75736E+02 1.74013E+02-2.17681E+00-2.06058E+01 1.67474E+00
 -1      1506 1.09745E+02 1.75665E+02 1.73864E+02 2.31000E+00 2.06000E+01 1.96631E+00
 -1      1507 1.09745E+02 1.75665E+02 1.73864E+02-2.31000E+00-2.06000E+01 1.96631E+00
 -1      1508 1.08882E+02 1.75645E+02 1.73794E+02 2.35105E+00 2.06040E+01 2.11834E+00
 -1      1509 1.08882E+02 1.75645E+02 1.73794E+02-2.35105E+00-2.06040E+01 2.11834E+00
 -1      1510 1.08502E+02 1.75619E+02 1.73656E+02 2.29494E+00 2.05891E+01 2.15160E+00
 -1      1511 1.08502E+02 1.75619E+02 1.73656E+02-2.29494E+00-2.05891E+01 2.15160E+00
 -1      1512 1.08119E+02 1.75565E+02 1.73402E+02 2.07661E+00 2.05011E+01 2.01814E+00
 -1      1513 1.08119E+02 1.75565E+02 1.73402E+02-2.07661E+00-2.05011E+01 2.01814E+00
 -1      1514 1.08895E+02 1.75464E+02 1.73250E+02 1.58601E+00 2.03122E+01 1.64295E+00
 -1      1515 1.08895E+02 1.75464E+02 1.73250E+02-1.58601E+00-2.03122E+01 1.64295E+00
 -1      1516 1.15757E+02 1.74869E+02 1.73527E+02 9.54654E-01 2.01453E+01 1.04447E+00
 -1      1517 1.15757E+02 1.74869E+02 1.73527E+02-9.54654E-01-2.01453E+01 1.04447E+00
 -1      1518 1.30833E+02 1.71000E+02 1.71873E+02 1.23183E+00 2.08783E+01 1.70419E+00
 -1      1519 1.30833E+02 1.71000E+02 1.71873E+02-1.23183E+00-2.08783E+01 1.70419E+00
 -1      1520 1.32379E+02 1.63131E+02 1.64555E+02 7.41073E+00 2.28792E+01 9.49567E+00
 -1      1521 1.32379E+02 1.63131E+02 1.64555E+02-7.41073E+00-2.28792E+01 9.49567E+00
 -1      1522 1.10963E+02 1.78272E+02 1.67184E+02 1.10939E+01 1.90541E+01 1.34907E+01
 -1      1523 1.10963E+02 1.78272E+02 1.67184E+02-1.10939E+01-1.90541E+01 1.34907E+01
 -1      1524 1.08902E+02 2.27771E+02 1.99450E+02-2.71568E+01 1.46079E+01-2.80876E+01
 -1      1525 1.08902E+02 2.27771E+02 1.99450E+02 2.71568E+01-1.46079E+01-2.80876E+01
 -1      1526 7.11156E+01 1.30904E+02 1.21273E+02-7.31517E+01 1.23450E+01-7.69694E+01
 -1      1527 7.11156E+01 1.30904E+02 1.21273E+02 7.31517E+01-1.23450E+01-7.69694E+01
 -1      1528 3.35633E+01 6.58038E+00 2.42965E+01-5.53071E+01 1.02979E+01-5.73463E+01
 -1      1529 3.35633E+01 6.58038E+00 2.42965E+01 5.53071E+01-1.02979E+01-5.73463E+01
 -1      1530 2.84074E+01 3.63611E-01 1.57906E+01-1.62322E+01 5.76619E+00-1.43639E+01
 -1      1531 2.84074E+01 3.63611E-01 1.57906E+01 1.62322E+01-5.76619E+00-1.43639E+01
 -1      1532 8.99813E+00 2.68319E+00 7.39993E+00-3.23858E+00 5.26573E-01-1.42170E-01
 -1      1533 8.99813E+00 2.68319E+00 7.39993E+00 3.23858E+00-5.26573E-01-1.42170E-01
 -1      1534-1.46553E+02-1.46554E+02-3.41955E+02 8.19225E-04-2.27658E+02-2.01993E+02
 -1      1535 6.90551E+01 8.76151E+01 6.88247E+00 6.42114E+01 6.68326E+00 1.34351E+01
 -1      1536-2.67039E+02-2.67040E+02-6.23089E+02 9.56026E-04-3.85168E+02-1.76406E+02
 -1      1537 1.17160E+02 1.99900E+02 3.73883E+01 6.24739E+01 1.76221E+01 9.11699E+00
 -1      1538-3.31475E+02-3.31475E+02-7.73437E+02 5.44797E-04-4.90195E+02-1.08020E+02
 -1      1539 1.22889E+02 2.38333E+02 4.49463E+01 2.81748E+01 2.07206E+01 1.34668E+00
 -1      1540-3.53697E+02-3.53698E+02-8.25289E+02 1.79405E-04-5.30142E+02-4.76676E+01
 -1      1541 1.27607E+02 2.44312E+02 4.75419E+01 8.94964E+00 2.54593E+01-1.23207E+00
 -1      1542-3.53594E+02-3.53595E+02-8.25050E+02 1.27454E-05-5.37070E+02-1.38577E+01
 -1      1543 1.28582E+02 2.43485E+02 5.11530E+01 3.89220E+00 2.63356E+01-4.91059E-01
 -1      1544-3.50061E+02-3.50062E+02-8.16806E+02-2.87312E-05-5.34899E+02 5.72746E-02
 -1      1545 1.19758E+02 2.42276E+02 5.31071E+01 3.57431E+00 2.62888E+01 5.86098E-01
 -1      1546-3.48516E+02-3.48516E+02-8.13200E+02-3.14091E-05-5.32820E+02 5.20504E+00
 -1      1547 1.08210E+02 2.41322E+02 5.32444E+01 4.13771E+00 2.60596E+01 1.31837E+00
 -1      1548-3.48576E+02-3.48576E+02-8.13340E+02-3.09331E-05-5.32201E+02 7.71218E+00
 -1      1549 9.95988E+01 2.40756E+02 5.27777E+01 4.59830E+00 2.59425E+01 1.78769E+00
 -1      1550-3.49086E+02-3.49087E+02-8.14531E+02-3.31666E-05-5.32344E+02 9.50584E+00
 -1      1551 9.47690E+01 2.40524E+02 5.24025E+01 4.86613E+00 2.59044E+01 2.09327E+00
 -1      1552-3.49531E+02-3.49532E+02-8.15569E+02-3.64584E-05-5.32655E+02 1.09636E+01
 -1      1553 9.25320E+01 2.40473E+02 5.22185E+01 4.99481E+00 2.58989E+01 2.29502E+00
 -1      1554-3.49839E+02-3.49840E+02-8.16288E+02-3.99643E-05-5.32891E+02 1.22716E+01
 -1      1555 9.16323E+01 2.40475E+02 5.21061E+01 5.02739E+00 2.59006E+01 2.43491E+00
 -1      1556-3.49993E+02-3.49994E+02-8.16648E+02-4.53453E-05-5.32863E+02 1.38435E+01
 -1      1557 9.10982E+01 2.40428E+02 5.19337E+01 4.95354E+00 2.58875E+01 2.54899E+00
 -1      1558-3.49614E+02-3.49614E+02-8.15762E+02-5.68144E-05-5.32042E+02 1.62969E+01
 -1      1559 9.04466E+01 2.40252E+02 5.17348E+01 4.67315E+00 2.58134E+01 2.65585E+00
 -1      1560-3.47575E+02-3.47576E+02-8.11006E+02-7.66550E-05-5.29389E+02 1.97200E+01
 -1      1561 9.12698E+01 2.39929E+02 5.20196E+01 3.91200E+00 2.55927E+01 2.71297E+00
 -1      1562-3.42679E+02-3.42680E+02-7.99582E+02-8.91938E-05-5.24347E+02 2.17344E+01
 -1      1563 9.92048E+01 2.39034E+02 5.34458E+01 2.55134E+00 2.53643E+01 2.48038E+00
 -1      1564-3.37958E+02-3.37959E+02-7.88567E+02-4.67291E-05-5.20145E+02 1.73522E+01
 -1      1565 1.17230E+02 2.35515E+02 5.42774E+01 2.08314E+00 2.52978E+01 1.97442E+00
 -1      1566-3.46085E+02-3.46085E+02-8.07528E+02 6.56994E-05-5.27561E+02 1.11352E+01
 -1      1567 1.18913E+02 2.25989E+02 4.74952E+01 1.16439E+01 2.96007E+01 4.68391E+00
 -1      1568-3.74308E+02-3.74308E+02-8.73379E+02-1.88302E-05-5.52952E+02 3.82792E+01
 -1      1569 7.69202E+01 2.36826E+02 3.58472E+01 2.38115E+01 2.30834E+01 1.25096E+01
 -1      1570-3.73107E+02-3.73106E+02-8.70576E+02-7.47423E-04-5.37666E+02 1.32044E+02
 -1      1571 6.47434E+01 3.15751E+02 6.32992E+01-3.49571E+01 2.06043E+01-1.86026E+00
 -1      1572-2.45357E+02-2.45358E+02-5.72498E+02-1.30317E-03-3.65595E+02 2.18563E+02
 -1      1573 4.91175E+01 1.80281E+02 3.64251E+01-1.11852E+02 1.54026E+01-2.51451E+01
 -1      1574-7.89775E+01-7.89791E+01-1.84283E+02-8.48431E-04-1.43707E+02 1.97163E+02
 -1      1575 4.51700E+01 5.76484E+00 2.88261E+00-8.01216E+01 1.16308E+01-1.36190E+01
 -1      1576-5.14129E+00-5.14258E+00-1.19991E+01-2.48632E-04-3.43127E+01 1.12463E+02
 -1      1577 4.89059E+01 7.38417E+00 1.75796E+01-1.89737E+01 7.30448E+00 3.05588E+00
 -1      1578 6.89030E+00 6.88970E+00 1.60760E+01-1.15976E-05-5.22491E+00 5.18249E+01
 -1      1579 1.54315E+01 4.45617E+00 8.10403E+00-3.76339E+00-7.82692E-01 2.85369E+00
 -1      1580-1.90457E+02-1.90457E+02-4.44398E+02 1.15535E-03-2.10886E+02-2.13242E+02
 -1      1581 9.09151E+01 1.15958E+02 8.29614E+00 1.01264E+02-9.72334E+01 1.58650E+01
 -1      1582-3.53303E+02-3.53303E+02-8.24369E+02 1.23168E-03-3.62976E+02-1.81321E+02
 -1      1583 1.44527E+02 2.78448E+02 8.59053E+01 9.76858E+01-2.34774E+02 9.16074E+00
 -1      1584-4.37901E+02-4.37901E+02-1.02176E+03 6.96515E-04-4.61792E+02-1.05964E+02
 -1      1585 1.37886E+02 3.26598E+02 8.18873E+01 4.37592E+01-2.57807E+02-3.27098E+00
 -1      1586-4.63563E+02-4.63563E+02-1.08164E+03 2.14278E-04-4.98535E+02-4.43559E+01
 -1      1587 1.56132E+02 3.43174E+02 8.65846E+01 1.80466E+01-2.51350E+02-2.07253E+00
 -1      1588-4.61646E+02-4.61646E+02-1.07717E+03 1.60220E-06-5.04158E+02-1.14562E+01
 -1      1589 1.66089E+02 3.45721E+02 8.92276E+01 1.22627E+01-2.43953E+02 2.11821E-01
 -1      1590-4.56373E+02-4.56373E+02-1.06487E+03-4.57240E-05-5.01617E+02 1.40322E+00
 -1      1591 1.60980E+02 3.44636E+02 9.13457E+01 1.23944E+01-2.40826E+02 1.66677E+00
 -1      1592-4.53962E+02-4.53962E+02-1.05924E+03-4.33396E-05-4.99378E+02 6.06389E+00
 -1      1593 1.50246E+02 3.43007E+02 9.14747E+01 1.32320E+01-2.40070E+02 2.37738E+00
 -1      1594-4.53677E+02-4.53677E+02-1.05858E+03-3.84198E-05-4.98616E+02 8.41715E+00
 -1      1595 1.41582E+02 3.42042E+02 9.10439E+01 1.37997E+01-2.40045E+02 2.76534E+00
 -1      1596-4.54057E+02-4.54057E+02-1.05946E+03-3.84043E-05-4.98632E+02 1.01589E+01
 -1      1597 1.36604E+02 3.41691E+02 9.06757E+01 1.41176E+01-2.40142E+02 3.01509E+00
 -1      1598-4.54453E+02-4.54454E+02-1.06039E+03-4.07481E-05-4.98853E+02 1.15766E+01
 -1      1599 1.34280E+02 3.41645E+02 9.04892E+01 1.42730E+01-2.40218E+02 3.18817E+00
 -1      1600-4.54757E+02-4.54758E+02-1.06110E+03-4.39590E-05-4.99042E+02 1.28325E+01
 -1      1601 1.33290E+02 3.41669E+02 9.03726E+01 1.43187E+01-2.40289E+02 3.32102E+00
 -1      1602-4.54934E+02-4.54934E+02-1.06151E+03-4.98664E-05-4.99018E+02 1.43319E+01
 -1      1603 1.32548E+02 3.41565E+02 9.01920E+01 1.42424E+01-2.40405E+02 3.45114E+00
 -1      1604-4.54543E+02-4.54543E+02-1.06060E+03-6.36141E-05-4.98298E+02 1.67232E+01
 -1      1605 1.31505E+02 3.41110E+02 9.00183E+01 1.38990E+01-2.40549E+02 3.61008E+00
 -1      1606-4.52230E+02-4.52230E+02-1.05520E+03-8.78718E-05-4.95907E+02 2.02558E+01
 -1      1607 1.31877E+02 3.40098E+02 9.01450E+01 1.27883E+01-2.40428E+02 3.74817E+00
 -1      1608-4.46291E+02-4.46292E+02-1.04134E+03-1.01208E-04-4.91245E+02 2.27120E+01
 -1      1609 1.40261E+02 3.38914E+02 9.19010E+01 1.03188E+01-2.38651E+02 3.50878E+00
 -1      1610-4.39652E+02-4.39653E+02-1.02585E+03-3.84461E-05-4.87224E+02 1.83352E+01
 -1      1611 1.61695E+02 3.36555E+02 9.07769E+01 8.53209E+00-2.32320E+02 2.17625E+00
 -1      1612-4.48339E+02-4.48339E+02-1.04612E+03 1.10443E-04-4.94169E+02 9.48427E+00
 -1      1613 1.72522E+02 3.32512E+02 9.00084E+01 2.12402E+01-2.19827E+02 9.22049E-01
 -1      1614-4.87137E+02-4.87136E+02-1.13665E+03-1.92990E-05-5.19207E+02 3.25242E+01
 -1      1615 8.20726E+01 3.18396E+02 4.01883E+01 5.37685E+01-2.20178E+02 2.49021E+01
 -1      1616-4.95589E+02-4.95588E+02-1.15637E+03-9.54212E-04-5.08453E+02 1.32314E+02
 -1      1617 6.79432E+01 4.42359E+02 1.56542E+02-3.51300E+01-3.87336E+02 8.18320E+00
 -1      1618-3.22445E+02-3.22445E+02-7.52369E+02-1.69815E-03-3.44499E+02 2.28547E+02
 -1      1619 5.78973E+01 2.56328E+02 6.47192E+01-1.75285E+02-1.82642E+02-3.73160E+01
 -1      1620-9.51466E+01-9.51480E+01-2.22011E+02-1.20379E-03-1.31872E+02 2.02061E+02
 -1      1621 7.82669E+01 1.48239E+01-3.20253E+01-1.18348E+02 5.67429E+01-8.90664E+00
 -1      1622-3.98051E+00-3.98168E+00-9.29076E+00-4.24152E-04-3.03298E+01 1.09243E+02
 -1      1623 9.50420E+01 3.16770E+01 3.56163E+01-1.81460E+01 4.54585E+00 1.39061E+01
 -1      1624 7.71123E+00 7.71072E+00 1.79915E+01-5.44368E-05-4.17418E+00 4.82000E+01
 -1      1625 2.27134E+01 5.75194E+00 5.50954E+00-4.67830E+00 4.28305E-01 2.73272E+00
 -1      1626-2.53703E+02-2.53704E+02-5.91970E+02 1.21576E-03-1.82220E+02-2.40889E+02
 -1      1627-1.79787E+02-2.39053E+02-6.00224E+02 1.13026E+02-1.91846E+02-5.72726E+01
 -1      1628-4.75923E+02-4.75924E+02-1.11048E+03 1.26806E-03-3.18459E+02-2.00577E+02
 -1      1629-5.67578E+02-5.74527E+02-1.39873E+03 1.10325E+02-4.85347E+02-3.80167E+01
 -1      1630-5.90312E+02-5.90312E+02-1.37739E+03 7.10162E-04-4.04910E+02-1.11646E+02
 -1      1631-6.53830E+02-6.15611E+02-1.53567E+03 4.97638E+01-5.41457E+02-7.34894E+00
 -1      1632-6.22568E+02-6.22569E+02-1.45265E+03 2.13025E-04-4.36645E+02-4.28205E+01
 -1      1633-6.21267E+02-5.90554E+02-1.53172E+03 2.32943E+01-5.35711E+02 9.20186E+00
 -1      1634-6.19132E+02-6.19133E+02-1.44463E+03-5.51864E-06-4.41200E+02-8.79490E+00
 -1      1635-5.84391E+02-5.61963E+02-1.49179E+03 1.83230E+01-5.23561E+02 1.38193E+01
 -1      1636-6.11875E+02-6.11877E+02-1.42770E+03-5.15786E-05-4.38748E+02 3.29410E+00
 -1      1637-5.77614E+02-5.51528E+02-1.47202E+03 1.90180E+01-5.17504E+02 1.39223E+01
 -1      1638-6.08462E+02-6.08463E+02-1.41974E+03-4.68225E-05-4.36655E+02 7.28712E+00
 -1      1639-5.84742E+02-5.49935E+02-1.46580E+03 1.99823E+01-5.15711E+02 1.35901E+01
 -1      1640-6.07817E+02-6.07819E+02-1.41823E+03-4.00792E-05-4.35898E+02 9.34987E+00
 -1      1641-5.92953E+02-5.50639E+02-1.46517E+03 2.05142E+01-5.15459E+02 1.35352E+01
 -1      1642-6.08098E+02-6.08100E+02-1.41889E+03-3.89136E-05-4.35850E+02 1.09915E+01
 -1      1643-5.98163E+02-5.51251E+02-1.46574E+03 2.07872E+01-5.15579E+02 1.36584E+01
 -1      1644-6.08481E+02-6.08483E+02-1.41978E+03-4.05583E-05-4.36007E+02 1.23654E+01
 -1      1645-6.00751E+02-5.51523E+02-1.46629E+03 2.09210E+01-5.15718E+02 1.38018E+01
 -1      1646-6.08805E+02-6.08807E+02-1.42054E+03-4.33326E-05-4.36155E+02 1.35829E+01
 -1      1647-6.02022E+02-5.51729E+02-1.46681E+03 2.09692E+01-5.15858E+02 1.39244E+01
 -1      1648-6.09007E+02-6.09009E+02-1.42101E+03-4.89731E-05-4.36134E+02 1.50561E+01
 -1      1649-6.03203E+02-5.52217E+02-1.46753E+03 2.09182E+01-5.16054E+02 1.40809E+01
 -1      1650-6.08550E+02-6.08552E+02-1.41994E+03-6.26283E-05-4.35529E+02 1.75189E+01
 -1      1651-6.04799E+02-5.53142E+02-1.46805E+03 2.05977E+01-5.16193E+02 1.44707E+01
 -1      1652-6.05760E+02-6.05762E+02-1.41344E+03-8.70470E-05-4.33491E+02 2.14224E+01
 -1      1653-6.03864E+02-5.53150E+02-1.46549E+03 1.93779E+01-5.15578E+02 1.53823E+01
 -1      1654-5.98273E+02-5.98275E+02-1.39597E+03-9.97866E-05-4.29461E+02 2.45313E+01
 -1      1655-5.90228E+02-5.47362E+02-1.45322E+03 1.63396E+01-5.11811E+02 1.69353E+01
 -1      1656-5.89002E+02-5.89004E+02-1.37433E+03-3.24124E-05-4.25936E+02 1.94588E+01
 -1      1657-5.46276E+02-5.24128E+02-1.41436E+03 1.38088E+01-4.99688E+02 1.64907E+01
 -1      1658-5.98559E+02-5.98561E+02-1.39663E+03 1.22716E-04-4.31911E+02 5.56331E+00
 -1      1659-5.05260E+02-5.00983E+02-1.38306E+03 2.68601E+01-4.82436E+02 7.16588E+00
 -1      1660-6.51598E+02-6.51599E+02-1.52039E+03-1.05454E-05-4.54429E+02 2.52795E+01
 -1      1661-6.04226E+02-5.16586E+02-1.36179E+03 7.31215E+01-4.73056E+02 3.32078E+00
 -1      1662-6.71586E+02-6.71587E+02-1.56702E+03-9.78023E-04-4.47650E+02 1.42811E+02
 -1      1663-1.12963E+03-9.18318E+02-2.21093E+03-2.19017E+01-8.11210E+02 5.23124E+01
 -1      1664-4.34936E+02-4.34938E+02-1.01485E+03-1.75035E-03-3.02737E+02 2.61082E+02
 -1      1665-5.12946E+02-4.02320E+02-1.06372E+03-1.95435E+02-4.11303E+02 8.81800E+01
 -1      1666-1.22086E+02-1.22088E+02-2.84869E+02-1.25114E-03-1.13629E+02 2.25783E+02
 -1      1667 2.46512E+02 1.57521E+02 2.19070E+02-1.29048E+02 1.02056E+02 5.63304E+01
 -1      1668-4.45981E+00-4.46121E+00-1.04094E+01-4.63035E-04-2.56734E+01 1.12974E+02
 -1      1669 1.21385E+02 3.87150E+01-3.28674E+00-1.12819E+01-4.20915E+00 1.70417E+01
 -1      1670 8.47219E+00 8.47166E+00 1.97670E+01-7.37992E-05-3.28229E+00 4.55966E+01
 -1      1671 3.33950E+01 1.39339E+01 1.78628E+01-3.97137E+00 2.41436E+00 1.95290E+00
 -1      1672-3.14603E+02-3.14605E+02-7.34069E+02 1.00216E-03-1.35163E+02-2.71036E+02
 -1      1673-4.32402E+02-5.93337E+02-1.14843E+03 8.63053E+01-8.68876E+01-1.30013E+02
 -1      1674-5.94592E+02-5.94594E+02-1.38737E+03 1.04192E-03-2.38847E+02-2.22580E+02
 -1      1675-1.28410E+03-1.47552E+03-2.85509E+03 8.53015E+01-2.52747E+02-8.96412E+01
 -1      1676-7.38248E+02-7.38250E+02-1.72257E+03 5.80190E-04-3.03641E+02-1.19543E+02
 -1      1677-1.47664E+03-1.64853E+03-3.17549E+03 3.68497E+01-2.93453E+02-1.40960E+01
 -1      1678-7.77290E+02-7.77293E+02-1.81367E+03 1.70705E-04-3.27199E+02-4.23430E+01
 -1      1679-1.42986E+03-1.61786E+03-3.16853E+03 1.55560E+01-2.90691E+02 2.02155E+01
 -1      1680-7.72610E+02-7.72614E+02-1.80275E+03-8.19244E-06-3.30466E+02-6.43021E+00
 -1      1681-1.37051E+03-1.56643E+03-3.09862E+03 1.20576E+01-2.84657E+02 2.71823E+01
 -1      1682-7.63550E+02-7.63554E+02-1.78161E+03-4.47800E-05-3.28544E+02 5.13472E+00
 -1      1683-1.35258E+03-1.54380E+03-3.06143E+03 1.28012E+01-2.81531E+02 2.62041E+01
 -1      1684-7.59226E+02-7.59229E+02-1.77152E+03-3.98226E-05-3.26923E+02 8.50300E+00
 -1      1685-1.35629E+03-1.53853E+03-3.04925E+03 1.35841E+01-2.80580E+02 2.48642E+01
 -1      1686-7.58270E+02-7.58274E+02-1.76929E+03-3.36033E-05-3.26318E+02 1.02654E+01
 -1      1687-1.36390E+03-1.53867E+03-3.04732E+03 1.39723E+01-2.80446E+02 2.43714E+01
 -1      1688-7.58480E+02-7.58484E+02-1.76978E+03-3.21906E-05-3.26256E+02 1.18029E+01
 -1      1689-1.36925E+03-1.53944E+03-3.04797E+03 1.41605E+01-2.80512E+02 2.43646E+01
 -1      1690-7.58867E+02-7.58871E+02-1.77068E+03-3.32368E-05-3.26357E+02 1.31381E+01
 -1      1691-1.37205E+03-1.53991E+03-3.04881E+03 1.42537E+01-2.80591E+02 2.44781E+01
 -1      1692-7.59217E+02-7.59221E+02-1.77150E+03-3.52997E-05-3.26461E+02 1.43293E+01
 -1      1693-1.37356E+03-1.54033E+03-3.04969E+03 1.42905E+01-2.80670E+02 2.45934E+01
 -1      1694-7.59443E+02-7.59447E+02-1.77203E+03-3.97425E-05-3.26445E+02 1.58007E+01
 -1      1695-1.37510E+03-1.54116E+03-3.05084E+03 1.42602E+01-2.80772E+02 2.47857E+01
 -1      1696-7.58912E+02-7.58916E+02-1.77079E+03-5.07443E-05-3.26002E+02 1.83782E+01
 -1      1697-1.37708E+03-1.54235E+03-3.05149E+03 1.40216E+01-2.80828E+02 2.54190E+01
 -1      1698-7.55639E+02-7.55643E+02-1.76315E+03-7.06152E-05-3.24500E+02 2.26992E+01
 -1      1699-1.37539E+03-1.54086E+03-3.04626E+03 1.30417E+01-2.80470E+02 2.71023E+01
 -1      1700-7.46631E+02-7.46635E+02-1.74213E+03-8.08486E-05-3.21511E+02 2.64350E+01
 -1      1701-1.35646E+03-1.52725E+03-3.02319E+03 1.06082E+01-2.78367E+02 3.02725E+01
 -1      1702-7.34805E+02-7.34809E+02-1.71454E+03-2.46710E-05-3.18872E+02 2.04360E+01
 -1      1703-1.29179E+03-1.47928E+03-2.94842E+03 8.35650E+00-2.72619E+02 3.05560E+01
 -1      1704-7.45245E+02-7.45249E+02-1.73890E+03 1.05226E-04-3.23264E+02 1.37906E+00
 -1      1705-1.22056E+03-1.43057E+03-2.88741E+03 2.06162E+01-2.60900E+02 1.22690E+01
 -1      1706-8.12224E+02-8.12227E+02-1.89518E+03 2.59610E-07-3.40496E+02 1.87756E+01
 -1      1707-1.33303E+03-1.46485E+03-2.80867E+03 5.75746E+01-2.70697E+02-2.30669E+01
 -1      1708-8.43461E+02-8.43463E+02-1.96806E+03-8.02635E-04-3.36930E+02 1.55769E+02
 -1      1709-2.39738E+03-2.42967E+03-4.68046E+03-1.70993E+01-4.50159E+02 9.07636E+01
 -1      1710-5.45414E+02-5.45417E+02-1.27263E+03-1.44019E-03-2.27685E+02 2.97342E+02
 -1      1711-1.19012E+03-1.22657E+03-2.38153E+03-1.55027E+02-2.68449E+02 2.22553E+02
 -1      1712-1.48958E+02-1.48961E+02-3.47572E+02-1.02032E-03-8.42403E+01 2.53337E+02
 -1      1713 4.25321E+02 3.04113E+02 5.11939E+02-1.04528E+02 6.03427E+01 1.30791E+02
 -1      1714-5.18788E+00-5.18957E+00-1.21086E+01-3.82968E-04-1.88169E+01 1.19113E+02
 -1      1715 1.40493E+02 4.27245E+01-5.03681E+01-7.64213E+00 1.75539E+00 1.92568E+01
 -1      1716 9.20398E+00 9.20340E+00 2.14744E+01-6.64518E-05-2.30333E+00 4.39128E+01
 -1      1717 4.23174E+01 2.31434E+01 3.23682E+01-2.06644E+00 7.40397E-01 9.19564E-01
 -1      1718-3.57125E+02-3.57127E+02-8.33286E+02 5.64323E-04-7.21288E+01-2.93390E+02
 -1      1719-3.91268E+02-5.88159E+02-1.05142E+03 4.11247E+01 9.14382E+00-1.26320E+02
 -1      1720-6.78029E+02-6.78032E+02-1.58206E+03 5.87688E-04-1.28292E+02-2.39129E+02
 -1      1721-1.28157E+03-1.52936E+03-2.77076E+03 4.14283E+01-1.03247E+01-9.28240E+01
 -1      1722-8.42479E+02-8.42483E+02-1.96577E+03 3.26300E-04-1.63114E+02-1.25823E+02
 -1      1723-1.50023E+03-1.74292E+03-3.11363E+03 1.70039E+01-2.06604E+01-1.94195E+01
 -1      1724-8.86377E+02-8.86382E+02-2.06820E+03 9.47896E-05-1.75699E+02-4.23129E+01
 -1      1725-1.44899E+03-1.71585E+03-3.11460E+03 5.55228E+00-2.07108E+01 1.92482E+01
 -1      1726-8.80855E+02-8.80861E+02-2.05532E+03-5.84455E-06-1.77414E+02-4.81902E+00
 -1      1727-1.38453E+03-1.66068E+03-3.04608E+03 3.78864E+00-2.00160E+01 2.77996E+01
 -1      1728-8.70548E+02-8.70554E+02-2.03127E+03-2.60561E-05-1.76361E+02 6.45004E+00
 -1      1729-1.36536E+03-1.63667E+03-3.01033E+03 4.19385E+00-1.98722E+01 2.70698E+01
 -1      1730-8.65596E+02-8.65602E+02-2.01971E+03-2.29440E-05-1.75477E+02 9.38332E+00
 -1      1731-1.36865E+03-1.63095E+03-2.99818E+03 4.58739E+00-1.98410E+01 2.57342E+01
 -1      1732-8.64432E+02-8.64437E+02-2.01700E+03-1.92423E-05-1.75142E+02 1.09285E+01
 -1      1733-1.37623E+03-1.63110E+03-2.99619E+03 4.77622E+00-1.98594E+01 2.51882E+01
 -1      1734-8.64598E+02-8.64604E+02-2.01738E+03-1.83219E-05-1.75101E+02 1.23898E+01
 -1      1735-1.38160E+03-1.63189E+03-2.99675E+03 4.86690E+00-1.98803E+01 2.51528E+01
 -1      1736-8.64990E+02-8.64996E+02-2.01830E+03-1.88284E-05-1.75151E+02 1.36987E+01
 -1      1737-1.38442E+03-1.63236E+03-2.99755E+03 4.91328E+00-1.98955E+01 2.52543E+01
 -1      1738-8.65360E+02-8.65366E+02-2.01916E+03-1.99311E-05-1.75205E+02 1.48747E+01
 -1      1739-1.38596E+03-1.63278E+03-2.99839E+03 4.93179E+00-1.99076E+01 2.53694E+01
 -1      1740-8.65604E+02-8.65609E+02-2.01973E+03-2.23806E-05-1.75196E+02 1.63520E+01
 -1      1741-1.38757E+03-1.63364E+03-2.99949E+03 4.91817E+00-1.99181E+01 2.55775E+01
 -1      1742-8.65019E+02-8.65024E+02-2.01837E+03-2.85231E-05-1.74961E+02 1.90240E+01
 -1      1743-1.38968E+03-1.63487E+03-3.00002E+03 4.79710E+00-1.99344E+01 2.62594E+01
 -1      1744-8.61402E+02-8.61408E+02-2.00993E+03-3.96829E-05-1.74162E+02 2.36573E+01
 -1      1745-1.38823E+03-1.63318E+03-2.99481E+03 4.29220E+00-1.98981E+01 2.79991E+01
 -1      1746-8.51319E+02-8.51324E+02-1.98640E+03-4.54392E-05-1.72567E+02 2.78291E+01
 -1      1747-1.36923E+03-1.61817E+03-2.97172E+03 3.08136E+00-1.97936E+01 3.11358E+01
 -1      1748-8.37684E+02-8.37689E+02-1.95458E+03-1.35741E-05-1.71151E+02 2.10911E+01
 -1      1749-1.30272E+03-1.56770E+03-2.90149E+03 1.82576E+00-1.95531E+01 3.07514E+01
 -1      1750-8.48757E+02-8.48763E+02-1.98042E+03 6.08628E-05-1.73480E+02-1.67991E+00
 -1      1751-1.21864E+03-1.51215E+03-2.83143E+03 9.83623E+00-1.58165E+01 6.59874E+00
 -1      1752-9.25769E+02-9.25774E+02-2.16011E+03 3.92033E-06-1.82868E+02 1.43433E+01
 -1      1753-1.38911E+03-1.61115E+03-2.82227E+03 2.62763E+01-3.19318E+01-1.70032E+01
 -1      1754-9.65277E+02-9.65281E+02-2.25230E+03-4.52654E-04-1.81458E+02 1.65711E+02
 -1      1755-2.46472E+03-2.56687E+03-4.61845E+03-1.17162E+01-4.29326E+01 9.22918E+01
 -1      1756-6.23980E+02-6.23983E+02-1.45595E+03-8.13408E-04-1.22603E+02 3.24329E+02
 -1      1757-1.30975E+03-1.41230E+03-2.53082E+03-7.79234E+01-5.62367E+01 2.16266E+02
 -1      1758-1.67961E+02-1.67964E+02-3.91911E+02-5.70761E-04-4.49695E+01 2.74167E+02
 -1      1759 4.57140E+02 3.00538E+02 5.20423E+02-5.50925E+01 9.37746E+00 1.43027E+02
 -1      1760-5.63114E+00-5.63305E+00-1.31432E+01-2.14828E-04-9.97405E+00 1.24223E+02
 -1      1761 1.73365E+02 6.74731E+01-3.60419E+01-4.99199E+00 6.16512E+00 2.74843E+01
 -1      1762 9.75312E+00 9.75250E+00 2.27557E+01-3.86520E-05-1.19465E+00 4.29863E+01
 -1      1763 4.32269E+01 2.49153E+01 3.08372E+01-4.59876E-01-6.75971E-01-4.27061E-01
 -1      1764-3.72303E+02-3.72306E+02-8.68702E+02 4.68237E-14-2.82640E-10-3.01560E+02
 -1      1765-3.75281E+02-5.71829E+02-1.02634E+03-1.03570E-10 4.62013E-11-1.24270E+02
 -1      1766-7.07922E+02-7.07926E+02-1.65181E+03 2.69784E-14-4.13753E-10-2.45207E+02
 -1      1767-1.27863E+03-1.51830E+03-2.76610E+03-1.10445E-10 1.25485E-10-9.31580E+01
 -1      1768-8.79869E+02-8.79873E+02-2.05301E+03 1.57721E-14-5.07406E-10-1.28175E+02
 -1      1769-1.50589E+03-1.74257E+03-3.11788E+03-7.68032E-11 1.52049E-10-2.09157E+01
 -1      1770-9.25523E+02-9.25528E+02-2.15954E+03 1.29387E-14-5.53439E-10-4.23465E+01
 -1      1771-1.45382E+03-1.71782E+03-3.12195E+03-3.89275E-11 1.49242E-10 1.88230E+01
 -1      1772-9.19705E+02-9.19711E+02-2.14596E+03 1.40019E-15-5.70058E-10-4.24940E+00
 -1      1773-1.38759E+03-1.66195E+03-3.05331E+03-1.60261E-11 1.50500E-10 2.79433E+01
 -1      1774-9.08953E+02-9.08959E+02-2.12088E+03 1.44849E-16-5.74731E-10 6.92511E+00
 -1      1775-1.36791E+03-1.63772E+03-3.01751E+03-5.89695E-12 1.46670E-10 2.73098E+01
 -1      1776-9.03779E+02-9.03785E+02-2.10880E+03-8.15754E-16-5.75672E-10 9.70340E+00
 -1      1777-1.37111E+03-1.63200E+03-3.00536E+03-2.71605E-12 1.47068E-10 2.59799E+01
 -1      1778-9.02540E+02-9.02546E+02-2.10591E+03-1.99060E-15-5.75799E-10 1.11699E+01
 -1      1779-1.37867E+03-1.63216E+03-3.00331E+03-2.19114E-12 1.44226E-10 2.54264E+01
 -1      1780-9.02692E+02-9.02698E+02-2.10627E+03-4.64039E-16-5.75860E-10 1.26036E+01
 -1      1781-1.38404E+03-1.63297E+03-3.00386E+03-2.17248E-12 1.44787E-10 2.53821E+01
 -1      1782-9.03086E+02-9.03092E+02-2.10719E+03-2.26165E-15-5.75896E-10 1.39032E+01
 -1      1783-1.38688E+03-1.63343E+03-3.00465E+03-2.11375E-12 1.45562E-10 2.54805E+01
 -1      1784-9.03464E+02-9.03470E+02-2.10807E+03-7.93202E-16-5.76546E-10 1.50742E+01
 -1      1785-1.38843E+03-1.63385E+03-3.00548E+03-2.43883E-12 1.43324E-10 2.55954E+01
 -1      1786-9.03713E+02-9.03719E+02-2.10865E+03-3.77953E-15-5.76077E-10 1.65546E+01
 -1      1787-1.39005E+03-1.63471E+03-3.00657E+03-2.50755E-12 1.40318E-10 2.58087E+01
 -1      1788-9.03109E+02-9.03115E+02-2.10724E+03 9.86190E-16-5.75463E-10 1.92625E+01
 -1      1789-1.39223E+03-1.63596E+03-3.00710E+03-2.64411E-12 1.46414E-10 2.65045E+01
 -1      1790-8.99369E+02-8.99375E+02-2.09851E+03-2.66627E-15-5.73491E-10 2.40102E+01
 -1      1791-1.39078E+03-1.63416E+03-3.00171E+03-1.52278E-12 1.41512E-10 2.82369E+01
 -1      1792-8.88899E+02-8.88905E+02-2.07409E+03-4.96912E-15-5.68020E-10 2.83365E+01
 -1      1793-1.37209E+03-1.61921E+03-2.97905E+03-1.24895E-12 1.46272E-10 3.14180E+01
 -1      1794-8.74614E+02-8.74620E+02-2.04076E+03-7.61544E-16-5.63763E-10 2.13207E+01
 -1      1795-1.30368E+03-1.56736E+03-2.90747E+03-2.49850E-12 1.44198E-10 3.05208E+01
 -1      1796-8.85920E+02-8.85926E+02-2.06713E+03-1.04083E-15-5.62810E-10-2.79075E+00
 -1      1797-1.21842E+03-1.51355E+03-2.83913E+03 1.50835E-12 1.36964E-10 5.23804E+00
 -1      1798-9.66575E+02-9.66580E+02-2.25532E+03-1.19418E-14-5.62925E-10 1.27772E+01
 -1      1799-1.40284E+03-1.62946E+03-2.83996E+03 2.16969E-11 1.42542E-10-1.56810E+01
 -1      1800-1.00912E+03-1.00912E+03-2.35459E+03-4.14946E-15-5.21035E-10 1.69382E+02
 -1      1801-2.49267E+03-2.57809E+03-4.65384E+03 8.99971E-11 2.16758E-10 9.28269E+01
 -1      1802-6.52316E+02-6.52320E+02-1.52206E+03-4.42979E-14-3.71207E-10 3.34197E+02
 -1      1803-1.34010E+03-1.44670E+03-2.57628E+03 1.64976E-10 1.12976E-10 2.13683E+02
 -1      1804-1.74795E+02-1.74798E+02-4.07857E+02-4.06619E-14-1.90216E-10 2.81833E+02
 -1      1805 4.65291E+02 2.92749E+02 5.24089E+02 1.46951E-10-1.42877E-11 1.45012E+02
 -1      1806-5.77600E+00-5.77798E+00-1.34813E+01-1.67193E-14-8.10643E-11 1.26168E+02
 -1      1807 1.84260E+02 7.60873E+01-3.25146E+01 7.84363E-11-5.87241E-12 3.01910E+01
 -1      1808 9.95587E+00 9.95523E+00 2.32287E+01-4.49510E-15-3.35099E-11 4.26927E+01
 -1      1809 4.39604E+01 2.59911E+01 3.10533E+01 2.93998E-11-2.56598E-12-6.93108E-01
 -1      1810-3.57125E+02-3.57127E+02-8.33286E+02-5.64323E-04 7.21288E+01-2.93390E+02
 -1      1811-3.91268E+02-5.88159E+02-1.05142E+03-4.11247E+01-9.14382E+00-1.26320E+02
 -1      1812-6.78029E+02-6.78032E+02-1.58206E+03-5.87688E-04 1.28292E+02-2.39129E+02
 -1      1813-1.28157E+03-1.52936E+03-2.77076E+03-4.14283E+01 1.03247E+01-9.28240E+01
 -1      1814-8.42479E+02-8.42483E+02-1.96577E+03-3.26300E-04 1.63114E+02-1.25823E+02
 -1      1815-1.50023E+03-1.74292E+03-3.11363E+03-1.70039E+01 2.06604E+01-1.94195E+01
 -1      1816-8.86377E+02-8.86382E+02-2.06820E+03-9.47896E-05 1.75699E+02-4.23129E+01
 -1      1817-1.44899E+03-1.71585E+03-3.11460E+03-5.55228E+00 2.07108E+01 1.92482E+01
 -1      1818-8.80855E+02-8.80861E+02-2.05532E+03 5.84455E-06 1.77414E+02-4.81902E+00
 -1      1819-1.38453E+03-1.66068E+03-3.04608E+03-3.78864E+00 2.00160E+01 2.77996E+01
 -1      1820-8.70548E+02-8.70554E+02-2.03127E+03 2.60561E-05 1.76361E+02 6.45004E+00
 -1      1821-1.36536E+03-1.63667E+03-3.01033E+03-4.19385E+00 1.98722E+01 2.70698E+01
 -1      1822-8.65596E+02-8.65602E+02-2.01971E+03 2.29440E-05 1.75477E+02 9.38332E+00
 -1      1823-1.36865E+03-1.63095E+03-2.99818E+03-4.58739E+00 1.98410E+01 2.57342E+01
 -1      1824-8.64432E+02-8.64437E+02-2.01700E+03 1.92423E-05 1.75142E+02 1.09285E+01
 -1      1825-1.37623E+03-1.63110E+03-2.99619E+03-4.77622E+00 1.98594E+01 2.51882E+01
 -1      1826-8.64598E+02-8.64604E+02-2.01738E+03 1.83219E-05 1.75101E+02 1.23898E+01
 -1      1827-1.38160E+03-1.63189E+03-2.99675E+03-4.86690E+00 1.98803E+01 2.51528E+01
 -1      1828-8.64990E+02-8.64996E+02-2.01830E+03 1.88284E-05 1.75151E+02 1.36987E+01
 -1      1829-1.38442E+03-1.63236E+03-2.99755E+03-4.91328E+00 1.98955E+01 2.52543E+01
 -1      1830-8.65360E+02-8.65366E+02-2.01916E+03 1.99311E-05 1.75205E+02 1.48747E+01
 -1      1831-1.38596E+03-1.63278E+03-2.99839E+03-4.93179E+00 1.99076E+01 2.53694E+01
 -1      1832-8.65604E+02-8.65609E+02-2.01973E+03 2.23806E-05 1.75196E+02 1.63520E+01
 -1      1833-1.38757E+03-1.63364E+03-2.99949E+03-4.91817E+00 1.99181E+01 2.55775E+01
 -1      1834-8.65019E+02-8.65024E+02-2.01837E+03 2.85231E-05 1.74961E+02 1.90240E+01
 -1      1835-1.38968E+03-1.63487E+03-3.00002E+03-4.79710E+00 1.99344E+01 2.62594E+01
 -1      1836-8.61402E+02-8.61408E+02-2.00993E+03 3.96829E-05 1.74162E+02 2.36573E+01
 -1      1837-1.38823E+03-1.63318E+03-2.99481E+03-4.29220E+00 1.98981E+01 2.79991E+01
 -1      1838-8.51319E+02-8.51324E+02-1.98640E+03 4.54392E-05 1.72567E+02 2.78291E+01
 -1      1839-1.36923E+03-1.61817E+03-2.97172E+03-3.08136E+00 1.97936E+01 3.11358E+01
 -1      1840-8.37684E+02-8.37689E+02-1.95458E+03 1.35741E-05 1.71151E+02 2.10911E+01
 -1      1841-1.30272E+03-1.56770E+03-2.90149E+03-1.82576E+00 1.95531E+01 3.07514E+01
 -1      1842-8.48757E+02-8.48763E+02-1.98042E+03-6.08628E-05 1.73480E+02-1.67991E+00
 -1      1843-1.21864E+03-1.51215E+03-2.83143E+03-9.83623E+00 1.58165E+01 6.59874E+00
 -1      1844-9.25769E+02-9.25774E+02-2.16011E+03-3.92033E-06 1.82868E+02 1.43433E+01
 -1      1845-1.38911E+03-1.61115E+03-2.82227E+03-2.62763E+01 3.19318E+01-1.70032E+01
 -1      1846-9.65277E+02-9.65281E+02-2.25230E+03 4.52654E-04 1.81458E+02 1.65711E+02
 -1      1847-2.46472E+03-2.56687E+03-4.61845E+03 1.17162E+01 4.29326E+01 9.22918E+01
 -1      1848-6.23980E+02-6.23983E+02-1.45595E+03 8.13408E-04 1.22603E+02 3.24329E+02
 -1      1849-1.30975E+03-1.41230E+03-2.53082E+03 7.79234E+01 5.62367E+01 2.16266E+02
 -1      1850-1.67961E+02-1.67964E+02-3.91911E+02 5.70761E-04 4.49695E+01 2.74167E+02
 -1      1851 4.57140E+02 3.00538E+02 5.20423E+02 5.50925E+01-9.37746E+00 1.43027E+02
 -1      1852-5.63114E+00-5.63305E+00-1.31432E+01 2.14828E-04 9.97405E+00 1.24223E+02
 -1      1853 1.73365E+02 6.74731E+01-3.60419E+01 4.99199E+00-6.16512E+00 2.74843E+01
 -1      1854 9.75312E+00 9.75250E+00 2.27557E+01 3.86520E-05 1.19465E+00 4.29863E+01
 -1      1855 4.32269E+01 2.49153E+01 3.08372E+01 4.59876E-01 6.75971E-01-4.27061E-01
 -1      1856-3.14603E+02-3.14605E+02-7.34069E+02-1.00216E-03 1.35163E+02-2.71036E+02
 -1      1857-4.32402E+02-5.93337E+02-1.14843E+03-8.63053E+01 8.68876E+01-1.30013E+02
 -1      1858-5.94592E+02-5.94594E+02-1.38737E+03-1.04192E-03 2.38847E+02-2.22580E+02
 -1      1859-1.28410E+03-1.47552E+03-2.85509E+03-8.53015E+01 2.52747E+02-8.96412E+01
 -1      1860-7.38248E+02-7.38250E+02-1.72257E+03-5.80190E-04 3.03641E+02-1.19543E+02
 -1      1861-1.47664E+03-1.64853E+03-3.17549E+03-3.68497E+01 2.93453E+02-1.40960E+01
 -1      1862-7.77290E+02-7.77293E+02-1.81367E+03-1.70705E-04 3.27199E+02-4.23430E+01
 -1      1863-1.42986E+03-1.61786E+03-3.16853E+03-1.55560E+01 2.90691E+02 2.02155E+01
 -1      1864-7.72610E+02-7.72614E+02-1.80275E+03 8.19244E-06 3.30466E+02-6.43021E+00
 -1      1865-1.37051E+03-1.56643E+03-3.09862E+03-1.20576E+01 2.84657E+02 2.71823E+01
 -1      1866-7.63550E+02-7.63554E+02-1.78161E+03 4.47800E-05 3.28544E+02 5.13472E+00
 -1      1867-1.35258E+03-1.54380E+03-3.06143E+03-1.28012E+01 2.81531E+02 2.62041E+01
 -1      1868-7.59226E+02-7.59229E+02-1.77152E+03 3.98226E-05 3.26923E+02 8.50300E+00
 -1      1869-1.35629E+03-1.53853E+03-3.04925E+03-1.35841E+01 2.80580E+02 2.48642E+01
 -1      1870-7.58270E+02-7.58274E+02-1.76929E+03 3.36033E-05 3.26318E+02 1.02654E+01
 -1      1871-1.36390E+03-1.53867E+03-3.04732E+03-1.39723E+01 2.80446E+02 2.43714E+01
 -1      1872-7.58480E+02-7.58484E+02-1.76978E+03 3.21906E-05 3.26256E+02 1.18029E+01
 -1      1873-1.36925E+03-1.53944E+03-3.04797E+03-1.41605E+01 2.80512E+02 2.43646E+01
 -1      1874-7.58867E+02-7.58871E+02-1.77068E+03 3.32368E-05 3.26357E+02 1.31381E+01
 -1      1875-1.37205E+03-1.53991E+03-3.04881E+03-1.42537E+01 2.80591E+02 2.44781E+01
 -1      1876-7.59217E+02-7.59221E+02-1.77150E+03 3.52997E-05 3.26461E+02 1.43293E+01
 -1      1877-1.37356E+03-1.54033E+03-3.04969E+03-1.42905E+01 2.80670E+02 2.45934E+01
 -1      1878-7.59443E+02-7.59447E+02-1.77203E+03 3.97425E-05 3.26445E+02 1.58007E+01
 -1      1879-1.37510E+03-1.54116E+03-3.05084E+03-1.42602E+01 2.80772E+02 2.47857E+01
 -1      1880-7.58912E+02-7.58916E+02-1.77079E+03 5.07443E-05 3.26002E+02 1.83782E+01
 -1      1881-1.37708E+03-1.54235E+03-3.05149E+03-1.40216E+01 2.80828E+02 2.54190E+01
 -1      1882-7.55639E+02-7.55643E+02-1.76315E+03 7.06152E-05 3.24500E+02 2.26992E+01
 -1      1883-1.37539E+03-1.54086E+03-3.04626E+03-1.30417E+01 2.80470E+02 2.71023E+01
 -1      1884-7.46631E+02-7.46635E+02-1.74213E+03 8.08486E-05 3.21511E+02 2.64350E+01
 -1      1885-1.35646E+03-1.52725E+03-3.02319E+03-1.06082E+01 2.78367E+02 3.02725E+01
 -1      1886-7.34805E+02-7.34809E+02-1.71454E+03 2.46710E-05 3.18872E+02 2.04360E+01
 -1      1887-1.29179E+03-1.47928E+03-2.94842E+03-8.35650E+00 2.72619E+02 3.05560E+01
 -1      1888-7.45245E+02-7.45249E+02-1.73890E+03-1.05226E-04 3.23264E+02 1.37906E+00
 -1      1889-1.22056E+03-1.43057E+03-2.88741E+03-2.06162E+01 2.60900E+02 1.22690E+01
 -1      1890-8.12224E+02-8.12227E+02-1.89518E+03-2.59610E-07 3.40496E+02 1.87756E+01
 -1      1891-1.33303E+03-1.46485E+03-2.80867E+03-5.75746E+01 2.70697E+02-2.30669E+01
 -1      1892-8.43461E+02-8.43463E+02-1.96806E+03 8.02635E-04 3.36930E+02 1.55769E+02
 -1      1893-2.39738E+03-2.42967E+03-4.68046E+03 1.70993E+01 4.50159E+02 9.07636E+01
 -1      1894-5.45414E+02-5.45417E+02-1.27263E+03 1.44019E-03 2.27685E+02 2.97342E+02
 -1      1895-1.19012E+03-1.22657E+03-2.38153E+03 1.55027E+02 2.68449E+02 2.22553E+02
 -1      1896-1.48958E+02-1.48961E+02-3.47572E+02 1.02032E-03 8.42403E+01 2.53337E+02
 -1      1897 4.25321E+02 3.04113E+02 5.11939E+02 1.04528E+02-6.03427E+01 1.30791E+02
 -1      1898-5.18788E+00-5.18957E+00-1.21086E+01 3.82968E-04 1.88169E+01 1.19113E+02
 -1      1899 1.40493E+02 4.27245E+01-5.03681E+01 7.64213E+00-1.75539E+00 1.92568E+01
 -1      1900 9.20398E+00 9.20340E+00 2.14744E+01 6.64518E-05 2.30333E+00 4.39128E+01
 -1      1901 4.23174E+01 2.31434E+01 3.23682E+01 2.06644E+00-7.40397E-01 9.19564E-01
 -1      1902-2.53703E+02-2.53704E+02-5.91970E+02-1.21576E-03 1.82220E+02-2.40889E+02
 -1      1903-1.79787E+02-2.39053E+02-6.00224E+02-1.13026E+02 1.91846E+02-5.72726E+01
 -1      1904-4.75923E+02-4.75924E+02-1.11048E+03-1.26806E-03 3.18459E+02-2.00577E+02
 -1      1905-5.67578E+02-5.74527E+02-1.39873E+03-1.10325E+02 4.85347E+02-3.80167E+01
 -1      1906-5.90312E+02-5.90312E+02-1.37739E+03-7.10162E-04 4.04910E+02-1.11646E+02
 -1      1907-6.53830E+02-6.15611E+02-1.53567E+03-4.97638E+01 5.41457E+02-7.34894E+00
 -1      1908-6.22568E+02-6.22569E+02-1.45265E+03-2.13025E-04 4.36645E+02-4.28205E+01
 -1      1909-6.21267E+02-5.90554E+02-1.53172E+03-2.32943E+01 5.35711E+02 9.20186E+00
 -1      1910-6.19132E+02-6.19133E+02-1.44463E+03 5.51864E-06 4.41200E+02-8.79490E+00
 -1      1911-5.84391E+02-5.61963E+02-1.49179E+03-1.83230E+01 5.23561E+02 1.38193E+01
 -1      1912-6.11875E+02-6.11877E+02-1.42770E+03 5.15786E-05 4.38748E+02 3.29410E+00
 -1      1913-5.77614E+02-5.51528E+02-1.47202E+03-1.90180E+01 5.17504E+02 1.39223E+01
 -1      1914-6.08462E+02-6.08463E+02-1.41974E+03 4.68225E-05 4.36655E+02 7.28712E+00
 -1      1915-5.84742E+02-5.49935E+02-1.46580E+03-1.99823E+01 5.15711E+02 1.35901E+01
 -1      1916-6.07817E+02-6.07819E+02-1.41823E+03 4.00792E-05 4.35898E+02 9.34987E+00
 -1      1917-5.92953E+02-5.50639E+02-1.46517E+03-2.05142E+01 5.15459E+02 1.35352E+01
 -1      1918-6.08098E+02-6.08100E+02-1.41889E+03 3.89136E-05 4.35850E+02 1.09915E+01
 -1      1919-5.98163E+02-5.51251E+02-1.46574E+03-2.07872E+01 5.15579E+02 1.36584E+01
 -1      1920-6.08481E+02-6.08483E+02-1.41978E+03 4.05583E-05 4.36007E+02 1.23654E+01
 -1      1921-6.00751E+02-5.51523E+02-1.46629E+03-2.09210E+01 5.15718E+02 1.38018E+01
 -1      1922-6.08805E+02-6.08807E+02-1.42054E+03 4.33326E-05 4.36155E+02 1.35829E+01
 -1      1923-6.02022E+02-5.51729E+02-1.46681E+03-2.09692E+01 5.15858E+02 1.39244E+01
 -1      1924-6.09007E+02-6.09009E+02-1.42101E+03 4.89731E-05 4.36134E+02 1.50561E+01
 -1      1925-6.03203E+02-5.52217E+02-1.46753E+03-2.09182E+01 5.16054E+02 1.40809E+01
 -1      1926-6.08550E+02-6.08552E+02-1.41994E+03 6.26283E-05 4.35529E+02 1.75189E+01
 -1      1927-6.04799E+02-5.53142E+02-1.46805E+03-2.05977E+01 5.16193E+02 1.44707E+01
 -1      1928-6.05760E+02-6.05762E+02-1.41344E+03 8.70470E-05 4.33491E+02 2.14224E+01
 -1      1929-6.03864E+02-5.53150E+02-1.46549E+03-1.93779E+01 5.15578E+02 1.53823E+01
 -1      1930-5.98273E+02-5.98275E+02-1.39597E+03 9.97866E-05 4.29461E+02 2.45313E+01
 -1      1931-5.90228E+02-5.47362E+02-1.45322E+03-1.63396E+01 5.11811E+02 1.69353E+01
 -1      1932-5.89002E+02-5.89004E+02-1.37433E+03 3.24124E-05 4.25936E+02 1.94588E+01
 -1      1933-5.46276E+02-5.24128E+02-1.41436E+03-1.38088E+01 4.99688E+02 1.64907E+01
 -1      1934-5.98559E+02-5.98561E+02-1.39663E+03-1.22716E-04 4.31911E+02 5.56331E+00
 -1      1935-5.05260E+02-5.00983E+02-1.38306E+03-2.68601E+01 4.82436E+02 7.16588E+00
 -1      1936-6.51598E+02-6.51599E+02-1.52039E+03 1.05454E-05 4.54429E+02 2.52795E+01
 -1      1937-6.04226E+02-5.16586E+02-1.36179E+03-7.31215E+01 4.73056E+02 3.32078E+00
 -1      1938-6.71586E+02-6.71587E+02-1.56702E+03 9.78023E-04 4.47650E+02 1.42811E+02
 -1      1939-1.12963E+03-9.18318E+02-2.21093E+03 2.19017E+01 8.11210E+02 5.23124E+01
 -1      1940-4.34936E+02-4.34938E+02-1.01485E+03 1.75035E-03 3.02737E+02 2.61082E+02
 -1      1941-5.12946E+02-4.02320E+02-1.06372E+03 1.95435E+02 4.11303E+02 8.81800E+01
 -1      1942-1.22086E+02-1.22088E+02-2.84869E+02 1.25114E-03 1.13629E+02 2.25783E+02
 -1      1943 2.46512E+02 1.57521E+02 2.19070E+02 1.29048E+02-1.02056E+02 5.63304E+01
 -1      1944-4.45981E+00-4.46121E+00-1.04094E+01 4.63035E-04 2.56734E+01 1.12974E+02
 -1      1945 1.21385E+02 3.87150E+01-3.28674E+00 1.12819E+01 4.20915E+00 1.70417E+01
 -1      1946 8.47219E+00 8.47166E+00 1.97670E+01 7.37992E-05 3.28229E+00 4.55966E+01
 -1      1947 3.33950E+01 1.39339E+01 1.78628E+01 3.97137E+00-2.41436E+00 1.95290E+00
 -1      1948-1.90457E+02-1.90457E+02-4.44398E+02-1.15535E-03 2.10886E+02-2.13242E+02
 -1      1949 9.09151E+01 1.15958E+02 8.29614E+00-1.01264E+02 9.72334E+01 1.58650E+01
 -1      1950-3.53303E+02-3.53303E+02-8.24369E+02-1.23168E-03 3.62976E+02-1.81321E+02
 -1      1951 1.44527E+02 2.78448E+02 8.59053E+01-9.76858E+01 2.34774E+02 9.16074E+00
 -1      1952-4.37901E+02-4.37901E+02-1.02176E+03-6.96515E-04 4.61792E+02-1.05964E+02
 -1      1953 1.37886E+02 3.26598E+02 8.18873E+01-4.37592E+01 2.57807E+02-3.27098E+00
 -1      1954-4.63563E+02-4.63563E+02-1.08164E+03-2.14278E-04 4.98535E+02-4.43559E+01
 -1      1955 1.56132E+02 3.43174E+02 8.65846E+01-1.80466E+01 2.51350E+02-2.07253E+00
 -1      1956-4.61646E+02-4.61646E+02-1.07717E+03-1.60220E-06 5.04158E+02-1.14562E+01
 -1      1957 1.66089E+02 3.45721E+02 8.92276E+01-1.22627E+01 2.43953E+02 2.11821E-01
 -1      1958-4.56373E+02-4.56373E+02-1.06487E+03 4.57240E-05 5.01617E+02 1.40322E+00
 -1      1959 1.60980E+02 3.44636E+02 9.13457E+01-1.23944E+01 2.40826E+02 1.66677E+00
 -1      1960-4.53962E+02-4.53962E+02-1.05924E+03 4.33396E-05 4.99378E+02 6.06389E+00
 -1      1961 1.50246E+02 3.43007E+02 9.14747E+01-1.32320E+01 2.40070E+02 2.37738E+00
 -1      1962-4.53677E+02-4.53677E+02-1.05858E+03 3.84198E-05 4.98616E+02 8.41715E+00
 -1      1963 1.41582E+02 3.42042E+02 9.10439E+01-1.37997E+01 2.40045E+02 2.76534E+00
 -1      1964-4.54057E+02-4.54057E+02-1.05946E+03 3.84043E-05 4.98632E+02 1.01589E+01
 -1      1965 1.36604E+02 3.41691E+02 9.06757E+01-1.41176E+01 2.40142E+02 3.01509E+00
 -1      1966-4.54453E+02-4.54454E+02-1.06039E+03 4.07481E-05 4.98853E+02 1.15766E+01
 -1      1967 1.34280E+02 3.41645E+02 9.04892E+01-1.42730E+01 2.40218E+02 3.18817E+00
 -1      1968-4.54757E+02-4.54758E+02-1.06110E+03 4.39590E-05 4.99042E+02 1.28325E+01
 -1      1969 1.33290E+02 3.41669E+02 9.03726E+01-1.43187E+01 2.40289E+02 3.32102E+00
 -1      1970-4.54934E+02-4.54934E+02-1.06151E+03 4.98664E-05 4.99018E+02 1.43319E+01
 -1      1971 1.32548E+02 3.41565E+02 9.01920E+01-1.42424E+01 2.40405E+02 3.45114E+00
 -1      1972-4.54543E+02-4.54543E+02-1.06060E+03 6.36141E-05 4.98298E+02 1.67232E+01
 -1      1973 1.31505E+02 3.41110E+02 9.00183E+01-1.38990E+01 2.40549E+02 3.61008E+00
 -1      1974-4.52230E+02-4.52230E+02-1.05520E+03 8.78718E-05 4.95907E+02 2.02558E+01
 -1      1975 1.31877E+02 3.40098E+02 9.01450E+01-1.27883E+01 2.40428E+02 3.74817E+00
 -1      1976-4.46291E+02-4.46292E+02-1.04134E+03 1.01208E-04 4.91245E+02 2.27120E+01
 -1      1977 1.40261E+02 3.38914E+02 9.19010E+01-1.03188E+01 2.38651E+02 3.50878E+00
 -1      1978-4.39652E+02-4.39653E+02-1.02585E+03 3.84461E-05 4.87224E+02 1.83352E+01
 -1      1979 1.61695E+02 3.36555E+02 9.07769E+01-8.53209E+00 2.32320E+02 2.17625E+00
 -1      1980-4.48339E+02-4.48339E+02-1.04612E+03-1.10443E-04 4.94169E+02 9.48427E+00
 -1      1981 1.72522E+02 3.32512E+02 9.00084E+01-2.12402E+01 2.19827E+02 9.22049E-01
 -1      1982-4.87137E+02-4.87136E+02-1.13665E+03 1.92990E-05 5.19207E+02 3.25242E+01
 -1      1983 8.20726E+01 3.18396E+02 4.01883E+01-5.37685E+01 2.20178E+02 2.49021E+01
 -1      1984-4.95589E+02-4.95588E+02-1.15637E+03 9.54212E-04 5.08453E+02 1.32314E+02
 -1      1985 6.79432E+01 4.42359E+02 1.56542E+02 3.51300E+01 3.87336E+02 8.18320E+00
 -1      1986-3.22445E+02-3.22445E+02-7.52369E+02 1.69815E-03 3.44499E+02 2.28547E+02
 -1      1987 5.78973E+01 2.56328E+02 6.47192E+01 1.75285E+02 1.82642E+02-3.73160E+01
 -1      1988-9.51466E+01-9.51480E+01-2.22011E+02 1.20379E-03 1.31872E+02 2.02061E+02
 -1      1989 7.82669E+01 1.48239E+01-3.20253E+01 1.18348E+02-5.67429E+01-8.90664E+00
 -1      1990-3.98051E+00-3.98168E+00-9.29076E+00 4.24152E-04 3.03298E+01 1.09243E+02
 -1      1991 9.50420E+01 3.16770E+01 3.56163E+01 1.81460E+01-4.54585E+00 1.39061E+01
 -1      1992 7.71123E+00 7.71072E+00 1.79915E+01 5.44368E-05 4.17418E+00 4.82000E+01
 -1      1993 2.27134E+01 5.75194E+00 5.50954E+00 4.67830E+00-4.28305E-01 2.73272E+00
 -1      1994-1.46553E+02-1.46554E+02-3.41955E+02-8.19225E-04 2.27658E+02-2.01993E+02
 -1      1995 6.90551E+01 8.76151E+01 6.88247E+00-6.42114E+01-6.68326E+00 1.34351E+01
 -1      1996-2.67039E+02-2.67040E+02-6.23089E+02-9.56026E-04 3.85168E+02-1.76406E+02
 -1      1997 1.17160E+02 1.99900E+02 3.73883E+01-6.24739E+01-1.76221E+01 9.11699E+00
 -1      1998-3.31475E+02-3.31475E+02-7.73437E+02-5.44797E-04 4.90195E+02-1.08020E+02
 -1      1999 1.22889E+02 2.38333E+02 4.49463E+01-2.81748E+01-2.07206E+01 1.34668E+00
 -1      2000-3.53697E+02-3.53698E+02-8.25289E+02-1.79405E-04 5.30142E+02-4.76676E+01
 -1      2001 1.27607E+02 2.44312E+02 4.75419E+01-8.94964E+00-2.54593E+01-1.23207E+00
 -1      2002-3.53594E+02-3.53595E+02-8.25050E+02-1.27454E-05 5.37070E+02-1.38577E+01
 -1      2003 1.28582E+02 2.43485E+02 5.11530E+01-3.89220E+00-2.63356E+01-4.91059E-01
 -1      2004-3.50061E+02-3.50062E+02-8.16806E+02 2.87312E-05 5.34899E+02 5.72746E-02
 -1      2005 1.19758E+02 2.42276E+02 5.31071E+01-3.57431E+00-2.62888E+01 5.86098E-01
 -1      2006-3.48516E+02-3.48516E+02-8.13200E+02 3.14091E-05 5.32820E+02 5.20504E+00
 -1      2007 1.08210E+02 2.41322E+02 5.32444E+01-4.13771E+00-2.60596E+01 1.31837E+00
 -1      2008-3.48576E+02-3.48576E+02-8.13340E+02 3.09331E-05 5.32201E+02 7.71218E+00
 -1      2009 9.95988E+01 2.40756E+02 5.27777E+01-4.59830E+00-2.59425E+01 1.78769E+00
 -1      2010-3.49086E+02-3.49087E+02-8.14531E+02 3.31666E-05 5.32344E+02 9.50584E+00
 -1      2011 9.47690E+01 2.40524E+02 5.24025E+01-4.86613E+00-2.59044E+01 2.09327E+00
 -1      2012-3.49531E+02-3.49532E+02-8.15569E+02 3.64584E-05 5.32655E+02 1.09636E+01
 -1      2013 9.25320E+01 2.40473E+02 5.22185E+01-4.99481E+00-2.58989E+01 2.29502E+00
 -1      2014-3.49839E+02-3.49840E+02-8.16288E+02 3.99643E-05 5.32891E+02 1.22716E+01
 -1      2015 9.16323E+01 2.40475E+02 5.21061E+01-5.02739E+00-2.59006E+01 2.43491E+00
 -1      2016-3.49993E+02-3.49994E+02-8.16648E+02 4.53453E-05 5.32863E+02 1.38435E+01
 -1      2017 9.10982E+01 2.40428E+02 5.19337E+01-4.95354E+00-2.58875E+01 2.54899E+00
 -1      2018-3.49614E+02-3.49614E+02-8.15762E+02 5.68144E-05 5.32042E+02 1.62969E+01
 -1      2019 9.04466E+01 2.40252E+02 5.17348E+01-4.67315E+00-2.58134E+01 2.65585E+00
 -1      2020-3.47575E+02-3.47576E+02-8.11006E+02 7.66550E-05 5.29389E+02 1.97200E+01
 -1      2021 9.12698E+01 2.39929E+02 5.20196E+01-3.91200E+00-2.55927E+01 2.71297E+00
 -1      2022-3.42679E+02-3.42680E+02-7.99582E+02 8.91938E-05 5.24347E+02 2.17344E+01
 -1      2023 9.92048E+01 2.39034E+02 5.34458E+01-2.55134E+00-2.53643E+01 2.48038E+00
 -1      2024-3.37958E+02-3.37959E+02-7.88567E+02 4.67291E-05 5.20145E+02 1.73522E+01
 -1      2025 1.17230E+02 2.35515E+02 5.42774E+01-2.08314E+00-2.52978E+01 1.97442E+00
 -1      2026-3.46085E+02-3.46085E+02-8.07528E+02-6.56994E-05 5.27561E+02 1.11352E+01
 -1      2027 1.18913E+02 2.25989E+02 4.74952E+01-1.16439E+01-2.96007E+01 4.68391E+00
 -1      2028-3.74308E+02-3.74308E+02-8.73379E+02 1.88302E-05 5.52952E+02 3.82792E+01
 -1      2029 7.69202E+01 2.36826E+02 3.58472E+01-2.38115E+01-2.30834E+01 1.25096E+01
 -1      2030-3.73107E+02-3.73106E+02-8.70576E+02 7.47423E-04 5.37666E+02 1.32044E+02
 -1      2031 6.47434E+01 3.15751E+02 6.32992E+01 3.49571E+01-2.06043E+01-1.86026E+00
 -1      2032-2.45357E+02-2.45358E+02-5.72498E+02 1.30317E-03 3.65595E+02 2.18563E+02
 -1      2033 4.91175E+01 1.80281E+02 3.64251E+01 1.11852E+02-1.54026E+01-2.51451E+01
 -1      2034-7.89775E+01-7.89791E+01-1.84283E+02 8.48431E-04 1.43707E+02 1.97163E+02
 -1      2035 4.51700E+01 5.76484E+00 2.88261E+00 8.01216E+01-1.16308E+01-1.36190E+01
 -1      2036-5.14129E+00-5.14258E+00-1.19991E+01 2.48632E-04 3.43127E+01 1.12463E+02
 -1      2037 4.89059E+01 7.38417E+00 1.75796E+01 1.89737E+01-7.30448E+00 3.05588E+00
 -1      2038 6.89030E+00 6.88970E+00 1.60760E+01 1.15976E-05 5.22491E+00 5.18249E+01
 -1      2039 1.54315E+01 4.45617E+00 8.10403E+00 3.76339E+00 7.82692E-01 2.85369E+00
 -1      2040-7.71782E+01-4.30160E+01-3.19614E+02-3.09799E+01-1.71655E+02-1.84688E+02
 -1      2041-1.57653E+02-1.01516E+02-5.59734E+02-3.07358E+01-2.98300E+02-1.64276E+02
 -1      2042-1.91253E+02-1.25064E+02-6.98401E+02-1.44606E+01-3.78641E+02-9.94395E+01
 -1      2043-2.21517E+02-1.31232E+02-7.43168E+02-2.92721E+00-4.06558E+02-4.34026E+01
 -1      2044-2.42245E+02-1.32018E+02-7.44399E+02 1.09123E+00-4.10173E+02-1.23951E+01
 -1      2045-2.52854E+02-1.31929E+02-7.38449E+02 1.42076E+00-4.07892E+02 2.57173E-01
 -1      2046-2.57113E+02-1.32023E+02-7.36075E+02 9.34134E-01-4.06134E+02 5.08512E+00
 -1      2047-2.58729E+02-1.32163E+02-7.36477E+02 5.76363E-01-4.05590E+02 7.56986E+00
 -1      2048-2.59557E+02-1.32284E+02-7.37600E+02 4.22956E-01-4.05641E+02 9.37402E+00
 -1      2049-2.60070E+02-1.32368E+02-7.38526E+02 3.72933E-01-4.05835E+02 1.08149E+01
 -1      2050-2.60216E+02-1.32407E+02-7.39137E+02 3.67647E-01-4.05996E+02 1.20728E+01
 -1      2051-2.59792E+02-1.32391E+02-7.39396E+02 4.29817E-01-4.05992E+02 1.35451E+01
 -1      2052-2.58717E+02-1.32282E+02-7.38594E+02 6.64459E-01-4.05451E+02 1.58421E+01
 -1      2053-2.57601E+02-1.31920E+02-7.34603E+02 1.16942E+00-4.03572E+02 1.91589E+01
 -1      2054-2.57669E+02-1.30702E+02-7.24771E+02 1.57741E+00-3.99700E+02 2.14218E+01
 -1      2055-2.57095E+02-1.27949E+02-7.13725E+02 1.58199E-01-3.95797E+02 1.75969E+01
 -1      2056-2.46907E+02-1.26519E+02-7.26731E+02-4.58904E+00-4.00455E+02 1.06009E+01
 -1      2057-2.23827E+02-1.35760E+02-7.84975E+02-4.01762E+00-4.23099E+02 3.35401E+01
 -1      2058-2.02801E+02-1.46950E+02-7.89462E+02 2.05796E+01-4.20894E+02 1.22125E+02
 -1      2059-1.55535E+02-9.45866E+01-5.17924E+02 4.77545E+01-2.81894E+02 2.05521E+02
 -1      2060-1.02616E+02-2.46158E+01-1.64183E+02 3.85406E+01-1.01143E+02 1.83695E+02
 -1      2061-6.87609E+01-5.22988E+00-1.40400E+01 1.32780E+01-2.14055E+01 1.02741E+02
 -1      2062-3.03449E+01-2.65308E+00 6.71170E+00 1.29039E+00-2.98256E+00 4.63783E+01
 -1      2063-1.25746E+02-1.10644E+02-4.39960E+02-5.41200E+01-2.12000E+02-2.01831E+02
 -1      2064-2.59846E+02-2.28898E+02-7.92211E+02-5.39030E+01-3.74291E+02-1.74377E+02
 -1      2065-3.20127E+02-2.80499E+02-9.84429E+02-2.44062E+01-4.74233E+02-9.98296E+01
 -1      2066-3.60974E+02-2.98981E+02-1.04078E+03-4.63740E+00-5.08464E+02-4.03674E+01
 -1      2067-3.82339E+02-3.01723E+02-1.03883E+03 2.01773E+00-5.12370E+02-9.77758E+00
 -1      2068-3.91462E+02-3.01152E+02-1.02903E+03 2.41511E+00-5.09247E+02 1.84695E+00
 -1      2069-3.94564E+02-3.00738E+02-1.02460E+03 1.54116E+00-5.06922E+02 6.11154E+00
 -1      2070-3.95728E+02-3.00790E+02-1.02421E+03 9.43108E-01-5.06160E+02 8.39063E+00
 -1      2071-3.96466E+02-3.01027E+02-1.02509E+03 7.03403E-01-5.06166E+02 1.01185E+01
 -1      2072-3.97005E+02-3.01250E+02-1.02596E+03 6.32477E-01-5.06371E+02 1.15105E+01
 -1      2073-3.97201E+02-3.01384E+02-1.02660E+03 6.27993E-01-5.06554E+02 1.27149E+01
 -1      2074-3.96793E+02-3.01363E+02-1.02690E+03 7.30322E-01-5.06552E+02 1.41234E+01
 -1      2075-3.95517E+02-3.00980E+02-1.02596E+03 1.12951E+00-5.05911E+02 1.63914E+01
 -1      2076-3.93663E+02-2.99762E+02-1.02109E+03 2.02672E+00-5.03642E+02 1.98888E+01
 -1      2077-3.92498E+02-2.96973E+02-1.00858E+03 2.84567E+00-4.98839E+02 2.27101E+01
 -1      2078-3.91459E+02-2.92842E+02-9.92911E+02 5.65879E-01-4.93795E+02 1.88544E+01
 -1      2079-3.83728E+02-2.92810E+02-1.00678E+03-8.11657E+00-4.99417E+02 8.28000E+00
 -1      2080-3.66389E+02-3.08811E+02-1.08990E+03-8.88035E+00-5.28616E+02 2.62743E+01
 -1      2081-3.48176E+02-3.23503E+02-1.12023E+03 3.45016E+01-5.30114E+02 1.25934E+02
 -1      2082-2.51291E+02-2.11683E+02-7.26699E+02 8.40234E+01-3.53831E+02 2.25414E+02
 -1      2083-1.34222E+02-6.43764E+01-2.10702E+02 6.66718E+01-1.23190E+02 1.95832E+02
 -1      2084-7.62146E+01-1.62883E+01-1.55160E+01 2.15386E+01-2.52480E+01 1.01221E+02
 -1      2085-2.98057E+01-4.05180E+00 7.88170E+00 2.00014E+00-3.14891E+00 4.31420E+01
 -1      2086-1.68789E+02-1.29052E+02-5.89515E+02-5.91882E+01-1.90715E+02-2.34953E+02
 -1      2087-3.48315E+02-2.67267E+02-1.08047E+03-5.77448E+01-3.43030E+02-1.99058E+02
 -1      2088-4.32208E+02-3.26641E+02-1.34192E+03-2.64874E+01-4.34192E+02-1.07565E+02
 -1      2089-4.83130E+02-3.46077E+02-1.41292E+03-5.04201E+00-4.64627E+02-3.89831E+01
 -1      2090-5.07011E+02-3.48690E+02-1.40795E+03 2.16245E+00-4.67610E+02-6.83595E+00
 -1      2091-5.15557E+02-3.47843E+02-1.39391E+03 2.62330E+00-4.64496E+02 3.98336E+00
 -1      2092-5.17759E+02-3.47322E+02-1.38729E+03 1.69458E+00-4.62267E+02 7.50983E+00
 -1      2093-5.18434E+02-3.47369E+02-1.38609E+03 1.05824E+00-4.61507E+02 9.45545E+00
 -1      2094-5.19013E+02-3.47641E+02-1.38675E+03 8.03776E-01-4.61467E+02 1.10668E+01
 -1      2095-5.19530E+02-3.47898E+02-1.38761E+03 7.29905E-01-4.61625E+02 1.24100E+01
 -1      2096-5.19741E+02-3.48055E+02-1.38830E+03 7.27096E-01-4.61778E+02 1.35758E+01
 -1      2097-5.19303E+02-3.48040E+02-1.38865E+03 8.38800E-01-4.61780E+02 1.49654E+01
 -1      2098-5.17783E+02-3.47607E+02-1.38753E+03 1.26806E+00-4.61229E+02 1.73330E+01
 -1      2099-5.15296E+02-3.46225E+02-1.38155E+03 2.23300E+00-4.59226E+02 2.12708E+01
 -1      2100-5.13489E+02-3.43100E+02-1.36569E+03 3.12058E+00-4.54866E+02 2.48969E+01
 -1      2101-5.12873E+02-3.38198E+02-1.34398E+03 6.41973E-01-4.50096E+02 2.04133E+01
 -1      2102-5.05940E+02-3.36974E+02-1.35790E+03-8.80154E+00-4.54954E+02 3.72674E+00
 -1      2103-4.89317E+02-3.56354E+02-1.47295E+03-9.49737E+00-4.82923E+02 1.68603E+01
 -1      2104-4.73395E+02-3.80472E+02-1.53811E+03 3.70102E+01-4.88902E+02 1.39598E+02
 -1      2105-3.35334E+02-2.46177E+02-9.91451E+02 9.00681E+01-3.25330E+02 2.68513E+02
 -1      2106-1.65411E+02-6.84100E+01-2.69025E+02 7.18157E+01-1.09154E+02 2.26850E+02
 -1      2107-8.84631E+01-1.68878E+01-1.77190E+01 2.33265E+01-2.12970E+01 1.06157E+02
 -1      2108-3.24113E+01-4.73470E+00 8.52195E+00 2.39981E+00-2.29866E+00 4.07050E+01
 -1      2109-2.06643E+02-1.37463E+02-7.28632E+02-4.88836E+01-1.44133E+02-2.69664E+02
 -1      2110-4.25315E+02-2.85645E+02-1.35089E+03-4.73560E+01-2.62666E+02-2.25790E+02
 -1      2111-5.29865E+02-3.48145E+02-1.67841E+03-2.18141E+01-3.32467E+02-1.17098E+02
 -1      2112-5.90074E+02-3.66829E+02-1.76346E+03-4.21719E+00-3.55361E+02-3.85270E+01
 -1      2113-6.16832E+02-3.68869E+02-1.75581E+03 1.76381E+00-3.57395E+02-4.19409E+00
 -1      2114-6.25286E+02-3.67874E+02-1.73798E+03 2.16855E+00-3.54910E+02 6.04617E+00
 -1      2115-6.26798E+02-3.67327E+02-1.72940E+03 1.41906E+00-3.53161E+02 8.88277E+00
 -1      2116-6.27042E+02-3.67383E+02-1.72752E+03 9.00420E-01-3.52552E+02 1.04948E+01
 -1      2117-6.27462E+02-3.67668E+02-1.72802E+03 6.92544E-01-3.52500E+02 1.19907E+01
 -1      2118-6.27949E+02-3.67933E+02-1.72887E+03 6.32553E-01-3.52608E+02 1.32927E+01
 -1      2119-6.28162E+02-3.68097E+02-1.72962E+03 6.31345E-01-3.52719E+02 1.44323E+01
 -1      2120-6.27678E+02-3.68087E+02-1.73002E+03 7.24368E-01-3.52722E+02 1.58249E+01
 -1      2121-6.25919E+02-3.67649E+02-1.72871E+03 1.07666E+00-3.52315E+02 1.83296E+01
 -1      2122-6.22895E+02-3.66249E+02-1.72170E+03 1.86598E+00-3.50814E+02 2.27433E+01
 -1      2123-6.20709E+02-3.63059E+02-1.70270E+03 2.58698E+00-3.47501E+02 2.71441E+01
 -1      2124-6.20654E+02-3.57514E+02-1.67514E+03 5.23986E-01-3.43790E+02 2.18355E+01
 -1      2125-6.13848E+02-3.54860E+02-1.68890E+03-7.22579E+00-3.47367E+02-1.03102E+00
 -1      2126-5.96508E+02-3.76408E+02-1.83496E+03-7.74570E+00-3.69518E+02 8.10089E+00
 -1      2127-5.82613E+02-4.09274E+02-1.93514E+03 3.02524E+01-3.76598E+02 1.55036E+02
 -1      2128-4.09541E+02-2.61928E+02-1.24414E+03 7.37387E+01-2.50412E+02 3.14206E+02
 -1      2129-1.94166E+02-6.60966E+01-3.23682E+02 5.90037E+01-8.19163E+01 2.60806E+02
 -1      2130-1.01330E+02-1.58222E+01-1.94418E+01 1.92808E+01-1.54342E+01 1.13070E+02
 -1      2131-3.59890E+01-5.37303E+00 9.03240E+00 2.10467E+00-1.50692E+00 3.90070E+01
 -1      2132-2.32523E+02-1.41633E+02-8.25298E+02-2.73953E+01-7.74102E+01-2.94962E+02
 -1      2133-4.77859E+02-2.94865E+02-1.54004E+03-2.64779E+01-1.42151E+02-2.45493E+02
 -1      2134-5.96633E+02-3.58595E+02-1.91447E+03-1.22170E+01-1.80007E+02-1.24428E+02
 -1      2135-6.63423E+02-3.76555E+02-2.00963E+03-2.38520E+00-1.92299E+02-3.84706E+01
 -1      2136-6.92377E+02-3.78161E+02-2.00019E+03 9.79995E-01-1.93338E+02-2.38201E+00
 -1      2137-7.00905E+02-3.77092E+02-1.97977E+03 1.21806E+00-1.91967E+02 7.51473E+00
 -1      2138-7.01985E+02-3.76551E+02-1.96986E+03 8.03368E-01-1.91008E+02 9.87194E+00
 -1      2139-7.01936E+02-3.76617E+02-1.96751E+03 5.14822E-01-1.90671E+02 1.12455E+01
 -1      2140-7.02245E+02-3.76908E+02-1.96790E+03 3.98776E-01-1.90637E+02 1.26587E+01
 -1      2141-7.02708E+02-3.77175E+02-1.96877E+03 3.65370E-01-1.90691E+02 1.39332E+01
 -1      2142-7.02920E+02-3.77340E+02-1.96955E+03 3.65044E-01-1.90749E+02 1.50575E+01
 -1      2143-7.02398E+02-3.77333E+02-1.96998E+03 4.17513E-01-1.90751E+02 1.64588E+01
 -1      2144-7.00468E+02-3.76897E+02-1.96854E+03 6.14429E-01-1.90535E+02 1.90718E+01
 -1      2145-6.97081E+02-3.75512E+02-1.96080E+03 1.05453E+00-1.89731E+02 2.38360E+01
 -1      2146-6.94688E+02-3.72317E+02-1.93959E+03 1.45264E+00-1.87946E+02 2.87763E+01
 -1      2147-6.95070E+02-3.66358E+02-1.90791E+03 2.90255E-01-1.85925E+02 2.28068E+01
 -1      2148-6.88214E+02-3.62698E+02-1.92160E+03-4.03786E+00-1.87825E+02-4.49843E+00
 -1      2149-6.70073E+02-3.85371E+02-2.08999E+03-4.32888E+00-2.00088E+02 2.01499E+00
 -1      2150-6.57489E+02-4.23884E+02-2.21550E+03 1.68509E+01-2.04696E+02 1.66497E+02
 -1      2151-4.60905E+02-2.69371E+02-1.42364E+03 4.11759E+01-1.36165E+02 3.47563E+02
 -1      2152-2.14493E+02-6.35496E+01-3.62383E+02 3.30197E+01-4.39236E+01 2.85964E+02
 -1      2153-1.10820E+02-1.49425E+01-2.05289E+01 1.08232E+01-8.10007E+00 1.18605E+02
 -1      2154-3.88341E+01-5.83808E+00 9.39267E+00 1.21737E+00-7.47824E-01 3.80082E+01
 -1      2155-2.41581E+02-1.42787E+02-8.59498E+02-7.25777E-11-2.67744E-10-3.04134E+02
 -1      2156-4.96265E+02-2.97473E+02-1.60719E+03-6.59578E-11-3.88570E-10-2.52671E+02
 -1      2157-6.20067E+02-3.61456E+02-1.99845E+03-3.31572E-11-4.76305E-10-1.27143E+02
 -1      2158-6.89220E+02-3.79127E+02-2.09727E+03-8.62990E-12-5.18049E-10-3.84907E+01
 -1      2159-7.18988E+02-3.80580E+02-2.08721E+03 7.24726E-13-5.34947E-10-1.74020E+00
 -1      2160-7.27565E+02-3.79490E+02-2.06587E+03 2.10388E-12-5.38636E-10 8.04413E+00
 -1      2161-7.28499E+02-3.78956E+02-2.05550E+03 1.55042E-12-5.39857E-10 1.02308E+01
 -1      2162-7.28347E+02-3.79026E+02-2.05298E+03 1.06182E-12-5.40146E-10 1.15185E+01
 -1      2163-7.28615E+02-3.79319E+02-2.05334E+03 5.64781E-13-5.40165E-10 1.29019E+01
 -1      2164-7.29070E+02-3.79587E+02-2.05421E+03 2.08764E-13-5.40437E-10 1.41667E+01
 -1      2165-7.29281E+02-3.79751E+02-2.05501E+03 2.78243E-13-5.41226E-10 1.52861E+01
 -1      2166-7.28745E+02-3.79745E+02-2.05545E+03 3.58328E-13-5.40524E-10 1.66914E+01
 -1      2167-7.26753E+02-3.79311E+02-2.05396E+03 5.74887E-13-5.40204E-10 1.93448E+01
 -1      2168-7.23239E+02-3.77935E+02-2.04596E+03 1.82099E-12-5.37444E-10 2.42367E+01
 -1      2169-7.20782E+02-3.74746E+02-2.02397E+03 2.76484E-12-5.33470E-10 2.93681E+01
 -1      2170-7.21331E+02-3.68650E+02-1.99082E+03-1.09295E-13-5.28264E-10 2.31483E+01
 -1      2171-7.14443E+02-3.64632E+02-2.00450E+03-9.49060E-12-5.27057E-10-5.75783E+00
 -1      2172-6.95973E+02-3.87624E+02-2.18098E+03-5.01332E-12-5.27913E-10-1.48584E-01
 -1      2173-6.83805E+02-4.28025E+02-2.31559E+03 4.81126E-11-4.84249E-10 1.70673E+02
 -1      2174-4.79077E+02-2.71352E+02-1.48800E+03 1.01734E-10-3.46288E-10 3.59658E+02
 -1      2175-2.21778E+02-6.24954E+01-3.76279E+02 8.29529E-11-1.80173E-10 2.95153E+02
 -1      2176-1.14280E+02-1.46176E+01-2.08884E+01 3.12432E-11-7.70555E-11 1.20690E+02
 -1      2177-3.98998E+01-6.00659E+00 9.52422E+00 6.03658E-12-3.30608E-11 3.76805E+01
 -1      2178-2.32523E+02-1.41633E+02-8.25298E+02 2.73953E+01 7.74102E+01-2.94962E+02
 -1      2179-4.77859E+02-2.94865E+02-1.54004E+03 2.64779E+01 1.42151E+02-2.45493E+02
 -1      2180-5.96633E+02-3.58595E+02-1.91447E+03 1.22170E+01 1.80007E+02-1.24428E+02
 -1      2181-6.63423E+02-3.76555E+02-2.00963E+03 2.38520E+00 1.92299E+02-3.84706E+01
 -1      2182-6.92377E+02-3.78161E+02-2.00019E+03-9.79995E-01 1.93338E+02-2.38201E+00
 -1      2183-7.00905E+02-3.77092E+02-1.97977E+03-1.21806E+00 1.91967E+02 7.51473E+00
 -1      2184-7.01985E+02-3.76551E+02-1.96986E+03-8.03368E-01 1.91008E+02 9.87194E+00
 -1      2185-7.01936E+02-3.76617E+02-1.96751E+03-5.14822E-01 1.90671E+02 1.12455E+01
 -1      2186-7.02245E+02-3.76908E+02-1.96790E+03-3.98776E-01 1.90637E+02 1.26587E+01
 -1      2187-7.02708E+02-3.77175E+02-1.96877E+03-3.65370E-01 1.90691E+02 1.39332E+01
 -1      2188-7.02920E+02-3.77340E+02-1.96955E+03-3.65044E-01 1.90749E+02 1.50575E+01
 -1      2189-7.02398E+02-3.77333E+02-1.96998E+03-4.17513E-01 1.90751E+02 1.64588E+01
 -1      2190-7.00468E+02-3.76897E+02-1.96854E+03-6.14429E-01 1.90535E+02 1.90718E+01
 -1      2191-6.97081E+02-3.75512E+02-1.96080E+03-1.05453E+00 1.89731E+02 2.38360E+01
 -1      2192-6.94688E+02-3.72317E+02-1.93959E+03-1.45264E+00 1.87946E+02 2.87763E+01
 -1      2193-6.95070E+02-3.66358E+02-1.90791E+03-2.90255E-01 1.85925E+02 2.28068E+01
 -1      2194-6.88214E+02-3.62698E+02-1.92160E+03 4.03786E+00 1.87825E+02-4.49843E+00
 -1      2195-6.70073E+02-3.85371E+02-2.08999E+03 4.32888E+00 2.00088E+02 2.01499E+00
 -1      2196-6.57489E+02-4.23884E+02-2.21550E+03-1.68509E+01 2.04696E+02 1.66497E+02
 -1      2197-4.60905E+02-2.69371E+02-1.42364E+03-4.11759E+01 1.36165E+02 3.47563E+02
 -1      2198-2.14493E+02-6.35496E+01-3.62383E+02-3.30197E+01 4.39236E+01 2.85964E+02
 -1      2199-1.10820E+02-1.49425E+01-2.05289E+01-1.08232E+01 8.10007E+00 1.18605E+02
 -1      2200-3.88341E+01-5.83808E+00 9.39267E+00-1.21737E+00 7.47824E-01 3.80082E+01
 -1      2201-2.06643E+02-1.37463E+02-7.28632E+02 4.88836E+01 1.44133E+02-2.69664E+02
 -1      2202-4.25315E+02-2.85645E+02-1.35089E+03 4.73560E+01 2.62666E+02-2.25790E+02
 -1      2203-5.29865E+02-3.48145E+02-1.67841E+03 2.18141E+01 3.32467E+02-1.17098E+02
 -1      2204-5.90074E+02-3.66829E+02-1.76346E+03 4.21719E+00 3.55361E+02-3.85270E+01
 -1      2205-6.16832E+02-3.68869E+02-1.75581E+03-1.76381E+00 3.57395E+02-4.19409E+00
 -1      2206-6.25286E+02-3.67874E+02-1.73798E+03-2.16855E+00 3.54910E+02 6.04617E+00
 -1      2207-6.26798E+02-3.67327E+02-1.72940E+03-1.41906E+00 3.53161E+02 8.88277E+00
 -1      2208-6.27042E+02-3.67383E+02-1.72752E+03-9.00420E-01 3.52552E+02 1.04948E+01
 -1      2209-6.27462E+02-3.67668E+02-1.72802E+03-6.92544E-01 3.52500E+02 1.19907E+01
 -1      2210-6.27949E+02-3.67933E+02-1.72887E+03-6.32553E-01 3.52608E+02 1.32927E+01
 -1      2211-6.28162E+02-3.68097E+02-1.72962E+03-6.31345E-01 3.52719E+02 1.44323E+01
 -1      2212-6.27678E+02-3.68087E+02-1.73002E+03-7.24368E-01 3.52722E+02 1.58249E+01
 -1      2213-6.25919E+02-3.67649E+02-1.72871E+03-1.07666E+00 3.52315E+02 1.83296E+01
 -1      2214-6.22895E+02-3.66249E+02-1.72170E+03-1.86598E+00 3.50814E+02 2.27433E+01
 -1      2215-6.20709E+02-3.63059E+02-1.70270E+03-2.58698E+00 3.47501E+02 2.71441E+01
 -1      2216-6.20654E+02-3.57514E+02-1.67514E+03-5.23986E-01 3.43790E+02 2.18355E+01
 -1      2217-6.13848E+02-3.54860E+02-1.68890E+03 7.22579E+00 3.47367E+02-1.03102E+00
 -1      2218-5.96508E+02-3.76408E+02-1.83496E+03 7.74570E+00 3.69518E+02 8.10089E+00
 -1      2219-5.82613E+02-4.09274E+02-1.93514E+03-3.02524E+01 3.76598E+02 1.55036E+02
 -1      2220-4.09541E+02-2.61928E+02-1.24414E+03-7.37387E+01 2.50412E+02 3.14206E+02
 -1      2221-1.94166E+02-6.60966E+01-3.23682E+02-5.90037E+01 8.19163E+01 2.60806E+02
 -1      2222-1.01330E+02-1.58222E+01-1.94418E+01-1.92808E+01 1.54342E+01 1.13070E+02
 -1      2223-3.59890E+01-5.37303E+00 9.03240E+00-2.10467E+00 1.50692E+00 3.90070E+01
 -1      2224-1.68789E+02-1.29052E+02-5.89515E+02 5.91882E+01 1.90715E+02-2.34953E+02
 -1      2225-3.48315E+02-2.67267E+02-1.08047E+03 5.77448E+01 3.43030E+02-1.99058E+02
 -1      2226-4.32208E+02-3.26641E+02-1.34192E+03 2.64874E+01 4.34192E+02-1.07565E+02
 -1      2227-4.83130E+02-3.46077E+02-1.41292E+03 5.04201E+00 4.64627E+02-3.89831E+01
 -1      2228-5.07011E+02-3.48690E+02-1.40795E+03-2.16245E+00 4.67610E+02-6.83595E+00
 -1      2229-5.15557E+02-3.47843E+02-1.39391E+03-2.62330E+00 4.64496E+02 3.98336E+00
 -1      2230-5.17759E+02-3.47322E+02-1.38729E+03-1.69458E+00 4.62267E+02 7.50983E+00
 -1      2231-5.18434E+02-3.47369E+02-1.38609E+03-1.05824E+00 4.61507E+02 9.45545E+00
 -1      2232-5.19013E+02-3.47641E+02-1.38675E+03-8.03776E-01 4.61467E+02 1.10668E+01
 -1      2233-5.19530E+02-3.47898E+02-1.38761E+03-7.29905E-01 4.61625E+02 1.24100E+01
 -1      2234-5.19741E+02-3.48055E+02-1.38830E+03-7.27096E-01 4.61778E+02 1.35758E+01
 -1      2235-5.19303E+02-3.48040E+02-1.38865E+03-8.38800E-01 4.61780E+02 1.49654E+01
 -1      2236-5.17783E+02-3.47607E+02-1.38753E+03-1.26806E+00 4.61229E+02 1.73330E+01
 -1      2237-5.15296E+02-3.46225E+02-1.38155E+03-2.23300E+00 4.59226E+02 2.12708E+01
 -1      2238-5.13489E+02-3.43100E+02-1.36569E+03-3.12058E+00 4.54866E+02 2.48969E+01
 -1      2239-5.12873E+02-3.38198E+02-1.34398E+03-6.41973E-01 4.50096E+02 2.04133E+01
 -1      2240-5.05940E+02-3.36974E+02-1.35790E+03 8.80154E+00 4.54954E+02 3.72674E+00
 -1      2241-4.89317E+02-3.56354E+02-1.47295E+03 9.49737E+00 4.82923E+02 1.68603E+01
 -1      2242-4.73395E+02-3.80472E+02-1.53811E+03-3.70102E+01 4.88902E+02 1.39598E+02
 -1      2243-3.35334E+02-2.46177E+02-9.91451E+02-9.00681E+01 3.25330E+02 2.68513E+02
 -1      2244-1.65411E+02-6.84100E+01-2.69025E+02-7.18157E+01 1.09154E+02 2.26850E+02
 -1      2245-8.84631E+01-1.68878E+01-1.77190E+01-2.33265E+01 2.12970E+01 1.06157E+02
 -1      2246-3.24113E+01-4.73470E+00 8.52195E+00-2.39981E+00 2.29866E+00 4.07050E+01
 -1      2247-1.25746E+02-1.10644E+02-4.39960E+02 5.41200E+01 2.12000E+02-2.01831E+02
 -1      2248-2.59846E+02-2.28898E+02-7.92211E+02 5.39030E+01 3.74291E+02-1.74377E+02
 -1      2249-3.20127E+02-2.80499E+02-9.84429E+02 2.44062E+01 4.74233E+02-9.98296E+01
 -1      2250-3.60974E+02-2.98981E+02-1.04078E+03 4.63740E+00 5.08464E+02-4.03674E+01
 -1      2251-3.82339E+02-3.01723E+02-1.03883E+03-2.01773E+00 5.12370E+02-9.77758E+00
 -1      2252-3.91462E+02-3.01152E+02-1.02903E+03-2.41511E+00 5.09247E+02 1.84695E+00
 -1      2253-3.94564E+02-3.00738E+02-1.02460E+03-1.54116E+00 5.06922E+02 6.11154E+00
 -1      2254-3.95728E+02-3.00790E+02-1.02421E+03-9.43108E-01 5.06160E+02 8.39063E+00
 -1      2255-3.96466E+02-3.01027E+02-1.02509E+03-7.03403E-01 5.06166E+02 1.01185E+01
 -1      2256-3.97005E+02-3.01250E+02-1.02596E+03-6.32477E-01 5.06371E+02 1.15105E+01
 -1      2257-3.97201E+02-3.01384E+02-1.02660E+03-6.27993E-01 5.06554E+02 1.27149E+01
 -1      2258-3.96793E+02-3.01363E+02-1.02690E+03-7.30322E-01 5.06552E+02 1.41234E+01
 -1      2259-3.95517E+02-3.00980E+02-1.02596E+03-1.12951E+00 5.05911E+02 1.63914E+01
 -1      2260-3.93663E+02-2.99762E+02-1.02109E+03-2.02672E+00 5.03642E+02 1.98888E+01
 -1      2261-3.92498E+02-2.96973E+02-1.00858E+03-2.84567E+00 4.98839E+02 2.27101E+01
 -1      2262-3.91459E+02-2.92842E+02-9.92911E+02-5.65879E-01 4.93795E+02 1.88544E+01
 -1      2263-3.83728E+02-2.92810E+02-1.00678E+03 8.11657E+00 4.99417E+02 8.28000E+00
 -1      2264-3.66389E+02-3.08811E+02-1.08990E+03 8.88035E+00 5.28616E+02 2.62743E+01
 -1      2265-3.48176E+02-3.23503E+02-1.12023E+03-3.45016E+01 5.30114E+02 1.25934E+02
 -1      2266-2.51291E+02-2.11683E+02-7.26699E+02-8.40234E+01 3.53831E+02 2.25414E+02
 -1      2267-1.34222E+02-6.43764E+01-2.10702E+02-6.66718E+01 1.23190E+02 1.95832E+02
 -1      2268-7.62146E+01-1.62883E+01-1.55160E+01-2.15386E+01 2.52480E+01 1.01221E+02
 -1      2269-2.98057E+01-4.05180E+00 7.88170E+00-2.00014E+00 3.14891E+00 4.31420E+01
 -1      2270-7.71782E+01-4.30160E+01-3.19614E+02 3.09799E+01 1.71655E+02-1.84688E+02
 -1      2271-1.57653E+02-1.01516E+02-5.59734E+02 3.07358E+01 2.98300E+02-1.64276E+02
 -1      2272-1.91253E+02-1.25064E+02-6.98401E+02 1.44606E+01 3.78641E+02-9.94395E+01
 -1      2273-2.21517E+02-1.31232E+02-7.43168E+02 2.92721E+00 4.06558E+02-4.34026E+01
 -1      2274-2.42245E+02-1.32018E+02-7.44399E+02-1.09123E+00 4.10173E+02-1.23951E+01
 -1      2275-2.52854E+02-1.31929E+02-7.38449E+02-1.42076E+00 4.07892E+02 2.57173E-01
 -1      2276-2.57113E+02-1.32023E+02-7.36075E+02-9.34134E-01 4.06134E+02 5.08512E+00
 -1      2277-2.58729E+02-1.32163E+02-7.36477E+02-5.76363E-01 4.05590E+02 7.56986E+00
 -1      2278-2.59557E+02-1.32284E+02-7.37600E+02-4.22956E-01 4.05641E+02 9.37402E+00
 -1      2279-2.60070E+02-1.32368E+02-7.38526E+02-3.72933E-01 4.05835E+02 1.08149E+01
 -1      2280-2.60216E+02-1.32407E+02-7.39137E+02-3.67647E-01 4.05996E+02 1.20728E+01
 -1      2281-2.59792E+02-1.32391E+02-7.39396E+02-4.29817E-01 4.05992E+02 1.35451E+01
 -1      2282-2.58717E+02-1.32282E+02-7.38594E+02-6.64459E-01 4.05451E+02 1.58421E+01
 -1      2283-2.57601E+02-1.31920E+02-7.34603E+02-1.16942E+00 4.03572E+02 1.91589E+01
 -1      2284-2.57669E+02-1.30702E+02-7.24771E+02-1.57741E+00 3.99700E+02 2.14218E+01
 -1      2285-2.57095E+02-1.27949E+02-7.13725E+02-1.58199E-01 3.95797E+02 1.75969E+01
 -1      2286-2.46907E+02-1.26519E+02-7.26731E+02 4.58904E+00 4.00455E+02 1.06009E+01
 -1      2287-2.23827E+02-1.35760E+02-7.84975E+02 4.01762E+00 4.23099E+02 3.35401E+01
 -1      2288-2.02801E+02-1.46950E+02-7.89462E+02-2.05796E+01 4.20894E+02 1.22125E+02
 -1      2289-1.55535E+02-9.45866E+01-5.17924E+02-4.77545E+01 2.81894E+02 2.05521E+02
 -1      2290-1.02616E+02-2.46158E+01-1.64183E+02-3.85406E+01 1.01143E+02 1.83695E+02
 -1      2291-6.87609E+01-5.22988E+00-1.40400E+01-1.32780E+01 2.14055E+01 1.02741E+02
 -1      2292-3.03449E+01-2.65308E+00 6.71170E+00-1.29039E+00 2.98256E+00 4.63783E+01
 -1      2293-5.56574E+01-3.05960E+01-3.07359E+02-5.92487E+01-1.26540E+02-1.37927E+02
 -1      2294-9.61863E+01-7.67123E+01-4.95099E+02-5.67677E+01-2.30983E+02-1.20866E+02
 -1      2295-1.26121E+02-9.51415E+01-6.22195E+02-2.67895E+01-2.90339E+02-7.13219E+01
 -1      2296-1.58225E+02-9.67433E+01-6.53150E+02-5.54453E+00-3.07098E+02-3.01377E+01
 -1      2297-1.88102E+02-9.63664E+01-6.48037E+02 1.83952E+00-3.07501E+02-8.38130E+00
 -1      2298-2.05819E+02-9.67659E+01-6.40485E+02 2.56774E+00-3.05217E+02 6.62521E-01
 -1      2299-2.13733E+02-9.73289E+01-6.38053E+02 1.77133E+00-3.03910E+02 4.72383E+00
 -1      2300-2.16910E+02-9.76693E+01-6.38536E+02 1.16394E+00-3.03552E+02 7.20585E+00
 -1      2301-2.18400E+02-9.78228E+01-6.39610E+02 9.09305E-01-3.03594E+02 9.01822E+00
 -1      2302-2.19205E+02-9.78853E+01-6.40436E+02 8.36749E-01-3.03721E+02 1.03724E+01
 -1      2303-2.19395E+02-9.78958E+01-6.40992E+02 8.43930E-01-3.03832E+02 1.14554E+01
 -1      2304-2.18778E+02-9.78756E+01-6.41348E+02 9.74697E-01-3.03858E+02 1.25968E+01
 -1      2305-2.17428E+02-9.78735E+01-6.40948E+02 1.41598E+00-3.03572E+02 1.43216E+01
 -1      2306-2.16529E+02-9.78604E+01-6.37709E+02 2.32601E+00-3.02396E+02 1.70737E+01
 -1      2307-2.17975E+02-9.70792E+01-6.28308E+02 3.10147E+00-2.99454E+02 1.98506E+01
 -1      2308-2.17674E+02-9.36471E+01-6.15426E+02 8.22676E-01-2.95183E+02 1.82788E+01
 -1      2309-1.98554E+02-8.93110E+01-6.26174E+02-7.81590E+00-2.96107E+02 1.08468E+01
 -1      2310-1.56674E+02-9.85814E+01-6.92787E+02-7.98247E+00-3.17641E+02 2.14312E+01
 -1      2311-1.33925E+02-1.22697E+02-7.17468E+02 3.79427E+01-3.35311E+02 8.76539E+01
 -1      2312-1.17223E+02-7.42596E+01-4.58638E+02 8.97651E+01-2.16223E+02 1.54122E+02
 -1      2313-1.06649E+02-6.98870E+00-1.18438E+02 7.14136E+01-5.96105E+01 1.33773E+02
 -1      2314-9.07932E+01-5.96614E-01 9.72698E+00 2.39941E+01-8.80828E+00 7.10275E+01
 -1      2315-4.69585E+01-4.71552E+00 7.86448E+00 3.11398E+00-1.08371E+00 3.38748E+01
 -1      2316-9.15818E+01-4.35012E+01-4.57267E+02-9.40131E+01-1.81650E+02-1.62208E+02
 -1      2317-1.79238E+02-1.06615E+02-7.78321E+02-8.84853E+01-3.38225E+02-1.37542E+02
 -1      2318-2.34702E+02-1.28886E+02-9.68787E+02-3.95199E+01-4.24072E+02-7.42007E+01
 -1      2319-2.75773E+02-1.31019E+02-1.01067E+03-6.80434E+00-4.47385E+02-2.70972E+01
 -1      2320-3.06196E+02-1.31003E+02-1.00151E+03 3.73006E+00-4.47274E+02-5.36507E+00
 -1      2321-3.22137E+02-1.31489E+02-9.89643E+02 4.29976E+00-4.43692E+02 2.65291E+00
 -1      2322-3.28708E+02-1.32093E+02-9.84999E+02 2.88190E+00-4.41728E+02 6.09169E+00
 -1      2323-3.31319E+02-1.32463E+02-9.84622E+02 1.93017E+00-4.41182E+02 8.32455E+00
 -1      2324-3.32664E+02-1.32658E+02-9.85427E+02 1.55789E+00-4.41225E+02 1.00386E+01
 -1      2325-3.33464E+02-1.32755E+02-9.86196E+02 1.45566E+00-4.41398E+02 1.13360E+01
 -1      2326-3.33694E+02-1.32785E+02-9.86782E+02 1.45679E+00-4.41554E+02 1.23665E+01
 -1      2327-3.33105E+02-1.32759E+02-9.87188E+02 1.62796E+00-4.41600E+02 1.34553E+01
 -1      2328-3.31582E+02-1.32699E+02-9.86648E+02 2.27679E+00-4.41217E+02 1.51825E+01
 -1      2329-3.29989E+02-1.32565E+02-9.82481E+02 3.72637E+00-4.39567E+02 1.81799E+01
 -1      2330-3.30458E+02-1.31684E+02-9.70156E+02 5.17028E+00-4.35278E+02 2.16953E+01
 -1      2331-3.30498E+02-1.27976E+02-9.51274E+02 1.93074E+00-4.28756E+02 2.04056E+01
 -1      2332-3.13579E+02-1.21704E+02-9.59501E+02-1.26485E+01-4.29871E+02 8.23849E+00
 -1      2333-2.74331E+02-1.30447E+02-1.05577E+03-1.66888E+01-4.62582E+02 1.10760E+01
 -1      2334-2.60251E+02-1.70708E+02-1.12839E+03 5.62448E+01-4.94200E+02 9.57660E+01
 -1      2335-1.97963E+02-1.01201E+02-7.11244E+02 1.41886E+02-3.17416E+02 1.89050E+02
 -1      2336-1.29171E+02-5.25156E+00-1.62058E+02 1.10403E+02-8.23331E+01 1.55501E+02
 -1      2337-9.73424E+01-3.01281E+00 9.41746E+00 3.34986E+01-1.06650E+01 7.05932E+01
 -1      2338-4.58225E+01-6.00242E+00 8.05642E+00 3.03357E+00-7.07801E-01 3.10552E+01
 -1      2339-1.44062E+02-6.49742E+01-6.49932E+02-1.00843E+02-1.81608E+02-2.02038E+02
 -1      2340-2.85483E+02-1.46436E+02-1.15047E+03-9.34172E+01-3.45351E+02-1.68521E+02
 -1      2341-3.71580E+02-1.76411E+02-1.42583E+03-4.17044E+01-4.32548E+02-8.31946E+01
 -1      2342-4.25938E+02-1.78602E+02-1.48168E+03-6.93974E+00-4.55179E+02-2.50623E+01
 -1      2343-4.60532E+02-1.78841E+02-1.46771E+03 4.17188E+00-4.54376E+02-1.79945E+00
 -1      2344-4.76017E+02-1.79490E+02-1.45080E+03 4.71345E+00-4.50500E+02 5.24479E+00
 -1      2345-4.81430E+02-1.80191E+02-1.44369E+03 3.19327E+00-4.48442E+02 7.88140E+00
 -1      2346-4.83396E+02-1.80650E+02-1.44246E+03 2.18431E+00-4.47862E+02 9.76037E+00
 -1      2347-4.84534E+02-1.80925E+02-1.44306E+03 1.79303E+00-4.47886E+02 1.13547E+01
 -1      2348-4.85316E+02-1.81079E+02-1.44384E+03 1.68640E+00-4.48048E+02 1.26042E+01
 -1      2349-4.85571E+02-1.81138E+02-1.44450E+03 1.68670E+00-4.48200E+02 1.35983E+01
 -1      2350-4.84934E+02-1.81109E+02-1.44498E+03 1.86425E+00-4.48254E+02 1.46710E+01
 -1      2351-4.83069E+02-1.80982E+02-1.44424E+03 2.54535E+00-4.47895E+02 1.65129E+01
 -1      2352-4.80602E+02-1.80682E+02-1.43883E+03 4.08029E+00-4.46280E+02 2.00002E+01
 -1      2353-4.80416E+02-1.79646E+02-1.42265E+03 5.64259E+00-4.41927E+02 2.45704E+01
 -1      2354-4.81883E+02-1.75209E+02-1.39538E+03 2.18851E+00-4.35039E+02 2.33152E+01
 -1      2355-4.65403E+02-1.65838E+02-1.39859E+03-1.36017E+01-4.35839E+02 3.68675E+00
 -1      2356-4.22742E+02-1.76519E+02-1.53550E+03-1.81639E+01-4.70880E+02-3.47096E+00
 -1      2357-4.16408E+02-2.34223E+02-1.68097E+03 5.89420E+01-5.09629E+02 1.12260E+02
 -1      2358-3.01534E+02-1.37382E+02-1.05116E+03 1.50029E+02-3.26780E+02 2.48755E+02
 -1      2359-1.66184E+02-4.58678E+00-2.14804E+02 1.17039E+02-7.91931E+01 1.95720E+02
 -1      2360-1.16004E+02-4.66251E+00 1.00552E+01 3.51782E+01-8.55170E+00 7.46171E+01
 -1      2361-4.98674E+01-8.11375E+00 7.72111E+00 2.99059E+00-2.88787E-02 2.84421E+01
 -1      2362-1.87649E+02-6.71610E+01-8.26244E+02-8.28253E+01-1.42004E+02-2.42047E+02
 -1      2363-3.73563E+02-1.50234E+02-1.49851E+03-7.61595E+01-2.74323E+02-2.00458E+02
 -1      2364-4.85262E+02-1.78713E+02-1.85485E+03-3.40500E+01-3.44002E+02-9.31990E+01
 -1      2365-5.51457E+02-1.77845E+02-1.92345E+03-5.67326E+00-3.61509E+02-2.36416E+01
 -1      2366-5.90646E+02-1.77523E+02-1.90473E+03 3.46295E+00-3.60551E+02 1.51270E+00
 -1      2367-6.06362E+02-1.78494E+02-1.88320E+03 3.92297E+00-3.57358E+02 7.74111E+00
 -1      2368-6.10929E+02-1.79450E+02-1.87388E+03 2.69070E+00-3.55689E+02 9.62128E+00
 -1      2369-6.12332E+02-1.80045E+02-1.87192E+03 1.86924E+00-3.55210E+02 1.11591E+01
 -1      2370-6.13263E+02-1.80382E+02-1.87238E+03 1.54970E+00-3.55216E+02 1.26430E+01
 -1      2371-6.14009E+02-1.80559E+02-1.87318E+03 1.46258E+00-3.55334E+02 1.38551E+01
 -1      2372-6.14268E+02-1.80625E+02-1.87391E+03 1.46318E+00-3.55451E+02 1.48243E+01
 -1      2373-6.13562E+02-1.80599E+02-1.87446E+03 1.60855E+00-3.55496E+02 1.58971E+01
 -1      2374-6.11369E+02-1.80483E+02-1.87355E+03 2.16260E+00-3.55226E+02 1.78786E+01
 -1      2375-6.08182E+02-1.80257E+02-1.86701E+03 3.40954E+00-3.53975E+02 2.18740E+01
 -1      2376-6.07756E+02-1.79495E+02-1.84722E+03 4.67425E+00-3.50532E+02 2.74679E+01
 -1      2377-6.10855E+02-1.74567E+02-1.81175E+03 1.80543E+00-3.44959E+02 2.61149E+01
 -1      2378-5.93818E+02-1.61931E+02-1.80975E+03-1.11373E+01-3.45464E+02-1.02810E+00
 -1      2379-5.45798E+02-1.72495E+02-1.98720E+03-1.49244E+01-3.74663E+02-1.77839E+01
 -1      2380-5.47071E+02-2.45480E+02-2.20794E+03 4.76840E+01-4.09023E+02 1.29090E+02
 -1      2381-3.89637E+02-1.38945E+02-1.37764E+03 1.22209E+02-2.62956E+02 3.09318E+02
 -1      2382-1.98690E+02 7.48418E+00-2.60882E+02 9.56921E+01-6.08496E+01 2.37481E+02
 -1      2383-1.35242E+02-3.01594E+00 1.26042E+01 2.87731E+01-5.48329E+00 7.96730E+01
 -1      2384-5.52032E+01-9.60809E+00 7.59537E+00 2.48919E+00 3.09916E-01 2.61743E+01
 -1      2385-2.14769E+02-6.24190E+01-9.43678E+02-4.62348E+01-7.69093E+01-2.70351E+02
 -1      2386-4.28407E+02-1.40579E+02-1.73278E+03-4.24318E+01-1.49867E+02-2.23408E+02
 -1      2387-5.56761E+02-1.64839E+02-2.14562E+03-1.90056E+01-1.88323E+02-1.00695E+02
 -1      2388-6.31128E+02-1.61032E+02-2.22334E+03-3.19093E+00-1.97870E+02-2.28433E+01
 -1      2389-6.73820E+02-1.60190E+02-2.20150E+03 1.93605E+00-1.97291E+02 3.80295E+00
 -1      2390-6.89953E+02-1.61465E+02-2.17689E+03 2.20962E+00-1.95519E+02 9.50888E+00
 -1      2391-6.94026E+02-1.62665E+02-2.16610E+03 1.52831E+00-1.94595E+02 1.08667E+01
 -1      2392-6.95053E+02-1.63372E+02-2.16366E+03 1.07168E+00-1.94327E+02 1.21648E+01
 -1      2393-6.95834E+02-1.63749E+02-2.16402E+03 8.93239E-01-1.94325E+02 1.35719E+01
 -1      2394-6.96549E+02-1.63936E+02-2.16483E+03 8.44493E-01-1.94387E+02 1.47601E+01
 -1      2395-6.96804E+02-1.63999E+02-2.16561E+03 8.45108E-01-1.94449E+02 1.57146E+01
 -1      2396-6.96042E+02-1.63976E+02-2.16621E+03 9.26700E-01-1.94474E+02 1.67929E+01
 -1      2397-6.93615E+02-1.63886E+02-2.16518E+03 1.23511E+00-1.94329E+02 1.88806E+01
 -1      2398-6.89966E+02-1.63784E+02-2.15787E+03 1.92768E+00-1.93650E+02 2.32420E+01
 -1      2399-6.89516E+02-1.63345E+02-2.13564E+03 2.62154E+00-1.91771E+02 2.95470E+01
 -1      2400-6.93916E+02-1.58217E+02-2.09459E+03 9.99183E-01-1.88711E+02 2.80358E+01
 -1      2401-6.76332E+02-1.43351E+02-2.08924E+03-6.21651E+00-1.89000E+02-4.51524E+00
 -1      2402-6.23968E+02-1.52824E+02-2.29591E+03-8.32121E+00-2.05520E+02-2.77800E+01
 -1      2403-6.29400E+02-2.34665E+02-2.56825E+03 2.64005E+01-2.25177E+02 1.40996E+02
 -1      2404-4.46746E+02-1.28144E+02-1.60452E+03 6.79720E+01-1.45416E+02 3.52283E+02
 -1      2405-2.21022E+02 1.89708E+01-2.93158E+02 5.34106E+01-3.30466E+01 2.67763E+02
 -1      2406-1.49248E+02-1.18092E+00 1.49331E+01 1.61034E+01-2.64835E+00 8.37349E+01
 -1      2407-5.94328E+01-1.05289E+01 7.57635E+00 1.42437E+00 2.56406E-01 2.46495E+01
 -1      2408-2.23617E+02-5.96818E+01-9.83728E+02-1.09160E-10-1.81391E-10-2.80369E+02
 -1      2409-4.46305E+02-1.35047E+02-1.81302E+03-9.81684E-11-2.16608E-10-2.31609E+02
 -1      2410-5.80325E+02-1.57260E+02-2.24576E+03-5.38639E-11-2.66851E-10-1.03437E+02
 -1      2411-6.57597E+02-1.52293E+02-2.32680E+03-1.60773E-11-2.96523E-10-2.25961E+01
 -1      2412-7.01596E+02-1.51257E+02-2.30392E+03-1.75499E-13-3.12997E-10 4.61165E+00
 -1      2413-7.17925E+02-1.52655E+02-2.27826E+03 2.85269E-12-3.18299E-10 1.01413E+01
 -1      2414-7.21841E+02-1.53954E+02-2.26697E+03 2.66379E-12-3.21348E-10 1.13155E+01
 -1      2415-7.22737E+02-1.54703E+02-2.26436E+03 1.84401E-12-3.21155E-10 1.25284E+01
 -1      2416-7.23464E+02-1.55095E+02-2.26469E+03 1.19717E-12-3.21081E-10 1.39081E+01
 -1      2417-7.24166E+02-1.55283E+02-2.26551E+03 8.62317E-13-3.22094E-10 1.50880E+01
 -1      2418-7.24419E+02-1.55346E+02-2.26631E+03 7.92456E-13-3.22268E-10 1.60377E+01
 -1      2419-7.23635E+02-1.55322E+02-2.26692E+03 8.99822E-13-3.21194E-10 1.71187E+01
 -1      2420-7.21124E+02-1.55245E+02-2.26584E+03 1.31532E-12-3.22279E-10 1.92456E+01
 -1      2421-7.17319E+02-1.55198E+02-2.25826E+03 3.04613E-12-3.20069E-10 2.37374E+01
 -1      2422-7.16889E+02-1.54895E+02-2.23519E+03 4.51529E-12-3.16832E-10 3.02938E+01
 -1      2423-7.21789E+02-1.49723E+02-2.19222E+03-5.88363E-13-3.13676E-10 2.87003E+01
 -1      2424-7.04018E+02-1.34094E+02-2.18582E+03-1.31558E-11-3.12966E-10-5.79409E+00
 -1      2425-6.49988E+02-1.42961E+02-2.40296E+03 1.71291E-12-3.07157E-10-3.12826E+01
 -1      2426-6.56515E+02-2.27546E+02-2.69292E+03 7.83528E-11-2.33531E-10 1.45206E+02
 -1      2427-4.65993E+02-1.22237E+02-1.68402E+03 1.47848E-10-1.92319E-10 3.67494E+02
 -1      2428-2.28946E+02 2.34960E+01-3.04799E+02 1.26793E-10-1.46723E-10 2.78649E+02
 -1      2429-1.54333E+02-4.52327E-01 1.58229E+01 5.48335E-11-6.61861E-11 8.52867E+01
 -1      2430-6.10169E+01-1.08373E+01 7.58629E+00 1.08842E-11-3.20323E-11 2.41163E+01
 -1      2431-2.14769E+02-6.24190E+01-9.43678E+02 4.62348E+01 7.69093E+01-2.70351E+02
 -1      2432-4.28407E+02-1.40579E+02-1.73278E+03 4.24318E+01 1.49867E+02-2.23408E+02
 -1      2433-5.56761E+02-1.64839E+02-2.14562E+03 1.90056E+01 1.88323E+02-1.00695E+02
 -1      2434-6.31128E+02-1.61032E+02-2.22334E+03 3.19093E+00 1.97870E+02-2.28433E+01
 -1      2435-6.73820E+02-1.60190E+02-2.20150E+03-1.93605E+00 1.97291E+02 3.80295E+00
 -1      2436-6.89953E+02-1.61465E+02-2.17689E+03-2.20962E+00 1.95519E+02 9.50888E+00
 -1      2437-6.94026E+02-1.62665E+02-2.16610E+03-1.52831E+00 1.94595E+02 1.08667E+01
 -1      2438-6.95053E+02-1.63372E+02-2.16366E+03-1.07168E+00 1.94327E+02 1.21648E+01
 -1      2439-6.95834E+02-1.63749E+02-2.16402E+03-8.93239E-01 1.94325E+02 1.35719E+01
 -1      2440-6.96549E+02-1.63936E+02-2.16483E+03-8.44493E-01 1.94387E+02 1.47601E+01
 -1      2441-6.96804E+02-1.63999E+02-2.16561E+03-8.45108E-01 1.94449E+02 1.57146E+01
 -1      2442-6.96042E+02-1.63976E+02-2.16621E+03-9.26700E-01 1.94474E+02 1.67929E+01
 -1      2443-6.93615E+02-1.63886E+02-2.16518E+03-1.23511E+00 1.94329E+02 1.88806E+01
 -1      2444-6.89966E+02-1.63784E+02-2.15787E+03-1.92768E+00 1.93650E+02 2.32420E+01
 -1      2445-6.89516E+02-1.63345E+02-2.13564E+03-2.62154E+00 1.91771E+02 2.95470E+01
 -1      2446-6.93916E+02-1.58217E+02-2.09459E+03-9.99183E-01 1.88711E+02 2.80358E+01
 -1      2447-6.76332E+02-1.43351E+02-2.08924E+03 6.21651E+00 1.89000E+02-4.51524E+00
 -1      2448-6.23968E+02-1.52824E+02-2.29591E+03 8.32121E+00 2.05520E+02-2.77800E+01
 -1      2449-6.29400E+02-2.34665E+02-2.56825E+03-2.64005E+01 2.25177E+02 1.40996E+02
 -1      2450-4.46746E+02-1.28144E+02-1.60452E+03-6.79720E+01 1.45416E+02 3.52283E+02
 -1      2451-2.21022E+02 1.89708E+01-2.93158E+02-5.34106E+01 3.30466E+01 2.67763E+02
 -1      2452-1.49248E+02-1.18092E+00 1.49331E+01-1.61034E+01 2.64835E+00 8.37349E+01
 -1      2453-5.94328E+01-1.05289E+01 7.57635E+00-1.42437E+00-2.56406E-01 2.46495E+01
 -1      2454-1.87649E+02-6.71610E+01-8.26244E+02 8.28253E+01 1.42004E+02-2.42047E+02
 -1      2455-3.73563E+02-1.50234E+02-1.49851E+03 7.61595E+01 2.74323E+02-2.00458E+02
 -1      2456-4.85262E+02-1.78713E+02-1.85485E+03 3.40500E+01 3.44002E+02-9.31990E+01
 -1      2457-5.51457E+02-1.77845E+02-1.92345E+03 5.67326E+00 3.61509E+02-2.36416E+01
 -1      2458-5.90646E+02-1.77523E+02-1.90473E+03-3.46295E+00 3.60551E+02 1.51270E+00
 -1      2459-6.06362E+02-1.78494E+02-1.88320E+03-3.92297E+00 3.57358E+02 7.74111E+00
 -1      2460-6.10929E+02-1.79450E+02-1.87388E+03-2.69070E+00 3.55689E+02 9.62128E+00
 -1      2461-6.12332E+02-1.80045E+02-1.87192E+03-1.86924E+00 3.55210E+02 1.11591E+01
 -1      2462-6.13263E+02-1.80382E+02-1.87238E+03-1.54970E+00 3.55216E+02 1.26430E+01
 -1      2463-6.14009E+02-1.80559E+02-1.87318E+03-1.46258E+00 3.55334E+02 1.38551E+01
 -1      2464-6.14268E+02-1.80625E+02-1.87391E+03-1.46318E+00 3.55451E+02 1.48243E+01
 -1      2465-6.13562E+02-1.80599E+02-1.87446E+03-1.60855E+00 3.55496E+02 1.58971E+01
 -1      2466-6.11369E+02-1.80483E+02-1.87355E+03-2.16260E+00 3.55226E+02 1.78786E+01
 -1      2467-6.08182E+02-1.80257E+02-1.86701E+03-3.40954E+00 3.53975E+02 2.18740E+01
 -1      2468-6.07756E+02-1.79495E+02-1.84722E+03-4.67425E+00 3.50532E+02 2.74679E+01
 -1      2469-6.10855E+02-1.74567E+02-1.81175E+03-1.80543E+00 3.44959E+02 2.61149E+01
 -1      2470-5.93818E+02-1.61931E+02-1.80975E+03 1.11373E+01 3.45464E+02-1.02810E+00
 -1      2471-5.45798E+02-1.72495E+02-1.98720E+03 1.49244E+01 3.74663E+02-1.77839E+01
 -1      2472-5.47071E+02-2.45480E+02-2.20794E+03-4.76840E+01 4.09023E+02 1.29090E+02
 -1      2473-3.89637E+02-1.38945E+02-1.37764E+03-1.22209E+02 2.62956E+02 3.09318E+02
 -1      2474-1.98690E+02 7.48418E+00-2.60882E+02-9.56921E+01 6.08496E+01 2.37481E+02
 -1      2475-1.35242E+02-3.01594E+00 1.26042E+01-2.87731E+01 5.48329E+00 7.96730E+01
 -1      2476-5.52032E+01-9.60809E+00 7.59537E+00-2.48919E+00-3.09916E-01 2.61743E+01
 -1      2477-1.44062E+02-6.49742E+01-6.49932E+02 1.00843E+02 1.81608E+02-2.02038E+02
 -1      2478-2.85483E+02-1.46436E+02-1.15047E+03 9.34172E+01 3.45351E+02-1.68521E+02
 -1      2479-3.71580E+02-1.76411E+02-1.42583E+03 4.17044E+01 4.32548E+02-8.31946E+01
 -1      2480-4.25938E+02-1.78602E+02-1.48168E+03 6.93974E+00 4.55179E+02-2.50623E+01
 -1      2481-4.60532E+02-1.78841E+02-1.46771E+03-4.17188E+00 4.54376E+02-1.79945E+00
 -1      2482-4.76017E+02-1.79490E+02-1.45080E+03-4.71345E+00 4.50500E+02 5.24479E+00
 -1      2483-4.81430E+02-1.80191E+02-1.44369E+03-3.19327E+00 4.48442E+02 7.88140E+00
 -1      2484-4.83396E+02-1.80650E+02-1.44246E+03-2.18431E+00 4.47862E+02 9.76037E+00
 -1      2485-4.84534E+02-1.80925E+02-1.44306E+03-1.79303E+00 4.47886E+02 1.13547E+01
 -1      2486-4.85316E+02-1.81079E+02-1.44384E+03-1.68640E+00 4.48048E+02 1.26042E+01
 -1      2487-4.85571E+02-1.81138E+02-1.44450E+03-1.68670E+00 4.48200E+02 1.35983E+01
 -1      2488-4.84934E+02-1.81109E+02-1.44498E+03-1.86425E+00 4.48254E+02 1.46710E+01
 -1      2489-4.83069E+02-1.80982E+02-1.44424E+03-2.54535E+00 4.47895E+02 1.65129E+01
 -1      2490-4.80602E+02-1.80682E+02-1.43883E+03-4.08029E+00 4.46280E+02 2.00002E+01
 -1      2491-4.80416E+02-1.79646E+02-1.42265E+03-5.64259E+00 4.41927E+02 2.45704E+01
 -1      2492-4.81883E+02-1.75209E+02-1.39538E+03-2.18851E+00 4.35039E+02 2.33152E+01
 -1      2493-4.65403E+02-1.65838E+02-1.39859E+03 1.36017E+01 4.35839E+02 3.68675E+00
 -1      2494-4.22742E+02-1.76519E+02-1.53550E+03 1.81639E+01 4.70880E+02-3.47096E+00
 -1      2495-4.16408E+02-2.34223E+02-1.68097E+03-5.89420E+01 5.09629E+02 1.12260E+02
 -1      2496-3.01534E+02-1.37382E+02-1.05116E+03-1.50029E+02 3.26780E+02 2.48755E+02
 -1      2497-1.66184E+02-4.58678E+00-2.14804E+02-1.17039E+02 7.91931E+01 1.95720E+02
 -1      2498-1.16004E+02-4.66251E+00 1.00552E+01-3.51782E+01 8.55170E+00 7.46171E+01
 -1      2499-4.98674E+01-8.11375E+00 7.72111E+00-2.99059E+00 2.88787E-02 2.84421E+01
 -1      2500-9.15818E+01-4.35012E+01-4.57267E+02 9.40131E+01 1.81650E+02-1.62208E+02
 -1      2501-1.79238E+02-1.06615E+02-7.78321E+02 8.84853E+01 3.38225E+02-1.37542E+02
 -1      2502-2.34702E+02-1.28886E+02-9.68787E+02 3.95199E+01 4.24072E+02-7.42007E+01
 -1      2503-2.75773E+02-1.31019E+02-1.01067E+03 6.80434E+00 4.47385E+02-2.70972E+01
 -1      2504-3.06196E+02-1.31003E+02-1.00151E+03-3.73006E+00 4.47274E+02-5.36507E+00
 -1      2505-3.22137E+02-1.31489E+02-9.89643E+02-4.29976E+00 4.43692E+02 2.65291E+00
 -1      2506-3.28708E+02-1.32093E+02-9.84999E+02-2.88190E+00 4.41728E+02 6.09169E+00
 -1      2507-3.31319E+02-1.32463E+02-9.84622E+02-1.93017E+00 4.41182E+02 8.32455E+00
 -1      2508-3.32664E+02-1.32658E+02-9.85427E+02-1.55789E+00 4.41225E+02 1.00386E+01
 -1      2509-3.33464E+02-1.32755E+02-9.86196E+02-1.45566E+00 4.41398E+02 1.13360E+01
 -1      2510-3.33694E+02-1.32785E+02-9.86782E+02-1.45679E+00 4.41554E+02 1.23665E+01
 -1      2511-3.33105E+02-1.32759E+02-9.87188E+02-1.62796E+00 4.41600E+02 1.34553E+01
 -1      2512-3.31582E+02-1.32699E+02-9.86648E+02-2.27679E+00 4.41217E+02 1.51825E+01
 -1      2513-3.29989E+02-1.32565E+02-9.82481E+02-3.72637E+00 4.39567E+02 1.81799E+01
 -1      2514-3.30458E+02-1.31684E+02-9.70156E+02-5.17028E+00 4.35278E+02 2.16953E+01
 -1      2515-3.30498E+02-1.27976E+02-9.51274E+02-1.93074E+00 4.28756E+02 2.04056E+01
 -1      2516-3.13579E+02-1.21704E+02-9.59501E+02 1.26485E+01 4.29871E+02 8.23849E+00
 -1      2517-2.74331E+02-1.30447E+02-1.05577E+03 1.66888E+01 4.62582E+02 1.10760E+01
 -1      2518-2.60251E+02-1.70708E+02-1.12839E+03-5.62448E+01 4.94200E+02 9.57660E+01
 -1      2519-1.97963E+02-1.01201E+02-7.11244E+02-1.41886E+02 3.17416E+02 1.89050E+02
 -1      2520-1.29171E+02-5.25156E+00-1.62058E+02-1.10403E+02 8.23331E+01 1.55501E+02
 -1      2521-9.73424E+01-3.01281E+00 9.41746E+00-3.34986E+01 1.06650E+01 7.05932E+01
 -1      2522-4.58225E+01-6.00242E+00 8.05642E+00-3.03357E+00 7.07801E-01 3.10552E+01
 -1      2523-5.56574E+01-3.05960E+01-3.07359E+02 5.92487E+01 1.26540E+02-1.37927E+02
 -1      2524-9.61863E+01-7.67123E+01-4.95099E+02 5.67677E+01 2.30983E+02-1.20866E+02
 -1      2525-1.26121E+02-9.51415E+01-6.22195E+02 2.67895E+01 2.90339E+02-7.13219E+01
 -1      2526-1.58225E+02-9.67433E+01-6.53150E+02 5.54453E+00 3.07098E+02-3.01377E+01
 -1      2527-1.88102E+02-9.63664E+01-6.48037E+02-1.83952E+00 3.07501E+02-8.38130E+00
 -1      2528-2.05819E+02-9.67659E+01-6.40485E+02-2.56774E+00 3.05217E+02 6.62521E-01
 -1      2529-2.13733E+02-9.73289E+01-6.38053E+02-1.77133E+00 3.03910E+02 4.72383E+00
 -1      2530-2.16910E+02-9.76693E+01-6.38536E+02-1.16394E+00 3.03552E+02 7.20585E+00
 -1      2531-2.18400E+02-9.78228E+01-6.39610E+02-9.09305E-01 3.03594E+02 9.01822E+00
 -1      2532-2.19205E+02-9.78853E+01-6.40436E+02-8.36749E-01 3.03721E+02 1.03724E+01
 -1      2533-2.19395E+02-9.78958E+01-6.40992E+02-8.43930E-01 3.03832E+02 1.14554E+01
 -1      2534-2.18778E+02-9.78756E+01-6.41348E+02-9.74697E-01 3.03858E+02 1.25968E+01
 -1      2535-2.17428E+02-9.78735E+01-6.40948E+02-1.41598E+00 3.03572E+02 1.43216E+01
 -1      2536-2.16529E+02-9.78604E+01-6.37709E+02-2.32601E+00 3.02396E+02 1.70737E+01
 -1      2537-2.17975E+02-9.70792E+01-6.28308E+02-3.10147E+00 2.99454E+02 1.98506E+01
 -1      2538-2.17674E+02-9.36471E+01-6.15426E+02-8.22676E-01 2.95183E+02 1.82788E+01
 -1      2539-1.98554E+02-8.93110E+01-6.26174E+02 7.81590E+00 2.96107E+02 1.08468E+01
 -1      2540-1.56674E+02-9.85814E+01-6.92787E+02 7.98247E+00 3.17641E+02 2.14312E+01
 -1      2541-1.33925E+02-1.22697E+02-7.17468E+02-3.79427E+01 3.35311E+02 8.76539E+01
 -1      2542-1.17223E+02-7.42596E+01-4.58638E+02-8.97651E+01 2.16223E+02 1.54122E+02
 -1      2543-1.06649E+02-6.98870E+00-1.18438E+02-7.14136E+01 5.96105E+01 1.33773E+02
 -1      2544-9.07932E+01-5.96614E-01 9.72698E+00-2.39941E+01 8.80828E+00 7.10275E+01
 -1      2545-4.69585E+01-4.71552E+00 7.86448E+00-3.11398E+00 1.08371E+00 3.38748E+01
 -1      2546-2.14212E+01-2.21035E+01-2.16914E+02-7.50916E+01-8.76919E+01-7.85890E+01
 -1      2547-2.99387E+01-6.93083E+01-3.37975E+02-6.81733E+01-1.75965E+02-7.45048E+01
 -1      2548-4.83237E+01-8.15355E+01-4.19701E+02-2.97040E+01-2.15727E+02-4.04733E+01
 -1      2549-7.77403E+01-7.97110E+01-4.34416E+02-4.75671E+00-2.21800E+02-1.54063E+01
 -1      2550-1.08141E+02-7.76086E+01-4.25443E+02 3.12423E+00-2.18831E+02-3.70785E+00
 -1      2551-1.28080E+02-7.77246E+01-4.18501E+02 3.60904E+00-2.16410E+02 1.21449E+00
 -1      2552-1.37990E+02-7.83146E+01-4.16613E+02 2.60117E+00-2.15508E+02 4.19145E+00
 -1      2553-1.42553E+02-7.86945E+01-4.17097E+02 1.90575E+00-2.15349E+02 6.47817E+00
 -1      2554-1.44820E+02-7.88562E+01-4.17937E+02 1.63353E+00-2.15409E+02 8.18062E+00
 -1      2555-1.45993E+02-7.89087E+01-4.18533E+02 1.56372E+00-2.15493E+02 9.36961E+00
 -1      2556-1.46331E+02-7.89136E+01-4.18940E+02 1.57478E+00-2.15568E+02 1.02173E+01
 -1      2557-1.45784E+02-7.89153E+01-4.19295E+02 1.71622E+00-2.15632E+02 1.09715E+01
 -1      2558-1.44492E+02-7.89871E+01-4.19267E+02 2.21149E+00-2.15587E+02 1.20640E+01
 -1      2559-1.43495E+02-7.91275E+01-4.17258E+02 3.28169E+00-2.15038E+02 1.41710E+01
 -1      2560-1.44503E+02-7.85500E+01-4.10401E+02 4.40608E+00-2.12893E+02 1.73265E+01
 -1      2561-1.43717E+02-7.49487E+01-3.99241E+02 2.48169E+00-2.08016E+02 1.79046E+01
 -1      2562-1.23386E+02-6.87795E+01-4.05319E+02-8.40394E+00-2.05086E+02 9.93518E+00
 -1      2563-7.82081E+01-7.77938E+01-4.63471E+02-1.40972E+01-2.25936E+02 7.24252E+00
 -1      2564-6.17925E+01-1.19513E+02-4.97478E+02 4.35585E+01-2.67322E+02 5.03847E+01
 -1      2565-6.80497E+01-6.60659E+01-3.07752E+02 1.13359E+02-1.60239E+02 9.98390E+01
 -1      2566-8.53202E+01 1.06753E+01-5.58047E+01 8.56310E+01-1.86000E+01 8.05395E+01
 -1      2567-8.53765E+01 3.84907E+00 2.51710E+01 2.43177E+01 3.59634E+00 3.66134E+01
 -1      2568-4.60755E+01-4.46309E+00 8.26818E+00 2.76038E+00 9.52081E-01 1.81838E+01
 -1      2569-6.97546E+01-2.82343E+01-4.21349E+02-1.19196E+02-1.57374E+02-1.13404E+02
 -1      2570-1.37303E+02-9.13927E+01-7.24500E+02-1.06943E+02-3.20443E+02-1.03118E+02
 -1      2571-1.87625E+02-1.03602E+02-8.88411E+02-4.36914E+01-3.92441E+02-4.73394E+01
 -1      2572-2.29207E+02-1.00122E+02-9.18253E+02-5.15172E+00-4.03575E+02-1.26551E+01
 -1      2573-2.60653E+02-9.79292E+01-9.05554E+02 5.99999E+00-3.98380E+02-3.43927E-02
 -1      2574-2.78370E+02-9.81993E+01-8.93869E+02 6.10356E+00-3.94016E+02 3.92702E+00
 -1      2575-2.86635E+02-9.89222E+01-8.89498E+02 4.32214E+00-3.92330E+02 6.18173E+00
 -1      2576-2.90555E+02-9.93861E+01-8.89114E+02 3.22487E+00-3.92002E+02 8.14103E+00
 -1      2577-2.92682E+02-9.95972E+01-8.89772E+02 2.82595E+00-3.92094E+02 9.71137E+00
 -1      2578-2.93876E+02-9.96767E+01-8.90401E+02 2.72860E+00-3.92240E+02 1.08357E+01
 -1      2579-2.94279E+02-9.96932E+01-8.90899E+02 2.73457E+00-3.92375E+02 1.16373E+01
 -1      2580-2.93770E+02-9.96937E+01-8.91311E+02 2.91870E+00-3.92487E+02 1.23653E+01
 -1      2581-2.92270E+02-9.97548E+01-8.91024E+02 3.65063E+00-3.92383E+02 1.35288E+01
 -1      2582-2.90346E+02-9.98624E+01-8.87622E+02 5.35310E+00-3.91358E+02 1.60288E+01
 -1      2583-2.89846E+02-9.93215E+01-8.76916E+02 7.34765E+00-3.87531E+02 2.01387E+01
 -1      2584-2.89682E+02-9.56345E+01-8.58348E+02 4.80626E+00-3.78894E+02 2.12919E+01
 -1      2585-2.72728E+02-8.63284E+01-8.58094E+02-1.32957E+01-3.74080E+02 7.22427E+00
 -1      2586-2.28055E+02-9.25249E+01-9.50060E+02-2.77654E+01-4.10798E+02-7.88642E+00
 -1      2587-2.26615E+02-1.62335E+02-1.06348E+03 6.44112E+01-4.88888E+02 6.58625E+01
 -1      2588-1.71936E+02-8.57721E+01-6.49361E+02 1.81446E+02-2.94460E+02 1.60181E+02
 -1      2589-1.13215E+02 2.34469E+01-1.07937E+02 1.33474E+02-3.33925E+01 1.18053E+02
 -1      2590-9.55095E+01 2.41975E+00 1.98354E+01 3.28701E+01 5.54416E+00 3.83541E+01
 -1      2591-4.43488E+01-5.70772E+00 6.27421E+00 1.96326E+00 1.90237E+00 1.60613E+01
 -1      2592-1.31769E+02-4.02312E+01-6.61672E+02-1.28277E+02-1.80230E+02-1.63751E+02
 -1      2593-2.68881E+02-1.18977E+02-1.21481E+03-1.13435E+02-3.73894E+02-1.44365E+02
 -1      2594-3.54126E+02-1.32517E+02-1.47646E+03-4.57911E+01-4.58579E+02-5.72486E+01
 -1      2595-4.10537E+02-1.25420E+02-1.51650E+03-4.83185E+00-4.71530E+02-9.20642E+00
 -1      2596-4.46112E+02-1.22716E+02-1.49609E+03 6.80068E+00-4.65451E+02 4.74928E+00
 -1      2597-4.62745E+02-1.23195E+02-1.47816E+03 6.78396E+00-4.60341E+02 7.45954E+00
 -1      2598-4.69497E+02-1.24133E+02-1.47097E+03 4.85831E+00-4.58328E+02 8.76823E+00
 -1      2599-4.72663E+02-1.24746E+02-1.46972E+03 3.68928E+00-4.57907E+02 1.03386E+01
 -1      2600-4.74561E+02-1.25030E+02-1.47022E+03 3.26845E+00-4.57992E+02 1.17831E+01
 -1      2601-4.75742E+02-1.25142E+02-1.47090E+03 3.16590E+00-4.58152E+02 1.28611E+01
 -1      2602-4.76185E+02-1.25171E+02-1.47150E+03 3.16955E+00-4.58305E+02 1.36273E+01
 -1      2603-4.75642E+02-1.25173E+02-1.47202E+03 3.35722E+00-4.58431E+02 1.43426E+01
 -1      2604-4.73806E+02-1.25251E+02-1.47160E+03 4.12348E+00-4.58302E+02 1.56326E+01
 -1      2605-4.70854E+02-1.25345E+02-1.46680E+03 5.91883E+00-4.57105E+02 1.87433E+01
 -1      2606-4.69187E+02-1.24894E+02-1.45154E+03 8.07000E+00-4.52699E+02 2.41887E+01
 -1      2607-4.70923E+02-1.20850E+02-1.42228E+03 5.46645E+00-4.42757E+02 2.63656E+01
 -1      2608-4.54829E+02-1.06180E+02-1.40783E+03-1.42019E+01-4.37348E+02 3.83136E+00
 -1      2609-4.01971E+02-1.10805E+02-1.54365E+03-3.10609E+01-4.80759E+02-3.17812E+01
 -1      2610-4.27606E+02-2.15771E+02-1.81217E+03 6.68682E+01-5.76486E+02 8.57773E+01
 -1      2611-2.98027E+02-1.08610E+02-1.08701E+03 1.93721E+02-3.50408E+02 2.48475E+02
 -1      2612-1.46077E+02 4.16516E+01-1.31769E+02 1.42344E+02-3.75019E+01 1.71896E+02
 -1      2613-1.17514E+02 2.41094E+00 2.27002E+01 3.36962E+01 6.66357E+00 3.93640E+01
 -1      2614-4.73825E+01-7.95768E+00 4.17586E+00 1.48091E+00 2.39972E+00 1.33719E+01
 -1      2615-1.87747E+02-4.35079E+01-8.83167E+02-1.04859E+02-1.46870E+02-2.13726E+02
 -1      2616-3.87874E+02-1.26397E+02-1.68318E+03-9.24615E+01-3.09236E+02-1.86261E+02
 -1      2617-5.04748E+02-1.36344E+02-2.04155E+03-3.73351E+01-3.81434E+02-6.77717E+01
 -1      2618-5.75438E+02-1.24983E+02-2.09119E+03-3.88603E+00-3.92643E+02-6.14568E+00
 -1      2619-6.15909E+02-1.21634E+02-2.06321E+03 5.67192E+00-3.87664E+02 9.31684E+00
 -1      2620-6.32242E+02-1.22500E+02-2.03941E+03 5.68200E+00-3.83412E+02 1.08807E+01
 -1      2621-6.37804E+02-1.23752E+02-2.02963E+03 4.12282E+00-3.81710E+02 1.12873E+01
 -1      2622-6.40293E+02-1.24544E+02-2.02761E+03 3.17020E+00-3.81336E+02 1.24888E+01
 -1      2623-6.41960E+02-1.24903E+02-2.02799E+03 2.82499E+00-3.81394E+02 1.38231E+01
 -1      2624-6.43116E+02-1.25041E+02-2.02872E+03 2.74035E+00-3.81521E+02 1.48678E+01
 -1      2625-6.43581E+02-1.25074E+02-2.02943E+03 2.74310E+00-3.81645E+02 1.56094E+01
 -1      2626-6.42975E+02-1.25079E+02-2.03006E+03 2.89705E+00-3.81747E+02 1.63237E+01
 -1      2627-6.40795E+02-1.25198E+02-2.02950E+03 3.51907E+00-3.81632E+02 1.77577E+01
 -1      2628-6.36924E+02-1.25358E+02-2.02337E+03 4.96923E+00-3.80625E+02 2.14855E+01
 -1      2629-6.34475E+02-1.25201E+02-2.00380E+03 6.69643E+00-3.76978E+02 2.82349E+01
 -1      2630-6.38336E+02-1.20980E+02-1.96409E+03 4.50382E+00-3.68801E+02 3.13600E+01
 -1      2631-6.22270E+02-1.01563E+02-1.93551E+03-1.16659E+01-3.64624E+02 1.93104E-01
 -1      2632-5.59822E+02-1.02971E+02-2.11690E+03-2.55921E+01-4.02655E+02-5.62264E+01
 -1      2633-6.11665E+02-2.36051E+02-2.54599E+03 5.35173E+01-4.83223E+02 1.04475E+02
 -1      2634-4.16680E+02-1.11458E+02-1.52486E+03 1.57674E+02-2.98694E+02 3.37247E+02
 -1      2635-1.77262E+02 6.22914E+01-1.48939E+02 1.16649E+02-3.20813E+01 2.27174E+02
 -1      2636-1.41293E+02 3.08904E+00 2.77558E+01 2.74465E+01 6.13170E+00 4.05224E+01
 -1      2637-5.20368E+01-9.92830E+00 2.26707E+00 1.13037E+00 2.15373E+00 1.07445E+01
 -1      2638-2.16579E+02-3.63317E+01-1.01131E+03-5.78355E+01-7.77937E+01-2.46695E+02
 -1      2639-4.49591E+02-1.11393E+02-1.95945E+03-5.11260E+01-1.65242E+02-2.14876E+02
 -1      2640-5.85490E+02-1.14439E+02-2.38099E+03-2.07857E+01-2.05438E+02-7.54844E+01
 -1      2641-6.66030E+02-9.93697E+01-2.43787E+03-2.21264E+00-2.11892E+02-4.26233E+00
 -1      2642-7.10543E+02-9.56142E+01-2.40569E+03 3.15870E+00-2.09293E+02 1.24007E+01
 -1      2643-7.27148E+02-9.69311E+01-2.37849E+03 3.19781E+00-2.07007E+02 1.32317E+01
 -1      2644-7.32055E+02-9.85021E+01-2.36714E+03 2.34415E+00-2.06078E+02 1.30414E+01
 -1      2645-7.34104E+02-9.94485E+01-2.36463E+03 1.81692E+00-2.05868E+02 1.39931E+01
 -1      2646-7.35605E+02-9.98606E+01-2.36493E+03 1.62400E+00-2.05894E+02 1.52541E+01
 -1      2647-7.36732E+02-1.00009E+02-2.36568E+03 1.57637E+00-2.05962E+02 1.62782E+01
 -1      2648-7.37201E+02-1.00037E+02-2.36645E+03 1.57804E+00-2.06028E+02 1.70057E+01
 -1      2649-7.36537E+02-1.00044E+02-2.36714E+03 1.66486E+00-2.06081E+02 1.77226E+01
 -1      2650-7.34109E+02-1.00204E+02-2.36648E+03 2.00946E+00-2.06014E+02 1.92651E+01
 -1      2651-7.29672E+02-1.00497E+02-2.35952E+03 2.80646E+00-2.05459E+02 2.34021E+01
 -1      2652-7.26985E+02-1.00736E+02-2.33737E+03 3.74180E+00-2.03487E+02 3.10454E+01
 -1      2653-7.32811E+02-9.66716E+01-2.29145E+03 2.45355E+00-1.99124E+02 3.46524E+01
 -1      2654-7.16973E+02-7.43961E+01-2.25485E+03-6.54086E+00-1.97104E+02-2.84528E+00
 -1      2655-6.47520E+02-7.24046E+01-2.46937E+03-1.39952E+01-2.19061E+02-7.23521E+01
 -1      2656-7.09613E+02-2.17775E+02-2.99076E+03 2.92477E+01-2.61411E+02 1.16618E+02
 -1      2657-4.85273E+02-9.46490E+01-1.80396E+03 8.67099E+01-1.64827E+02 3.96303E+02
 -1      2658-1.99530E+02 7.85409E+01-1.64103E+02 6.47900E+01-1.87570E+01 2.65779E+02
 -1      2659-1.58341E+02 4.24498E+00 3.23830E+01 1.54231E+01 3.70233E+00 4.20530E+01
 -1      2660-5.59018E+01-1.11451E+01 1.02770E+00 6.46196E-01 1.24092E+00 8.81352E+00
 -1      2661-2.23787E+02-3.17696E+01-1.04841E+03-9.46891E-11-4.51630E-11-2.57565E+02
 -1      2662-4.65030E+02-1.01629E+02-2.04024E+03-9.02183E-11 5.08660E-11-2.24595E+02
 -1      2663-6.06812E+02-1.01369E+02-2.48244E+03-6.06125E-11 5.21787E-11-7.82550E+01
 -1      2664-6.90837E+02-8.48853E+01-2.54211E+03-2.23198E-11 3.78719E-11-3.66114E+00
 -1      2665-7.36936E+02-8.10067E+01-2.50880E+03-2.72468E-12 2.13465E-11 1.34627E+01
 -1      2666-7.53755E+02-8.25250E+01-2.48062E+03 2.49267E-12 1.46692E-11 1.40526E+01
 -1      2667-7.58470E+02-8.42299E+01-2.46879E+03 2.91084E-12 1.06155E-11 1.36621E+01
 -1      2668-7.60372E+02-8.52365E+01-2.46613E+03 2.38910E-12 1.10774E-11 1.45282E+01
 -1      2669-7.61813E+02-8.56675E+01-2.46639E+03 1.96657E-12 1.04432E-11 1.57638E+01
 -1      2670-7.62928E+02-8.58180E+01-2.46715E+03 1.53190E-12 9.40581E-12 1.67810E+01
 -1      2671-7.63395E+02-8.58438E+01-2.46794E+03 1.30781E-12 9.61897E-12 1.75039E+01
 -1      2672-7.62707E+02-8.58504E+01-2.46863E+03 1.51805E-12 1.00258E-11 1.82225E+01
 -1      2673-7.60191E+02-8.60291E+01-2.46794E+03 2.11645E-12 9.55325E-12 1.98039E+01
 -1      2674-7.55566E+02-8.63807E+01-2.46071E+03 3.59263E-12 1.01803E-11 2.40779E+01
 -1      2675-7.52890E+02-8.68089E+01-2.43782E+03 4.59993E-12 1.15090E-11 3.20267E+01
 -1      2676-7.59521E+02-8.28346E+01-2.38999E+03-1.65221E-12 1.06155E-11 3.57562E+01
 -1      2677-7.43912E+02-5.97041E+01-2.35133E+03-1.29873E-11 8.46434E-12-4.07067E+00
 -1      2678-6.72008E+02-5.63939E+01-2.57776E+03 2.62264E-11 1.94404E-11-7.75981E+01
 -1      2679-7.34821E+02-2.03852E+02-3.12394E+03 8.81334E-11 1.52376E-10 1.20680E+02
 -1      2680-5.05025E+02-8.45524E+01-1.89211E+03 1.17829E-10 3.65112E-11 4.15842E+02
 -1      2681-2.07825E+02 8.42776E+01-1.71178E+02 1.23258E-10-1.04196E-10 2.79150E+02
 -1      2682-1.64374E+02 4.82804E+00 3.42742E+01 7.19096E-11-4.73827E-11 4.28403E+01
 -1      2683-5.73808E+01-1.15408E+01 6.34631E-01 1.49327E-11-2.71904E-11 8.09272E+00
 -1      2684-2.16579E+02-3.63317E+01-1.01131E+03 5.78355E+01 7.77937E+01-2.46695E+02
 -1      2685-4.49591E+02-1.11393E+02-1.95945E+03 5.11260E+01 1.65242E+02-2.14876E+02
 -1      2686-5.85490E+02-1.14439E+02-2.38099E+03 2.07857E+01 2.05438E+02-7.54844E+01
 -1      2687-6.66030E+02-9.93697E+01-2.43787E+03 2.21264E+00 2.11892E+02-4.26233E+00
 -1      2688-7.10543E+02-9.56142E+01-2.40569E+03-3.15870E+00 2.09293E+02 1.24007E+01
 -1      2689-7.27148E+02-9.69311E+01-2.37849E+03-3.19781E+00 2.07007E+02 1.32317E+01
 -1      2690-7.32055E+02-9.85021E+01-2.36714E+03-2.34415E+00 2.06078E+02 1.30414E+01
 -1      2691-7.34104E+02-9.94485E+01-2.36463E+03-1.81692E+00 2.05868E+02 1.39931E+01
 -1      2692-7.35605E+02-9.98606E+01-2.36493E+03-1.62400E+00 2.05894E+02 1.52541E+01
 -1      2693-7.36732E+02-1.00009E+02-2.36568E+03-1.57637E+00 2.05962E+02 1.62782E+01
 -1      2694-7.37201E+02-1.00037E+02-2.36645E+03-1.57804E+00 2.06028E+02 1.70057E+01
 -1      2695-7.36537E+02-1.00044E+02-2.36714E+03-1.66486E+00 2.06081E+02 1.77226E+01
 -1      2696-7.34109E+02-1.00204E+02-2.36648E+03-2.00946E+00 2.06014E+02 1.92651E+01
 -1      2697-7.29672E+02-1.00497E+02-2.35952E+03-2.80646E+00 2.05459E+02 2.34021E+01
 -1      2698-7.26985E+02-1.00736E+02-2.33737E+03-3.74180E+00 2.03487E+02 3.10454E+01
 -1      2699-7.32811E+02-9.66716E+01-2.29145E+03-2.45355E+00 1.99124E+02 3.46524E+01
 -1      2700-7.16973E+02-7.43961E+01-2.25485E+03 6.54086E+00 1.97104E+02-2.84528E+00
 -1      2701-6.47520E+02-7.24046E+01-2.46937E+03 1.39952E+01 2.19061E+02-7.23521E+01
 -1      2702-7.09613E+02-2.17775E+02-2.99076E+03-2.92477E+01 2.61411E+02 1.16618E+02
 -1      2703-4.85273E+02-9.46490E+01-1.80396E+03-8.67099E+01 1.64827E+02 3.96303E+02
 -1      2704-1.99530E+02 7.85409E+01-1.64103E+02-6.47900E+01 1.87570E+01 2.65779E+02
 -1      2705-1.58341E+02 4.24498E+00 3.23830E+01-1.54231E+01-3.70233E+00 4.20530E+01
 -1      2706-5.59018E+01-1.11451E+01 1.02770E+00-6.46196E-01-1.24092E+00 8.81352E+00
 -1      2707-1.87747E+02-4.35079E+01-8.83167E+02 1.04859E+02 1.46870E+02-2.13726E+02
 -1      2708-3.87874E+02-1.26397E+02-1.68318E+03 9.24615E+01 3.09236E+02-1.86261E+02
 -1      2709-5.04748E+02-1.36344E+02-2.04155E+03 3.73351E+01 3.81434E+02-6.77717E+01
 -1      2710-5.75438E+02-1.24983E+02-2.09119E+03 3.88603E+00 3.92643E+02-6.14568E+00
 -1      2711-6.15909E+02-1.21634E+02-2.06321E+03-5.67192E+00 3.87664E+02 9.31684E+00
 -1      2712-6.32242E+02-1.22500E+02-2.03941E+03-5.68200E+00 3.83412E+02 1.08807E+01
 -1      2713-6.37804E+02-1.23752E+02-2.02963E+03-4.12282E+00 3.81710E+02 1.12873E+01
 -1      2714-6.40293E+02-1.24544E+02-2.02761E+03-3.17020E+00 3.81336E+02 1.24888E+01
 -1      2715-6.41960E+02-1.24903E+02-2.02799E+03-2.82499E+00 3.81394E+02 1.38231E+01
 -1      2716-6.43116E+02-1.25041E+02-2.02872E+03-2.74035E+00 3.81521E+02 1.48678E+01
 -1      2717-6.43581E+02-1.25074E+02-2.02943E+03-2.74310E+00 3.81645E+02 1.56094E+01
 -1      2718-6.42975E+02-1.25079E+02-2.03006E+03-2.89705E+00 3.81747E+02 1.63237E+01
 -1      2719-6.40795E+02-1.25198E+02-2.02950E+03-3.51907E+00 3.81632E+02 1.77577E+01
 -1      2720-6.36924E+02-1.25358E+02-2.02337E+03-4.96923E+00 3.80625E+02 2.14855E+01
 -1      2721-6.34475E+02-1.25201E+02-2.00380E+03-6.69643E+00 3.76978E+02 2.82349E+01
 -1      2722-6.38336E+02-1.20980E+02-1.96409E+03-4.50382E+00 3.68801E+02 3.13600E+01
 -1      2723-6.22270E+02-1.01563E+02-1.93551E+03 1.16659E+01 3.64624E+02 1.93104E-01
 -1      2724-5.59822E+02-1.02971E+02-2.11690E+03 2.55921E+01 4.02655E+02-5.62264E+01
 -1      2725-6.11665E+02-2.36051E+02-2.54599E+03-5.35173E+01 4.83223E+02 1.04475E+02
 -1      2726-4.16680E+02-1.11458E+02-1.52486E+03-1.57674E+02 2.98694E+02 3.37247E+02
 -1      2727-1.77262E+02 6.22914E+01-1.48939E+02-1.16649E+02 3.20813E+01 2.27174E+02
 -1      2728-1.41293E+02 3.08904E+00 2.77558E+01-2.74465E+01-6.13170E+00 4.05224E+01
 -1      2729-5.20368E+01-9.92830E+00 2.26707E+00-1.13037E+00-2.15373E+00 1.07445E+01
 -1      2730-1.31769E+02-4.02312E+01-6.61672E+02 1.28277E+02 1.80230E+02-1.63751E+02
 -1      2731-2.68881E+02-1.18977E+02-1.21481E+03 1.13435E+02 3.73894E+02-1.44365E+02
 -1      2732-3.54126E+02-1.32517E+02-1.47646E+03 4.57911E+01 4.58579E+02-5.72486E+01
 -1      2733-4.10537E+02-1.25420E+02-1.51650E+03 4.83185E+00 4.71530E+02-9.20642E+00
 -1      2734-4.46112E+02-1.22716E+02-1.49609E+03-6.80068E+00 4.65451E+02 4.74928E+00
 -1      2735-4.62745E+02-1.23195E+02-1.47816E+03-6.78396E+00 4.60341E+02 7.45954E+00
 -1      2736-4.69497E+02-1.24133E+02-1.47097E+03-4.85831E+00 4.58328E+02 8.76823E+00
 -1      2737-4.72663E+02-1.24746E+02-1.46972E+03-3.68928E+00 4.57907E+02 1.03386E+01
 -1      2738-4.74561E+02-1.25030E+02-1.47022E+03-3.26845E+00 4.57992E+02 1.17831E+01
 -1      2739-4.75742E+02-1.25142E+02-1.47090E+03-3.16590E+00 4.58152E+02 1.28611E+01
 -1      2740-4.76185E+02-1.25171E+02-1.47150E+03-3.16955E+00 4.58305E+02 1.36273E+01
 -1      2741-4.75642E+02-1.25173E+02-1.47202E+03-3.35722E+00 4.58431E+02 1.43426E+01
 -1      2742-4.73806E+02-1.25251E+02-1.47160E+03-4.12348E+00 4.58302E+02 1.56326E+01
 -1      2743-4.70854E+02-1.25345E+02-1.46680E+03-5.91883E+00 4.57105E+02 1.87433E+01
 -1      2744-4.69187E+02-1.24894E+02-1.45154E+03-8.07000E+00 4.52699E+02 2.41887E+01
 -1      2745-4.70923E+02-1.20850E+02-1.42228E+03-5.46645E+00 4.42757E+02 2.63656E+01
 -1      2746-4.54829E+02-1.06180E+02-1.40783E+03 1.42019E+01 4.37348E+02 3.83136E+00
 -1      2747-4.01971E+02-1.10805E+02-1.54365E+03 3.10609E+01 4.80759E+02-3.17812E+01
 -1      2748-4.27606E+02-2.15771E+02-1.81217E+03-6.68682E+01 5.76486E+02 8.57773E+01
 -1      2749-2.98027E+02-1.08610E+02-1.08701E+03-1.93721E+02 3.50408E+02 2.48475E+02
 -1      2750-1.46077E+02 4.16516E+01-1.31769E+02-1.42344E+02 3.75019E+01 1.71896E+02
 -1      2751-1.17514E+02 2.41094E+00 2.27002E+01-3.36962E+01-6.66357E+00 3.93640E+01
 -1      2752-4.73825E+01-7.95768E+00 4.17586E+00-1.48091E+00-2.39972E+00 1.33719E+01
 -1      2753-6.97546E+01-2.82343E+01-4.21349E+02 1.19196E+02 1.57374E+02-1.13404E+02
 -1      2754-1.37303E+02-9.13927E+01-7.24500E+02 1.06943E+02 3.20443E+02-1.03118E+02
 -1      2755-1.87625E+02-1.03602E+02-8.88411E+02 4.36914E+01 3.92441E+02-4.73394E+01
 -1      2756-2.29207E+02-1.00122E+02-9.18253E+02 5.15172E+00 4.03575E+02-1.26551E+01
 -1      2757-2.60653E+02-9.79292E+01-9.05554E+02-5.99999E+00 3.98380E+02-3.43927E-02
 -1      2758-2.78370E+02-9.81993E+01-8.93869E+02-6.10356E+00 3.94016E+02 3.92702E+00
 -1      2759-2.86635E+02-9.89222E+01-8.89498E+02-4.32214E+00 3.92330E+02 6.18173E+00
 -1      2760-2.90555E+02-9.93861E+01-8.89114E+02-3.22487E+00 3.92002E+02 8.14103E+00
 -1      2761-2.92682E+02-9.95972E+01-8.89772E+02-2.82595E+00 3.92094E+02 9.71137E+00
 -1      2762-2.93876E+02-9.96767E+01-8.90401E+02-2.72860E+00 3.92240E+02 1.08357E+01
 -1      2763-2.94279E+02-9.96932E+01-8.90899E+02-2.73457E+00 3.92375E+02 1.16373E+01
 -1      2764-2.93770E+02-9.96937E+01-8.91311E+02-2.91870E+00 3.92487E+02 1.23653E+01
 -1      2765-2.92270E+02-9.97548E+01-8.91024E+02-3.65063E+00 3.92383E+02 1.35288E+01
 -1      2766-2.90346E+02-9.98624E+01-8.87622E+02-5.35310E+00 3.91358E+02 1.60288E+01
 -1      2767-2.89846E+02-9.93215E+01-8.76916E+02-7.34765E+00 3.87531E+02 2.01387E+01
 -1      2768-2.89682E+02-9.56345E+01-8.58348E+02-4.80626E+00 3.78894E+02 2.12919E+01
 -1      2769-2.72728E+02-8.63284E+01-8.58094E+02 1.32957E+01 3.74080E+02 7.22427E+00
 -1      2770-2.28055E+02-9.25249E+01-9.50060E+02 2.77654E+01 4.10798E+02-7.88642E+00
 -1      2771-2.26615E+02-1.62335E+02-1.06348E+03-6.44112E+01 4.88888E+02 6.58625E+01
 -1      2772-1.71936E+02-8.57721E+01-6.49361E+02-1.81446E+02 2.94460E+02 1.60181E+02
 -1      2773-1.13215E+02 2.34469E+01-1.07937E+02-1.33474E+02 3.33925E+01 1.18053E+02
 -1      2774-9.55095E+01 2.41975E+00 1.98354E+01-3.28701E+01-5.54416E+00 3.83541E+01
 -1      2775-4.43488E+01-5.70772E+00 6.27421E+00-1.96326E+00-1.90237E+00 1.60613E+01
 -1      2776-2.14212E+01-2.21035E+01-2.16914E+02 7.50916E+01 8.76919E+01-7.85890E+01
 -1      2777-2.99387E+01-6.93083E+01-3.37975E+02 6.81733E+01 1.75965E+02-7.45048E+01
 -1      2778-4.83237E+01-8.15355E+01-4.19701E+02 2.97040E+01 2.15727E+02-4.04733E+01
 -1      2779-7.77403E+01-7.97110E+01-4.34416E+02 4.75671E+00 2.21800E+02-1.54063E+01
 -1      2780-1.08141E+02-7.76086E+01-4.25443E+02-3.12423E+00 2.18831E+02-3.70785E+00
 -1      2781-1.28080E+02-7.77246E+01-4.18501E+02-3.60904E+00 2.16410E+02 1.21449E+00
 -1      2782-1.37990E+02-7.83146E+01-4.16613E+02-2.60117E+00 2.15508E+02 4.19145E+00
 -1      2783-1.42553E+02-7.86945E+01-4.17097E+02-1.90575E+00 2.15349E+02 6.47817E+00
 -1      2784-1.44820E+02-7.88562E+01-4.17937E+02-1.63353E+00 2.15409E+02 8.18062E+00
 -1      2785-1.45993E+02-7.89087E+01-4.18533E+02-1.56372E+00 2.15493E+02 9.36961E+00
 -1      2786-1.46331E+02-7.89136E+01-4.18940E+02-1.57478E+00 2.15568E+02 1.02173E+01
 -1      2787-1.45784E+02-7.89153E+01-4.19295E+02-1.71622E+00 2.15632E+02 1.09715E+01
 -1      2788-1.44492E+02-7.89871E+01-4.19267E+02-2.21149E+00 2.15587E+02 1.20640E+01
 -1      2789-1.43495E+02-7.91275E+01-4.17258E+02-3.28169E+00 2.15038E+02 1.41710E+01
 -1      2790-1.44503E+02-7.85500E+01-4.10401E+02-4.40608E+00 2.12893E+02 1.73265E+01
 -1      2791-1.43717E+02-7.49487E+01-3.99241E+02-2.48169E+00 2.08016E+02 1.79046E+01
 -1      2792-1.23386E+02-6.87795E+01-4.05319E+02 8.40394E+00 2.05086E+02 9.93518E+00
 -1      2793-7.82081E+01-7.77938E+01-4.63471E+02 1.40972E+01 2.25936E+02 7.24252E+00
 -1      2794-6.17925E+01-1.19513E+02-4.97478E+02-4.35585E+01 2.67322E+02 5.03847E+01
 -1      2795-6.80497E+01-6.60659E+01-3.07752E+02-1.13359E+02 1.60239E+02 9.98390E+01
 -1      2796-8.53202E+01 1.06753E+01-5.58047E+01-8.56310E+01 1.86000E+01 8.05395E+01
 -1      2797-8.53765E+01 3.84907E+00 2.51710E+01-2.43177E+01-3.59634E+00 3.66134E+01
 -1      2798-4.60755E+01-4.46309E+00 8.26818E+00-2.76038E+00-9.52081E-01 1.81838E+01
 -1      2799 1.40749E-01-3.99623E+01-1.21291E+02-7.10450E+01-5.03727E+01-2.45673E+01
 -1      2800-1.93110E-01-1.16998E+02-1.81914E+02-6.05184E+01-1.11373E+02-2.94064E+01
 -1      2801-1.18826E+01-1.32617E+02-2.23343E+02-2.21622E+01-1.31882E+02-1.45566E+01
 -1      2802-3.51788E+01-1.29806E+02-2.27764E+02-8.93792E-01-1.29912E+02-4.24833E+00
 -1      2803-5.95836E+01-1.25932E+02-2.20162E+02 4.75605E+00-1.25452E+02-6.04743E-01
 -1      2804-7.72447E+01-1.24827E+02-2.15281E+02 4.61065E+00-1.23492E+02 1.27422E+00
 -1      2805-8.77244E+01-1.24931E+02-2.14097E+02 3.57736E+00-1.23057E+02 3.25476E+00
 -1      2806-9.35174E+01-1.25203E+02-2.14482E+02 2.97859E+00-1.23087E+02 5.10903E+00
 -1      2807-9.66610E+01-1.25383E+02-2.15055E+02 2.77567E+00-1.23170E+02 6.49084E+00
 -1      2808-9.82738E+01-1.25467E+02-2.15438E+02 2.73650E+00-1.23225E+02 7.39889E+00
 -1      2809-9.88532E+01-1.25508E+02-2.15701E+02 2.74739E+00-1.23271E+02 7.97779E+00
 -1      2810-9.85910E+01-1.25559E+02-2.15969E+02 2.85067E+00-1.23348E+02 8.38553E+00
 -1      2811-9.76179E+01-1.25628E+02-2.16059E+02 3.24888E+00-1.23456E+02 8.91663E+00
 -1      2812-9.61861E+01-1.25566E+02-2.14940E+02 4.19402E+00-1.23378E+02 1.02265E+01
 -1      2813-9.46707E+01-1.24475E+02-2.10890E+02 5.37848E+00-1.22184E+02 1.28982E+01
 -1      2814-9.13818E+01-1.20316E+02-2.03978E+02 4.62332E+00-1.17814E+02 1.46043E+01
 -1      2815-7.64596E+01-1.13666E+02-2.06668E+02-5.23324E+00-1.12111E+02 8.82288E+00
 -1      2816-4.52804E+01-1.21912E+02-2.47423E+02-1.87818E+01-1.28899E+02 6.17291E-01
 -1      2817-4.47047E+01-1.95180E+02-2.68744E+02 3.59008E+01-1.80061E+02 1.80132E+01
 -1      2818-4.69617E+01-1.03979E+02-1.63403E+02 1.09490E+02-9.71881E+01 4.19856E+01
 -1      2819-5.32246E+01 2.17847E+01-1.94036E+01 7.54496E+01 1.16550E+01 2.98515E+01
 -1      2820-5.82657E+01 4.92545E+00 2.48123E+01 1.47013E+01 1.07797E+01 9.91426E+00
 -1      2821-3.11290E+01-2.33905E+00 6.32764E+00 7.75212E-01 1.48987E+00 6.37348E+00
 -1      2822-4.48921E+01-4.43830E+01-3.12412E+02-1.19861E+02-1.34029E+02-6.19212E+01
 -1      2823-9.87141E+01-1.38393E+02-5.46483E+02-1.00461E+02-2.98309E+02-6.19130E+01
 -1      2824-1.41084E+02-1.53976E+02-6.61052E+02-3.32426E+01-3.53395E+02-2.26528E+01
 -1      2825-1.76950E+02-1.48761E+02-6.76868E+02 8.50824E-01-3.52915E+02-1.52449E+00
 -1      2826-2.02039E+02-1.44444E+02-6.66017E+02 8.87804E+00-3.43889E+02 3.65776E+00
 -1      2827-2.17010E+02-1.43259E+02-6.56856E+02 8.05279E+00-3.39283E+02 4.78677E+00
 -1      2828-2.25764E+02-1.43482E+02-6.53531E+02 6.18388E+00-3.37942E+02 6.07175E+00
 -1      2829-2.30924E+02-1.43846E+02-6.53203E+02 5.20478E+00-3.37827E+02 7.58595E+00
 -1      2830-2.33949E+02-1.44073E+02-6.53659E+02 4.89679E+00-3.37962E+02 8.82561E+00
 -1      2831-2.35592E+02-1.44173E+02-6.54100E+02 4.84287E+00-3.38088E+02 9.67009E+00
 -1      2832-2.36244E+02-1.44218E+02-6.54462E+02 4.84955E+00-3.38204E+02 1.02129E+01
 -1      2833-2.36043E+02-1.44278E+02-6.54789E+02 4.98645E+00-3.38358E+02 1.06179E+01
 -1      2834-2.34903E+02-1.44371E+02-6.54651E+02 5.58762E+00-3.38490E+02 1.12581E+01
 -1      2835-2.32602E+02-1.44328E+02-6.52294E+02 7.16573E+00-3.37983E+02 1.30154E+01
 -1      2836-2.29175E+02-1.43053E+02-6.44601E+02 9.25717E+00-3.34957E+02 1.66470E+01
 -1      2837-2.26562E+02-1.38928E+02-6.31613E+02 8.68463E+00-3.25194E+02 1.89052E+01
 -1      2838-2.17036E+02-1.29153E+02-6.24450E+02-7.32665E+00-3.14024E+02 7.32063E+00
 -1      2839-1.85021E+02-1.35050E+02-6.94225E+02-3.86555E+01-3.47515E+02-1.47068E+01
 -1      2840-1.98985E+02-2.41049E+02-8.07677E+02 5.42029E+01-4.76424E+02 3.76582E+01
 -1      2841-1.44249E+02-1.26473E+02-4.79389E+02 1.89176E+02-2.63924E+02 1.12383E+02
 -1      2842-7.95921E+01 3.83880E+01-5.51263E+01 1.24251E+02 1.69484E+01 7.29389E+01
 -1      2843-6.73738E+01 4.54021E+00 1.97264E+01 1.73202E+01 1.64668E+01 1.31634E+01
 -1      2844-2.73816E+01-2.93935E+00 3.02698E+00-4.11228E-01 2.75090E+00 5.37663E+00
 -1      2845-1.36937E+02-6.80946E+01-6.39597E+02-1.34513E+02-1.83596E+02-1.22631E+02
 -1      2846-3.05020E+02-1.99962E+02-1.26529E+03-1.11499E+02-4.15946E+02-1.11208E+02
 -1      2847-3.89556E+02-2.16901E+02-1.49258E+03-3.57088E+01-4.95310E+02-3.09500E+01
 -1      2848-4.41858E+02-2.07329E+02-1.51403E+03 1.68486E+00-4.97753E+02 3.79513E+00
 -1      2849-4.68635E+02-2.01464E+02-1.49084E+03 1.01980E+01-4.86805E+02 1.03089E+01
 -1      2850-4.80668E+02-1.99772E+02-1.47282E+03 9.20560E+00-4.80742E+02 9.90080E+00
 -1      2851-4.87400E+02-2.00083E+02-1.46603E+03 7.13384E+00-4.78776E+02 1.01632E+01
 -1      2852-4.91715E+02-2.00581E+02-1.46477E+03 6.05876E+00-4.78502E+02 1.12701E+01
 -1      2853-4.94547E+02-2.00884E+02-1.46516E+03 5.72026E+00-4.78637E+02 1.23882E+01
 -1      2854-4.96216E+02-2.01013E+02-1.46573E+03 5.66012E+00-4.78796E+02 1.31932E+01
 -1      2855-4.96949E+02-2.01072E+02-1.46627E+03 5.66472E+00-4.78949E+02 1.37056E+01
 -1      2856-4.96782E+02-2.01156E+02-1.46680E+03 5.81076E+00-4.79134E+02 1.41018E+01
 -1      2857-4.95336E+02-2.01308E+02-1.46655E+03 6.45522E+00-4.79226E+02 1.48878E+01
 -1      2858-4.91978E+02-2.01300E+02-1.46263E+03 8.17720E+00-4.78350E+02 1.73021E+01
 -1      2859-4.85874E+02-1.99443E+02-1.44830E+03 1.04390E+01-4.74218E+02 2.26479E+01
 -1      2860-4.83351E+02-1.94762E+02-1.42133E+03 1.00908E+01-4.61633E+02 2.59893E+01
 -1      2861-4.77301E+02-1.79058E+02-1.38854E+03-7.42383E+00-4.48420E+02 8.50388E+00
 -1      2862-4.29629E+02-1.77292E+02-1.48489E+03-4.59260E+01-4.91002E+02-4.79157E+01
 -1      2863-5.22473E+02-3.53197E+02-1.93322E+03 5.68245E+01-6.69417E+02 5.92456E+01
 -1      2864-3.28642E+02-1.74032E+02-1.08892E+03 2.13390E+02-3.81597E+02 2.30917E+02
 -1      2865-9.91636E+01 7.05052E+01-1.66865E+01 1.38949E+02 1.64281E+01 1.35702E+02
 -1      2866-9.17800E+01 2.35344E+00 1.44246E+01 1.65050E+01 1.67937E+01 9.18618E+00
 -1      2867-2.59322E+01-4.04558E+00-3.27225E-02-7.85933E-01 3.29405E+00 4.13018E+00
 -1      2868-2.19809E+02-8.47816E+01-9.34915E+02-1.08414E+02-1.42539E+02-1.83355E+02
 -1      2869-4.96909E+02-2.43689E+02-1.95345E+03-9.06752E+01-3.29499E+02-1.62051E+02
 -1      2870-6.22195E+02-2.59146E+02-2.29764E+03-2.94041E+01-3.99146E+02-3.99856E+01
 -1      2871-6.90457E+02-2.44864E+02-2.32378E+03 1.28938E+00-4.02986E+02 8.93441E+00
 -1      2872-7.20115E+02-2.37818E+02-2.28907E+03 8.41809E+00-3.94773E+02 1.67710E+01
 -1      2873-7.30059E+02-2.35821E+02-2.26267E+03 7.71100E+00-3.89988E+02 1.49260E+01
 -1      2874-7.35095E+02-2.36288E+02-2.25260E+03 6.06349E+00-3.88365E+02 1.41856E+01
 -1      2875-7.38627E+02-2.36936E+02-2.25046E+03 5.18625E+00-3.88105E+02 1.49061E+01
 -1      2876-7.41251E+02-2.37310E+02-2.25077E+03 4.90420E+00-3.88199E+02 1.59169E+01
 -1      2877-7.42926E+02-2.37462E+02-2.25145E+03 4.85173E+00-3.88324E+02 1.66942E+01
 -1      2878-7.43716E+02-2.37526E+02-2.25215E+03 4.85612E+00-3.88446E+02 1.71845E+01
 -1      2879-7.43546E+02-2.37632E+02-2.25286E+03 4.97818E+00-3.88586E+02 1.75801E+01
 -1      2880-7.41774E+02-2.37844E+02-2.25249E+03 5.50911E+00-3.88619E+02 1.85238E+01
 -1      2881-7.37461E+02-2.37905E+02-2.24708E+03 6.87011E+00-3.87853E+02 2.16029E+01
 -1      2882-7.29087E+02-2.35626E+02-2.22641E+03 8.64554E+00-3.84469E+02 2.86200E+01
 -1      2883-7.27162E+02-2.30771E+02-2.18633E+03 8.18682E+00-3.74702E+02 3.30247E+01
 -1      2884-7.24024E+02-2.10072E+02-2.12833E+03-6.39557E+00-3.64738E+02 9.15520E+00
 -1      2885-6.59987E+02-1.98726E+02-2.25524E+03-3.68707E+01-4.05187E+02-8.29434E+01
 -1      2886-8.31912E+02-4.36193E+02-3.05125E+03 4.43699E+01-5.41101E+02 7.76158E+01
 -1      2887-5.14109E+02-2.07348E+02-1.72399E+03 1.71945E+02-3.24633E+02 3.51876E+02
 -1      2888-1.15699E+02 1.03697E+02 3.56757E+01 1.14466E+02 6.37717E+00 2.01871E+02
 -1      2889-1.18956E+02-4.59622E-01 1.10249E+01 1.38255E+01 1.44769E+01 4.26448E+00
 -1      2890-2.60484E+01-5.03987E+00-2.86586E+00-7.17693E-01 2.63224E+00 2.86335E+00
 -1      2891-2.41699E+02-7.90319E+01-1.03523E+03-5.66460E+01-6.40971E+01-2.15715E+02
 -1      2892-5.51449E+02-2.32091E+02-2.20702E+03-4.82840E+01-1.51537E+02-1.91869E+02
 -1      2893-6.95986E+02-2.40785E+02-2.61115E+03-1.62739E+01-1.88238E+02-4.65761E+01
 -1      2894-7.75201E+02-2.23190E+02-2.64267E+03 4.96120E-01-1.91089E+02 1.17825E+01
 -1      2895-8.08606E+02-2.15851E+02-2.60461E+03 4.56113E+00-1.87332E+02 2.06531E+01
 -1      2896-8.18343E+02-2.14119E+02-2.57528E+03 4.26920E+00-1.85080E+02 1.80275E+01
 -1      2897-8.22616E+02-2.14861E+02-2.56385E+03 3.40956E+00-1.84296E+02 1.67150E+01
 -1      2898-8.25698E+02-2.15658E+02-2.56127E+03 2.93423E+00-1.84166E+02 1.72027E+01
 -1      2899-8.28167E+02-2.16085E+02-2.56150E+03 2.77764E+00-1.84210E+02 1.81494E+01
 -1      2900-8.29824E+02-2.16243E+02-2.56220E+03 2.74734E+00-1.84272E+02 1.89101E+01
 -1      2901-8.30627E+02-2.16302E+02-2.56295E+03 2.75063E+00-1.84331E+02 1.93886E+01
 -1      2902-8.30415E+02-2.16414E+02-2.56370E+03 2.81948E+00-1.84395E+02 1.97873E+01
 -1      2903-8.28428E+02-2.16679E+02-2.56325E+03 3.11384E+00-1.84398E+02 2.08299E+01
 -1      2904-8.23577E+02-2.16848E+02-2.55707E+03 3.82157E+00-1.84011E+02 2.43135E+01
 -1      2905-8.14551E+02-2.14693E+02-2.53407E+03 4.73380E+00-1.82367E+02 3.21987E+01
 -1      2906-8.14796E+02-2.10318E+02-2.48959E+03 4.28824E+00-1.77760E+02 3.73747E+01
 -1      2907-8.14375E+02-1.87128E+02-2.42067E+03-3.96504E+00-1.73296E+02 7.29136E+00
 -1      2908-7.44245E+02-1.72239E+02-2.58082E+03-1.83561E+01-1.97896E+02-1.01321E+02
 -1      2909-9.25427E+02-4.20771E+02-3.48792E+03 2.32482E+01-2.55730E+02 8.76973E+01
 -1      2910-5.88208E+02-1.94907E+02-2.01960E+03 8.92311E+01-1.63313E+02 4.17616E+02
 -1      2911-1.35648E+02 1.19983E+02 4.25621E+01 6.18704E+01-1.66721E+00 2.43734E+02
 -1      2912-1.35674E+02-2.00475E-01 1.51310E+01 8.47400E+00 8.76687E+00 3.27057E+00
 -1      2913-2.74048E+01-5.90496E+00-5.57099E+00-4.59911E-01 1.35118E+00 1.24712E+00
 -1      2914-2.42904E+02-7.79153E+01-1.04736E+03-5.03337E-11 8.78453E-11-2.25025E+02
 -1      2915-5.56398E+02-2.29540E+02-2.24571E+03-6.02796E-11 3.07510E-10-2.01215E+02
 -1      2916-7.05661E+02-2.35535E+02-2.66518E+03-5.86183E-11 3.54881E-10-4.89900E+01
 -1      2917-7.88595E+02-2.16748E+02-2.69918E+03-2.86449E-11 3.53179E-10 1.24789E+01
 -1      2918-8.23552E+02-2.09131E+02-2.66087E+03-7.86182E-12 3.38936E-10 2.17538E+01
 -1      2919-8.33434E+02-2.07452E+02-2.63114E+03-7.92783E-13 3.32026E-10 1.88952E+01
 -1      2920-8.37518E+02-2.08284E+02-2.61945E+03 8.58952E-13 3.28196E-10 1.74091E+01
 -1      2921-8.40461E+02-2.09135E+02-2.61676E+03 1.06565E-12 3.26938E-10 1.78242E+01
 -1      2922-8.42876E+02-2.09584E+02-2.61696E+03 8.71914E-13 3.26430E-10 1.87501E+01
 -1      2923-8.44523E+02-2.09747E+02-2.61766E+03 5.51281E-13 3.26786E-10 1.95055E+01
 -1      2924-8.45327E+02-2.09804E+02-2.61841E+03-2.15383E-14 3.24832E-10 1.99806E+01
 -1      2925-8.45094E+02-2.09921E+02-2.61916E+03 1.50185E-13 3.25727E-10 2.03795E+01
 -1      2926-8.43038E+02-2.10211E+02-2.61867E+03 9.68309E-13 3.25979E-10 2.14581E+01
 -1      2927-8.38021E+02-2.10412E+02-2.61229E+03 1.94558E-12 3.25247E-10 2.50544E+01
 -1      2928-8.28966E+02-2.08326E+02-2.58899E+03 2.28245E-12 3.24164E-10 3.32308E+01
 -1      2929-8.30211E+02-2.03883E+02-2.54377E+03-5.27545E-12 3.20281E-10 3.85515E+01
 -1      2930-8.30801E+02-1.79881E+02-2.47292E+03-9.37675E-12 3.14085E-10 6.28214E+00
 -1      2931-7.59321E+02-1.63875E+02-2.64618E+03 5.40328E-11 3.24448E-10-1.06919E+02
 -1      2932-9.36503E+02-4.15815E+02-3.56430E+03 7.82048E-11 5.24604E-10 9.03768E+01
 -1      2933-6.02555E+02-1.88916E+02-2.08581E+03 4.82014E-11 2.54387E-10 4.37115E+02
 -1      2934-1.43927E+02 1.25220E+02 3.77086E+01 8.94518E-11-6.67055E-11 2.57136E+02
 -1      2935-1.40925E+02 2.94238E-01 1.79624E+01 8.03464E-11-2.52601E-11 3.36095E+00
 -1      2936-2.81561E+01-6.18038E+00-6.61126E+00 1.89410E-11-1.89964E-11 6.07515E-01
 -1      2937-2.41699E+02-7.90319E+01-1.03523E+03 5.66460E+01 6.40971E+01-2.15715E+02
 -1      2938-5.51449E+02-2.32091E+02-2.20702E+03 4.82840E+01 1.51537E+02-1.91869E+02
 -1      2939-6.95986E+02-2.40785E+02-2.61115E+03 1.62739E+01 1.88238E+02-4.65761E+01
 -1      2940-7.75201E+02-2.23190E+02-2.64267E+03-4.96120E-01 1.91089E+02 1.17825E+01
 -1      2941-8.08606E+02-2.15851E+02-2.60461E+03-4.56113E+00 1.87332E+02 2.06531E+01
 -1      2942-8.18343E+02-2.14119E+02-2.57528E+03-4.26920E+00 1.85080E+02 1.80275E+01
 -1      2943-8.22616E+02-2.14861E+02-2.56385E+03-3.40956E+00 1.84296E+02 1.67150E+01
 -1      2944-8.25698E+02-2.15658E+02-2.56127E+03-2.93423E+00 1.84166E+02 1.72027E+01
 -1      2945-8.28167E+02-2.16085E+02-2.56150E+03-2.77764E+00 1.84210E+02 1.81494E+01
 -1      2946-8.29824E+02-2.16243E+02-2.56220E+03-2.74734E+00 1.84272E+02 1.89101E+01
 -1      2947-8.30627E+02-2.16302E+02-2.56295E+03-2.75063E+00 1.84331E+02 1.93886E+01
 -1      2948-8.30415E+02-2.16414E+02-2.56370E+03-2.81948E+00 1.84395E+02 1.97873E+01
 -1      2949-8.28428E+02-2.16679E+02-2.56325E+03-3.11384E+00 1.84398E+02 2.08299E+01
 -1      2950-8.23577E+02-2.16848E+02-2.55707E+03-3.82157E+00 1.84011E+02 2.43135E+01
 -1      2951-8.14551E+02-2.14693E+02-2.53407E+03-4.73380E+00 1.82367E+02 3.21987E+01
 -1      2952-8.14796E+02-2.10318E+02-2.48959E+03-4.28824E+00 1.77760E+02 3.73747E+01
 -1      2953-8.14375E+02-1.87128E+02-2.42067E+03 3.96504E+00 1.73296E+02 7.29136E+00
 -1      2954-7.44245E+02-1.72239E+02-2.58082E+03 1.83561E+01 1.97896E+02-1.01321E+02
 -1      2955-9.25427E+02-4.20771E+02-3.48792E+03-2.32482E+01 2.55730E+02 8.76973E+01
 -1      2956-5.88208E+02-1.94907E+02-2.01960E+03-8.92311E+01 1.63313E+02 4.17616E+02
 -1      2957-1.35648E+02 1.19983E+02 4.25621E+01-6.18704E+01 1.66721E+00 2.43734E+02
 -1      2958-1.35674E+02-2.00475E-01 1.51310E+01-8.47400E+00-8.76687E+00 3.27057E+00
 -1      2959-2.74048E+01-5.90496E+00-5.57099E+00 4.59911E-01-1.35118E+00 1.24712E+00
 -1      2960-2.19809E+02-8.47816E+01-9.34915E+02 1.08414E+02 1.42539E+02-1.83355E+02
 -1      2961-4.96909E+02-2.43689E+02-1.95345E+03 9.06752E+01 3.29499E+02-1.62051E+02
 -1      2962-6.22195E+02-2.59146E+02-2.29764E+03 2.94041E+01 3.99146E+02-3.99856E+01
 -1      2963-6.90457E+02-2.44864E+02-2.32378E+03-1.28938E+00 4.02986E+02 8.93441E+00
 -1      2964-7.20115E+02-2.37818E+02-2.28907E+03-8.41809E+00 3.94773E+02 1.67710E+01
 -1      2965-7.30059E+02-2.35821E+02-2.26267E+03-7.71100E+00 3.89988E+02 1.49260E+01
 -1      2966-7.35095E+02-2.36288E+02-2.25260E+03-6.06349E+00 3.88365E+02 1.41856E+01
 -1      2967-7.38627E+02-2.36936E+02-2.25046E+03-5.18625E+00 3.88105E+02 1.49061E+01
 -1      2968-7.41251E+02-2.37310E+02-2.25077E+03-4.90420E+00 3.88199E+02 1.59169E+01
 -1      2969-7.42926E+02-2.37462E+02-2.25145E+03-4.85173E+00 3.88324E+02 1.66942E+01
 -1      2970-7.43716E+02-2.37526E+02-2.25215E+03-4.85612E+00 3.88446E+02 1.71845E+01
 -1      2971-7.43546E+02-2.37632E+02-2.25286E+03-4.97818E+00 3.88586E+02 1.75801E+01
 -1      2972-7.41774E+02-2.37844E+02-2.25249E+03-5.50911E+00 3.88619E+02 1.85238E+01
 -1      2973-7.37461E+02-2.37905E+02-2.24708E+03-6.87011E+00 3.87853E+02 2.16029E+01
 -1      2974-7.29087E+02-2.35626E+02-2.22641E+03-8.64554E+00 3.84469E+02 2.86200E+01
 -1      2975-7.27162E+02-2.30771E+02-2.18633E+03-8.18682E+00 3.74702E+02 3.30247E+01
 -1      2976-7.24024E+02-2.10072E+02-2.12833E+03 6.39557E+00 3.64738E+02 9.15520E+00
 -1      2977-6.59987E+02-1.98726E+02-2.25524E+03 3.68707E+01 4.05187E+02-8.29434E+01
 -1      2978-8.31912E+02-4.36193E+02-3.05125E+03-4.43699E+01 5.41101E+02 7.76158E+01
 -1      2979-5.14109E+02-2.07348E+02-1.72399E+03-1.71945E+02 3.24633E+02 3.51876E+02
 -1      2980-1.15699E+02 1.03697E+02 3.56757E+01-1.14466E+02-6.37717E+00 2.01871E+02
 -1      2981-1.18956E+02-4.59622E-01 1.10249E+01-1.38255E+01-1.44769E+01 4.26448E+00
 -1      2982-2.60484E+01-5.03987E+00-2.86586E+00 7.17693E-01-2.63224E+00 2.86335E+00
 -1      2983-1.36937E+02-6.80946E+01-6.39597E+02 1.34513E+02 1.83596E+02-1.22631E+02
 -1      2984-3.05020E+02-1.99962E+02-1.26529E+03 1.11499E+02 4.15946E+02-1.11208E+02
 -1      2985-3.89556E+02-2.16901E+02-1.49258E+03 3.57088E+01 4.95310E+02-3.09500E+01
 -1      2986-4.41858E+02-2.07329E+02-1.51403E+03-1.68486E+00 4.97753E+02 3.79513E+00
 -1      2987-4.68635E+02-2.01464E+02-1.49084E+03-1.01980E+01 4.86805E+02 1.03089E+01
 -1      2988-4.80668E+02-1.99772E+02-1.47282E+03-9.20560E+00 4.80742E+02 9.90080E+00
 -1      2989-4.87400E+02-2.00083E+02-1.46603E+03-7.13384E+00 4.78776E+02 1.01632E+01
 -1      2990-4.91715E+02-2.00581E+02-1.46477E+03-6.05876E+00 4.78502E+02 1.12701E+01
 -1      2991-4.94547E+02-2.00884E+02-1.46516E+03-5.72026E+00 4.78637E+02 1.23882E+01
 -1      2992-4.96216E+02-2.01013E+02-1.46573E+03-5.66012E+00 4.78796E+02 1.31932E+01
 -1      2993-4.96949E+02-2.01072E+02-1.46627E+03-5.66472E+00 4.78949E+02 1.37056E+01
 -1      2994-4.96782E+02-2.01156E+02-1.46680E+03-5.81076E+00 4.79134E+02 1.41018E+01
 -1      2995-4.95336E+02-2.01308E+02-1.46655E+03-6.45522E+00 4.79226E+02 1.48878E+01
 -1      2996-4.91978E+02-2.01300E+02-1.46263E+03-8.17720E+00 4.78350E+02 1.73021E+01
 -1      2997-4.85874E+02-1.99443E+02-1.44830E+03-1.04390E+01 4.74218E+02 2.26479E+01
 -1      2998-4.83351E+02-1.94762E+02-1.42133E+03-1.00908E+01 4.61633E+02 2.59893E+01
 -1      2999-4.77301E+02-1.79058E+02-1.38854E+03 7.42383E+00 4.48420E+02 8.50388E+00
 -1      3000-4.29629E+02-1.77292E+02-1.48489E+03 4.59260E+01 4.91002E+02-4.79157E+01
 -1      3001-5.22473E+02-3.53197E+02-1.93322E+03-5.68245E+01 6.69417E+02 5.92456E+01
 -1      3002-3.28642E+02-1.74032E+02-1.08892E+03-2.13390E+02 3.81597E+02 2.30917E+02
 -1      3003-9.91636E+01 7.05052E+01-1.66865E+01-1.38949E+02-1.64281E+01 1.35702E+02
 -1      3004-9.17800E+01 2.35344E+00 1.44246E+01-1.65050E+01-1.67937E+01 9.18618E+00
 -1      3005-2.59322E+01-4.04558E+00-3.27225E-02 7.85933E-01-3.29405E+00 4.13018E+00
 -1      3006-4.48921E+01-4.43830E+01-3.12412E+02 1.19861E+02 1.34029E+02-6.19212E+01
 -1      3007-9.87141E+01-1.38393E+02-5.46483E+02 1.00461E+02 2.98309E+02-6.19130E+01
 -1      3008-1.41084E+02-1.53976E+02-6.61052E+02 3.32426E+01 3.53395E+02-2.26528E+01
 -1      3009-1.76950E+02-1.48761E+02-6.76868E+02-8.50824E-01 3.52915E+02-1.52449E+00
 -1      3010-2.02039E+02-1.44444E+02-6.66017E+02-8.87804E+00 3.43889E+02 3.65776E+00
 -1      3011-2.17010E+02-1.43259E+02-6.56856E+02-8.05279E+00 3.39283E+02 4.78677E+00
 -1      3012-2.25764E+02-1.43482E+02-6.53531E+02-6.18388E+00 3.37942E+02 6.07175E+00
 -1      3013-2.30924E+02-1.43846E+02-6.53203E+02-5.20478E+00 3.37827E+02 7.58595E+00
 -1      3014-2.33949E+02-1.44073E+02-6.53659E+02-4.89679E+00 3.37962E+02 8.82561E+00
 -1      3015-2.35592E+02-1.44173E+02-6.54100E+02-4.84287E+00 3.38088E+02 9.67009E+00
 -1      3016-2.36244E+02-1.44218E+02-6.54462E+02-4.84955E+00 3.38204E+02 1.02129E+01
 -1      3017-2.36043E+02-1.44278E+02-6.54789E+02-4.98645E+00 3.38358E+02 1.06179E+01
 -1      3018-2.34903E+02-1.44371E+02-6.54651E+02-5.58762E+00 3.38490E+02 1.12581E+01
 -1      3019-2.32602E+02-1.44328E+02-6.52294E+02-7.16573E+00 3.37983E+02 1.30154E+01
 -1      3020-2.29175E+02-1.43053E+02-6.44601E+02-9.25717E+00 3.34957E+02 1.66470E+01
 -1      3021-2.26562E+02-1.38928E+02-6.31613E+02-8.68463E+00 3.25194E+02 1.89052E+01
 -1      3022-2.17036E+02-1.29153E+02-6.24450E+02 7.32665E+00 3.14024E+02 7.32063E+00
 -1      3023-1.85021E+02-1.35050E+02-6.94225E+02 3.86555E+01 3.47515E+02-1.47068E+01
 -1      3024-1.98985E+02-2.41049E+02-8.07677E+02-5.42029E+01 4.76424E+02 3.76582E+01
 -1      3025-1.44249E+02-1.26473E+02-4.79389E+02-1.89176E+02 2.63924E+02 1.12383E+02
 -1      3026-7.95921E+01 3.83880E+01-5.51263E+01-1.24251E+02-1.69484E+01 7.29389E+01
 -1      3027-6.73738E+01 4.54021E+00 1.97264E+01-1.73202E+01-1.64668E+01 1.31634E+01
 -1      3028-2.73816E+01-2.93935E+00 3.02698E+00 4.11228E-01-2.75090E+00 5.37663E+00
 -1      3029 1.40749E-01-3.99623E+01-1.21291E+02 7.10450E+01 5.03727E+01-2.45673E+01
 -1      3030-1.93110E-01-1.16998E+02-1.81914E+02 6.05184E+01 1.11373E+02-2.94064E+01
 -1      3031-1.18826E+01-1.32617E+02-2.23343E+02 2.21622E+01 1.31882E+02-1.45566E+01
 -1      3032-3.51788E+01-1.29806E+02-2.27764E+02 8.93792E-01 1.29912E+02-4.24833E+00
 -1      3033-5.95836E+01-1.25932E+02-2.20162E+02-4.75605E+00 1.25452E+02-6.04743E-01
 -1      3034-7.72447E+01-1.24827E+02-2.15281E+02-4.61065E+00 1.23492E+02 1.27422E+00
 -1      3035-8.77244E+01-1.24931E+02-2.14097E+02-3.57736E+00 1.23057E+02 3.25476E+00
 -1      3036-9.35174E+01-1.25203E+02-2.14482E+02-2.97859E+00 1.23087E+02 5.10903E+00
 -1      3037-9.66610E+01-1.25383E+02-2.15055E+02-2.77567E+00 1.23170E+02 6.49084E+00
 -1      3038-9.82738E+01-1.25467E+02-2.15438E+02-2.73650E+00 1.23225E+02 7.39889E+00
 -1      3039-9.88532E+01-1.25508E+02-2.15701E+02-2.74739E+00 1.23271E+02 7.97779E+00
 -1      3040-9.85910E+01-1.25559E+02-2.15969E+02-2.85067E+00 1.23348E+02 8.38553E+00
 -1      3041-9.76179E+01-1.25628E+02-2.16059E+02-3.24888E+00 1.23456E+02 8.91663E+00
 -1      3042-9.61861E+01-1.25566E+02-2.14940E+02-4.19402E+00 1.23378E+02 1.02265E+01
 -1      3043-9.46707E+01-1.24475E+02-2.10890E+02-5.37848E+00 1.22184E+02 1.28982E+01
 -1      3044-9.13818E+01-1.20316E+02-2.03978E+02-4.62332E+00 1.17814E+02 1.46043E+01
 -1      3045-7.64596E+01-1.13666E+02-2.06668E+02 5.23324E+00 1.12111E+02 8.82288E+00
 -1      3046-4.52804E+01-1.21912E+02-2.47423E+02 1.87818E+01 1.28899E+02 6.17291E-01
 -1      3047-4.47047E+01-1.95180E+02-2.68744E+02-3.59008E+01 1.80061E+02 1.80132E+01
 -1      3048-4.69617E+01-1.03979E+02-1.63403E+02-1.09490E+02 9.71881E+01 4.19856E+01
 -1      3049-5.32246E+01 2.17847E+01-1.94036E+01-7.54496E+01-1.16550E+01 2.98515E+01
 -1      3050-5.82657E+01 4.92545E+00 2.48123E+01-1.47013E+01-1.07797E+01 9.91426E+00
 -1      3051-3.11290E+01-2.33905E+00 6.32764E+00-7.75212E-01-1.48987E+00 6.37348E+00
 -1      3052 5.53800E+00-5.94996E+01-6.66738E+01-2.86745E+01-1.23241E+01 8.60943E+00
 -1      3053-1.15664E+01-1.61687E+02-1.12075E+02-2.00885E+01-3.09942E+01 1.67551E+00
 -1      3054-2.10833E+01-1.75958E+02-1.29658E+02-2.24548E+00-3.45156E+01-8.89880E-01
 -1      3055-3.33283E+01-1.72362E+02-1.30664E+02 4.65906E+00-2.88620E+01-6.73153E-01
 -1      3056-4.54393E+01-1.66466E+02-1.25618E+02 5.78698E+00-2.56787E+01-1.99142E-01
 -1      3057-5.78954E+01-1.64043E+02-1.22312E+02 5.22417E+00-2.48182E+01 6.93014E-01
 -1      3058-6.82718E+01-1.63564E+02-1.21383E+02 4.64742E+00-2.48328E+01 1.86703E+00
 -1      3059-7.53011E+01-1.63751E+02-1.21573E+02 4.41162E+00-2.49623E+01 2.93519E+00
 -1      3060-7.93431E+01-1.63970E+02-1.21929E+02 4.37884E+00-2.50329E+01 3.70064E+00
 -1      3061-8.13707E+01-1.64099E+02-1.22175E+02 4.40062E+00-2.50573E+01 4.18689E+00
 -1      3062-8.21962E+01-1.64187E+02-1.22351E+02 4.41470E+00-2.50733E+01 4.48410E+00
 -1      3063-8.23547E+01-1.64300E+02-1.22534E+02 4.44283E+00-2.51234E+01 4.66785E+00
 -1      3064-8.20265E+01-1.64405E+02-1.22589E+02 4.57866E+00-2.52632E+01 4.85806E+00
 -1      3065-8.03199E+01-1.64044E+02-1.21797E+02 4.93788E+00-2.54532E+01 5.33739E+00
 -1      3066-7.49930E+01-1.62468E+02-1.19431E+02 5.37818E+00-2.52400E+01 6.36460E+00
 -1      3067-6.50190E+01-1.57465E+02-1.16061E+02 5.45296E+00-2.31687E+01 7.09678E+00
 -1      3068-5.75752E+01-1.53320E+02-1.18266E+02 2.43484E+00-1.72785E+01 6.28209E+00
 -1      3069-5.48669E+01-1.52579E+02-1.35476E+02-9.57693E+00-2.69952E+01 6.74784E+00
 -1      3070-9.49121E+01-2.61706E+02-1.65403E+02 1.09078E+01-5.98391E+01 4.85740E-01
 -1      3071-5.49674E+01-1.28958E+02-9.29262E+01 4.47910E+01-2.44307E+01-8.88343E+00
 -1      3072-3.35054E+00 3.58375E+01 2.05424E-01 2.40557E+01 2.14325E+01-5.00026E+00
 -1      3073-1.27797E+01 3.42747E+00 1.32555E+01-1.42634E+00 1.08024E+01 1.27835E+00
 -1      3074-7.57135E+00 1.69690E+00 4.97142E+00-1.50589E+00 4.71863E-01 2.19371E+00
 -1      3075-1.65779E+01-7.62935E+01-1.61182E+02-6.79482E+01-9.15533E+01-1.12518E+01
 -1      3076-6.66371E+01-2.15681E+02-2.77820E+02-4.70823E+01-2.15726E+02-1.61967E+01
 -1      3077-1.00404E+02-2.36506E+02-3.36275E+02-3.59842E+00-2.47690E+02-7.04339E+00
 -1      3078-1.20104E+02-2.30688E+02-3.44141E+02 9.74417E+00-2.40257E+02 5.73650E-01
 -1      3079-1.30222E+02-2.22763E+02-3.38974E+02 1.17505E+01-2.32142E+02 2.61328E+00
 -1      3080-1.39538E+02-2.19479E+02-3.33586E+02 1.02353E+01-2.28674E+02 3.25087E+00
 -1      3081-1.48403E+02-2.18932E+02-3.31555E+02 9.00469E+00-2.27907E+02 4.04429E+00
 -1      3082-1.54976E+02-2.19195E+02-3.31327E+02 8.51614E+00-2.27933E+02 4.89672E+00
 -1      3083-1.58972E+02-2.19462E+02-3.31605E+02 8.44165E+00-2.28061E+02 5.56571E+00
 -1      3084-1.61043E+02-2.19605E+02-3.31880E+02 8.47268E+00-2.28149E+02 6.00882E+00
 -1      3085-1.61944E+02-2.19701E+02-3.32107E+02 8.48668E+00-2.28228E+02 6.28650E+00
 -1      3086-1.62210E+02-2.19846E+02-3.32310E+02 8.52279E+00-2.28362E+02 6.47805E+00
 -1      3087-1.61871E+02-2.20027E+02-3.32190E+02 8.77621E+00-2.28556E+02 6.75601E+00
 -1      3088-1.59687E+02-2.19665E+02-3.30764E+02 9.50634E+00-2.28475E+02 7.51455E+00
 -1      3089-1.52670E+02-2.17428E+02-3.26284E+02 1.07807E+01-2.26544E+02 9.11212E+00
 -1      3090-1.41826E+02-2.10580E+02-3.21426E+02 1.08357E+01-2.19700E+02 9.72991E+00
 -1      3091-1.39912E+02-2.04738E+02-3.18021E+02 8.10989E+00-2.05592E+02 4.48683E+00
 -1      3092-1.46181E+02-2.05055E+02-3.58842E+02-3.00993E+01-2.26360E+02 3.46592E+00
 -1      3093-1.94524E+02-3.61815E+02-4.03926E+02 1.97421E+01-3.58822E+02 1.60559E+01
 -1      3094-1.21513E+02-1.86171E+02-2.46340E+02 1.15968E+02-1.82491E+02 2.61924E+01
 -1      3095-1.56522E+01 5.57253E+01-3.27828E+01 5.45981E+01 4.35939E+01 2.05196E+01
 -1      3096-8.31657E+00 5.15721E+00 1.25048E+01-8.56501E+00 1.61921E+01 7.48114E+00
 -1      3097-5.62506E-01 3.46129E+00 2.43416E+00-1.62184E+00 8.42770E-01 1.85631E+00
 -1      3098-1.53771E+02-1.34651E+02-5.98761E+02-9.36066E+01-1.49073E+02-6.25400E+01
 -1      3099-3.96691E+02-3.65826E+02-1.30971E+03-6.60045E+01-3.57954E+02-5.40943E+01
 -1      3100-4.78901E+02-3.95905E+02-1.47880E+03-5.72801E+00-4.16034E+02-1.10836E+01
 -1      3101-5.15199E+02-3.89842E+02-1.49488E+03 1.14143E+01-4.10342E+02 9.27459E+00
 -1      3102-5.18532E+02-3.77037E+02-1.46822E+03 1.42172E+01-3.99808E+02 1.27374E+01
 -1      3103-5.22309E+02-3.71785E+02-1.45073E+03 1.24283E+01-3.94597E+02 1.21865E+01
 -1      3104-5.28440E+02-3.70828E+02-1.44415E+03 1.09177E+01-3.93154E+02 1.21037E+01
 -1      3105-5.34209E+02-3.71141E+02-1.44290E+03 1.02846E+01-3.93018E+02 1.26041E+01
 -1      3106-5.38118E+02-3.71488E+02-1.44321E+03 1.01605E+01-3.93155E+02 1.31705E+01
 -1      3107-5.40286E+02-3.71670E+02-1.44371E+03 1.01800E+01-3.93283E+02 1.35851E+01
 -1      3108-5.41332E+02-3.71795E+02-1.44421E+03 1.01928E+01-3.93405E+02 1.38450E+01
 -1      3109-5.41751E+02-3.72015E+02-1.44474E+03 1.02444E+01-3.93582E+02 1.40433E+01
 -1      3110-5.41330E+02-3.72295E+02-1.44462E+03 1.05775E+01-3.93743E+02 1.44703E+01
 -1      3111-5.37995E+02-3.71823E+02-1.44119E+03 1.14701E+01-3.93316E+02 1.58378E+01
 -1      3112-5.27638E+02-3.68004E+02-1.42847E+03 1.32021E+01-3.90028E+02 1.88192E+01
 -1      3113-5.07662E+02-3.56507E+02-1.39907E+03 1.30291E+01-3.80208E+02 2.03969E+01
 -1      3114-5.16200E+02-3.49687E+02-1.37540E+03 1.17677E+01-3.62069E+02 7.79707E+00
 -1      3115-4.98874E+02-3.37718E+02-1.37793E+03-4.44324E+01-3.89681E+02-1.57812E+01
 -1      3116-7.22081E+02-6.10131E+02-2.03517E+03 2.26138E+01-5.95535E+02 4.59656E+01
 -1      3117-3.96343E+02-3.06304E+02-1.05788E+03 1.65472E+02-3.21673E+02 1.24064E+02
 -1      3118-2.22262E+00 9.38989E+01 9.82824E+01 7.73607E+01 5.34452E+01 7.40531E+01
 -1      3119-2.68686E+01-1.11344E-01-2.12285E+01-1.31428E+01 1.58943E+01 8.37693E+00
 -1      3120 1.06003E+01 7.23318E+00 8.15643E+00-9.55709E-02 9.01512E-01 3.65944E-01
 -1      3121-2.79882E+02-1.93721E+02-9.89237E+02-6.68268E+01-1.01715E+02-1.14779E+02
 -1      3122-7.15336E+02-5.15739E+02-2.30437E+03-4.94465E+01-2.55929E+02-9.47193E+01
 -1      3123-8.52402E+02-5.61230E+02-2.60754E+03-5.43114E+00-3.06013E+02-1.64464E+01
 -1      3124-9.04688E+02-5.54225E+02-2.62882E+03 8.63772E+00-3.03450E+02 1.77743E+01
 -1      3125-9.03915E+02-5.37601E+02-2.58474E+03 1.12083E+01-2.96192E+02 2.27757E+01
 -1      3126-9.02890E+02-5.30218E+02-2.55555E+03 1.01607E+01-2.92475E+02 2.11125E+01
 -1      3127-9.06664E+02-5.28844E+02-2.54468E+03 9.06885E+00-2.91385E+02 2.01657E+01
 -1      3128-9.11628E+02-5.29171E+02-2.54233E+03 8.57115E+00-2.91263E+02 2.03177E+01
 -1      3129-9.15416E+02-5.29591E+02-2.54261E+03 8.45906E+00-2.91357E+02 2.07864E+01
 -1      3130-9.17652E+02-5.29808E+02-2.54329E+03 8.46706E+00-2.91453E+02 2.11781E+01
 -1      3131-9.18813E+02-5.29962E+02-2.54402E+03 8.47914E+00-2.91545E+02 2.14251E+01
 -1      3132-9.19334E+02-5.30252E+02-2.54482E+03 8.53241E+00-2.91667E+02 2.16369E+01
 -1      3133-9.18762E+02-5.30606E+02-2.54462E+03 8.79912E+00-2.91759E+02 2.22260E+01
 -1      3134-9.14338E+02-5.29964E+02-2.53917E+03 9.46442E+00-2.91364E+02 2.42107E+01
 -1      3135-9.00934E+02-5.24481E+02-2.51832E+03 1.04298E+01-2.88956E+02 2.85395E+01
 -1      3136-8.72923E+02-5.08608E+02-2.46693E+03 1.03365E+01-2.81910E+02 3.10406E+01
 -1      3137-8.91867E+02-5.01890E+02-2.42452E+03 7.47472E+00-2.68870E+02 1.02969E+01
 -1      3138-8.51639E+02-4.77972E+02-2.39565E+03-2.92439E+01-2.98014E+02-3.78122E+01
 -1      3139-1.25605E+03-8.67348E+02-3.69593E+03 1.51879E+01-4.40844E+02 7.32145E+01
 -1      3140-6.97832E+02-4.38913E+02-1.95947E+03 1.17875E+02-2.59771E+02 2.27024E+02
 -1      3141 1.65132E+01 1.32596E+02 2.57996E+02 6.15091E+01 3.35612E+01 1.32816E+02
 -1      3142-5.14677E+01-6.82744E+00-5.86429E+01-8.16675E+00 1.42760E+01 8.86529E+00
 -1      3143 2.07543E+01 1.13912E+01 1.51865E+01-3.02658E-01 5.04808E-01-1.37086E+00
 -1      3144-2.81953E+02-2.16902E+02-9.88994E+02-2.58923E+01-2.93346E+01-1.32707E+02
 -1      3145-7.44446E+02-5.75001E+02-2.38187E+03-2.06413E+01-8.31327E+01-1.13067E+02
 -1      3146-8.97318E+02-6.25385E+02-2.71763E+03-3.00074E+00-1.05996E+02-2.21685E+01
 -1      3147-9.58838E+02-6.18154E+02-2.74682E+03 3.93012E+00-1.05660E+02 1.92533E+01
 -1      3148-9.58870E+02-5.98998E+02-2.70271E+03 5.47021E+00-1.02972E+02 2.54234E+01
 -1      3149-9.57162E+02-5.90710E+02-2.67306E+03 5.15374E+00-1.01670E+02 2.33967E+01
 -1      3150-9.60209E+02-5.89160E+02-2.66157E+03 4.69158E+00-1.01288E+02 2.21122E+01
 -1      3151-9.64857E+02-5.89567E+02-2.65898E+03 4.45244E+00-1.01256E+02 2.21117E+01
 -1      3152-9.68548E+02-5.90041E+02-2.65917E+03 4.39432E+00-1.01298E+02 2.25339E+01
 -1      3153-9.70786E+02-5.90279E+02-2.65984E+03 4.39693E+00-1.01337E+02 2.29129E+01
 -1      3154-9.71972E+02-5.90446E+02-2.66057E+03 4.40537E+00-1.01373E+02 2.31539E+01
 -1      3155-9.72496E+02-5.90774E+02-2.66136E+03 4.43708E+00-1.01417E+02 2.33735E+01
 -1      3156-9.71824E+02-5.91206E+02-2.66104E+03 4.57106E+00-1.01455E+02 2.40407E+01
 -1      3157-9.67161E+02-5.90500E+02-2.65522E+03 4.85433E+00-1.01287E+02 2.62768E+01
 -1      3158-9.53000E+02-5.84202E+02-2.63324E+03 5.06256E+00-1.00483E+02 3.11581E+01
 -1      3159-9.25818E+02-5.66421E+02-2.58276E+03 5.00932E+00-9.77903E+01 3.37413E+01
 -1      3160-9.47387E+02-5.57874E+02-2.53305E+03 2.04552E+00-9.27499E+01 7.49741E+00
 -1      3161-9.15810E+02-5.38820E+02-2.54180E+03-8.84433E+00-1.12133E+02-4.65159E+01
 -1      3162-1.31903E+03-9.58137E+02-3.86366E+03 6.09801E+00-1.55626E+02 8.06929E+01
 -1      3163-7.70055E+02-4.95265E+02-2.15965E+03 4.37963E+01-1.06644E+02 2.64073E+02
 -1      3164 7.91203E+00 1.46623E+02 2.68849E+02 2.76737E+01 8.68501E+00 1.61249E+02
 -1      3165-5.77917E+01-5.62401E+00-5.79100E+01-1.74888E+00 9.33811E+00 1.16224E+01
 -1      3166 2.36042E+01 1.31662E+01 1.37310E+01-7.33463E-01 1.40719E-01-2.80772E+00
 -1      3167-2.93376E+02-2.56058E+02-9.92508E+02-2.71886E-11 4.63656E-11-1.34538E+02
 -1      3168-7.80522E+02-6.68090E+02-2.42085E+03-4.72287E-11 1.45969E-10-1.16542E+02
 -1      3169-9.41077E+02-7.28088E+02-2.76829E+03-6.02379E-11 1.83288E-10-2.38440E+01
 -1      3170-1.00540E+03-7.20481E+02-2.80036E+03-3.35003E-11 1.84293E-10 1.93879E+01
 -1      3171-1.00512E+03-6.98887E+02-2.75587E+03-1.29890E-11 1.79607E-10 2.59818E+01
 -1      3172-1.00285E+03-6.89341E+02-2.72579E+03-4.20736E-12 1.75699E-10 2.39069E+01
 -1      3173-1.00558E+03-6.87446E+02-2.71409E+03-1.33588E-12 1.73937E-10 2.25608E+01
 -1      3174-1.01009E+03-6.87813E+02-2.71139E+03-7.65610E-13 1.73337E-10 2.25287E+01
 -1      3175-1.01376E+03-6.88318E+02-2.71157E+03-3.99403E-13 1.72818E-10 2.29397E+01
 -1      3176-1.01600E+03-6.88579E+02-2.71223E+03-7.46236E-13 1.72324E-10 2.33153E+01
 -1      3177-1.01721E+03-6.88770E+02-2.71298E+03-1.87328E-12 1.72186E-10 2.35548E+01
 -1      3178-1.01773E+03-6.89132E+02-2.71376E+03-1.24889E-12 1.71223E-10 2.37764E+01
 -1      3179-1.01706E+03-6.89616E+02-2.71343E+03-5.37459E-13 1.71791E-10 2.44625E+01
 -1      3180-1.01221E+03-6.88696E+02-2.70736E+03 4.48530E-14 1.70949E-10 2.67396E+01
 -1      3181-9.97833E+02-6.81754E+02-2.68531E+03-4.00791E-13 1.72115E-10 3.17409E+01
 -1      3182-9.69675E+02-6.60828E+02-2.63342E+03-5.71132E-12 1.73465E-10 3.41564E+01
 -1      3183-9.92516E+02-6.51682E+02-2.58390E+03-7.46320E-12 1.63183E-10 6.23141E+00
 -1      3184-9.60282E+02-6.28033E+02-2.59847E+03 6.65817E-11 1.88411E-10-4.76034E+01
 -1      3185-1.38629E+03-1.10791E+03-3.95104E+03 7.46948E-11 2.49255E-10 8.17485E+01
 -1      3186-8.08976E+02-5.64452E+02-2.22530E+03 1.65097E-11 1.37868E-10 2.69434E+02
 -1      3187 9.32498E+00 1.61321E+02 2.73309E+02 7.72241E-11-8.73324E-12 1.67688E+02
 -1      3188-6.05149E+01-7.34311E+00-5.81830E+01 8.46455E-11-1.79908E-11 1.31144E+01
 -1      3189 2.46706E+01 1.45755E+01 1.36604E+01 2.14220E-11-6.18105E-12-3.32420E+00
 -1      3190-2.81953E+02-2.16902E+02-9.88994E+02 2.58923E+01 2.93346E+01-1.32707E+02
 -1      3191-7.44446E+02-5.75001E+02-2.38187E+03 2.06413E+01 8.31327E+01-1.13067E+02
 -1      3192-8.97318E+02-6.25385E+02-2.71763E+03 3.00074E+00 1.05996E+02-2.21685E+01
 -1      3193-9.58838E+02-6.18154E+02-2.74682E+03-3.93012E+00 1.05660E+02 1.92533E+01
 -1      3194-9.58870E+02-5.98998E+02-2.70271E+03-5.47021E+00 1.02972E+02 2.54234E+01
 -1      3195-9.57162E+02-5.90710E+02-2.67306E+03-5.15374E+00 1.01670E+02 2.33967E+01
 -1      3196-9.60209E+02-5.89160E+02-2.66157E+03-4.69158E+00 1.01288E+02 2.21122E+01
 -1      3197-9.64857E+02-5.89567E+02-2.65898E+03-4.45244E+00 1.01256E+02 2.21117E+01
 -1      3198-9.68548E+02-5.90041E+02-2.65917E+03-4.39432E+00 1.01298E+02 2.25339E+01
 -1      3199-9.70786E+02-5.90279E+02-2.65984E+03-4.39693E+00 1.01337E+02 2.29129E+01
 -1      3200-9.71972E+02-5.90446E+02-2.66057E+03-4.40537E+00 1.01373E+02 2.31539E+01
 -1      3201-9.72496E+02-5.90774E+02-2.66136E+03-4.43708E+00 1.01417E+02 2.33735E+01
 -1      3202-9.71824E+02-5.91206E+02-2.66104E+03-4.57106E+00 1.01455E+02 2.40407E+01
 -1      3203-9.67161E+02-5.90500E+02-2.65522E+03-4.85433E+00 1.01287E+02 2.62768E+01
 -1      3204-9.53000E+02-5.84202E+02-2.63324E+03-5.06256E+00 1.00483E+02 3.11581E+01
 -1      3205-9.25818E+02-5.66421E+02-2.58276E+03-5.00932E+00 9.77903E+01 3.37413E+01
 -1      3206-9.47387E+02-5.57874E+02-2.53305E+03-2.04552E+00 9.27499E+01 7.49741E+00
 -1      3207-9.15810E+02-5.38820E+02-2.54180E+03 8.84433E+00 1.12133E+02-4.65159E+01
 -1      3208-1.31903E+03-9.58137E+02-3.86366E+03-6.09801E+00 1.55626E+02 8.06929E+01
 -1      3209-7.70055E+02-4.95265E+02-2.15965E+03-4.37963E+01 1.06644E+02 2.64073E+02
 -1      3210 7.91203E+00 1.46623E+02 2.68849E+02-2.76737E+01-8.68501E+00 1.61249E+02
 -1      3211-5.77917E+01-5.62401E+00-5.79100E+01 1.74888E+00-9.33811E+00 1.16224E+01
 -1      3212 2.36042E+01 1.31662E+01 1.37310E+01 7.33463E-01-1.40719E-01-2.80772E+00
 -1      3213-2.79882E+02-1.93721E+02-9.89237E+02 6.68268E+01 1.01715E+02-1.14779E+02
 -1      3214-7.15336E+02-5.15739E+02-2.30437E+03 4.94465E+01 2.55929E+02-9.47193E+01
 -1      3215-8.52402E+02-5.61230E+02-2.60754E+03 5.43114E+00 3.06013E+02-1.64464E+01
 -1      3216-9.04688E+02-5.54225E+02-2.62882E+03-8.63772E+00 3.03450E+02 1.77743E+01
 -1      3217-9.03915E+02-5.37601E+02-2.58474E+03-1.12083E+01 2.96192E+02 2.27757E+01
 -1      3218-9.02890E+02-5.30218E+02-2.55555E+03-1.01607E+01 2.92475E+02 2.11125E+01
 -1      3219-9.06664E+02-5.28844E+02-2.54468E+03-9.06885E+00 2.91385E+02 2.01657E+01
 -1      3220-9.11628E+02-5.29171E+02-2.54233E+03-8.57115E+00 2.91263E+02 2.03177E+01
 -1      3221-9.15416E+02-5.29591E+02-2.54261E+03-8.45906E+00 2.91357E+02 2.07864E+01
 -1      3222-9.17652E+02-5.29808E+02-2.54329E+03-8.46706E+00 2.91453E+02 2.11781E+01
 -1      3223-9.18813E+02-5.29962E+02-2.54402E+03-8.47914E+00 2.91545E+02 2.14251E+01
 -1      3224-9.19334E+02-5.30252E+02-2.54482E+03-8.53241E+00 2.91667E+02 2.16369E+01
 -1      3225-9.18762E+02-5.30606E+02-2.54462E+03-8.79912E+00 2.91759E+02 2.22260E+01
 -1      3226-9.14338E+02-5.29964E+02-2.53917E+03-9.46442E+00 2.91364E+02 2.42107E+01
 -1      3227-9.00934E+02-5.24481E+02-2.51832E+03-1.04298E+01 2.88956E+02 2.85395E+01
 -1      3228-8.72923E+02-5.08608E+02-2.46693E+03-1.03365E+01 2.81910E+02 3.10406E+01
 -1      3229-8.91867E+02-5.01890E+02-2.42452E+03-7.47472E+00 2.68870E+02 1.02969E+01
 -1      3230-8.51639E+02-4.77972E+02-2.39565E+03 2.92439E+01 2.98014E+02-3.78122E+01
 -1      3231-1.25605E+03-8.67348E+02-3.69593E+03-1.51879E+01 4.40844E+02 7.32145E+01
 -1      3232-6.97832E+02-4.38913E+02-1.95947E+03-1.17875E+02 2.59771E+02 2.27024E+02
 -1      3233 1.65132E+01 1.32596E+02 2.57996E+02-6.15091E+01-3.35612E+01 1.32816E+02
 -1      3234-5.14677E+01-6.82744E+00-5.86429E+01 8.16675E+00-1.42760E+01 8.86529E+00
 -1      3235 2.07543E+01 1.13912E+01 1.51865E+01 3.02658E-01-5.04808E-01-1.37086E+00
 -1      3236-1.53771E+02-1.34651E+02-5.98761E+02 9.36066E+01 1.49073E+02-6.25400E+01
 -1      3237-3.96691E+02-3.65826E+02-1.30971E+03 6.60045E+01 3.57954E+02-5.40943E+01
 -1      3238-4.78901E+02-3.95905E+02-1.47880E+03 5.72801E+00 4.16034E+02-1.10836E+01
 -1      3239-5.15199E+02-3.89842E+02-1.49488E+03-1.14143E+01 4.10342E+02 9.27459E+00
 -1      3240-5.18532E+02-3.77037E+02-1.46822E+03-1.42172E+01 3.99808E+02 1.27374E+01
 -1      3241-5.22309E+02-3.71785E+02-1.45073E+03-1.24283E+01 3.94597E+02 1.21865E+01
 -1      3242-5.28440E+02-3.70828E+02-1.44415E+03-1.09177E+01 3.93154E+02 1.21037E+01
 -1      3243-5.34209E+02-3.71141E+02-1.44290E+03-1.02846E+01 3.93018E+02 1.26041E+01
 -1      3244-5.38118E+02-3.71488E+02-1.44321E+03-1.01605E+01 3.93155E+02 1.31705E+01
 -1      3245-5.40286E+02-3.71670E+02-1.44371E+03-1.01800E+01 3.93283E+02 1.35851E+01
 -1      3246-5.41332E+02-3.71795E+02-1.44421E+03-1.01928E+01 3.93405E+02 1.38450E+01
 -1      3247-5.41751E+02-3.72015E+02-1.44474E+03-1.02444E+01 3.93582E+02 1.40433E+01
 -1      3248-5.41330E+02-3.72295E+02-1.44462E+03-1.05775E+01 3.93743E+02 1.44703E+01
 -1      3249-5.37995E+02-3.71823E+02-1.44119E+03-1.14701E+01 3.93316E+02 1.58378E+01
 -1      3250-5.27638E+02-3.68004E+02-1.42847E+03-1.32021E+01 3.90028E+02 1.88192E+01
 -1      3251-5.07662E+02-3.56507E+02-1.39907E+03-1.30291E+01 3.80208E+02 2.03969E+01
 -1      3252-5.16200E+02-3.49687E+02-1.37540E+03-1.17677E+01 3.62069E+02 7.79707E+00
 -1      3253-4.98874E+02-3.37718E+02-1.37793E+03 4.44324E+01 3.89681E+02-1.57812E+01
 -1      3254-7.22081E+02-6.10131E+02-2.03517E+03-2.26138E+01 5.95535E+02 4.59656E+01
 -1      3255-3.96343E+02-3.06304E+02-1.05788E+03-1.65472E+02 3.21673E+02 1.24064E+02
 -1      3256-2.22262E+00 9.38989E+01 9.82824E+01-7.73607E+01-5.34452E+01 7.40531E+01
 -1      3257-2.68686E+01-1.11344E-01-2.12285E+01 1.31428E+01-1.58943E+01 8.37693E+00
 -1      3258 1.06003E+01 7.23318E+00 8.15643E+00 9.55709E-02-9.01512E-01 3.65944E-01
 -1      3259-1.65779E+01-7.62935E+01-1.61182E+02 6.79482E+01 9.15533E+01-1.12518E+01
 -1      3260-6.66371E+01-2.15681E+02-2.77820E+02 4.70823E+01 2.15726E+02-1.61967E+01
 -1      3261-1.00404E+02-2.36506E+02-3.36275E+02 3.59842E+00 2.47690E+02-7.04339E+00
 -1      3262-1.20104E+02-2.30688E+02-3.44141E+02-9.74417E+00 2.40257E+02 5.73650E-01
 -1      3263-1.30222E+02-2.22763E+02-3.38974E+02-1.17505E+01 2.32142E+02 2.61328E+00
 -1      3264-1.39538E+02-2.19479E+02-3.33586E+02-1.02353E+01 2.28674E+02 3.25087E+00
 -1      3265-1.48403E+02-2.18932E+02-3.31555E+02-9.00469E+00 2.27907E+02 4.04429E+00
 -1      3266-1.54976E+02-2.19195E+02-3.31327E+02-8.51614E+00 2.27933E+02 4.89672E+00
 -1      3267-1.58972E+02-2.19462E+02-3.31605E+02-8.44165E+00 2.28061E+02 5.56571E+00
 -1      3268-1.61043E+02-2.19605E+02-3.31880E+02-8.47268E+00 2.28149E+02 6.00882E+00
 -1      3269-1.61944E+02-2.19701E+02-3.32107E+02-8.48668E+00 2.28228E+02 6.28650E+00
 -1      3270-1.62210E+02-2.19846E+02-3.32310E+02-8.52279E+00 2.28362E+02 6.47805E+00
 -1      3271-1.61871E+02-2.20027E+02-3.32190E+02-8.77621E+00 2.28556E+02 6.75601E+00
 -1      3272-1.59687E+02-2.19665E+02-3.30764E+02-9.50634E+00 2.28475E+02 7.51455E+00
 -1      3273-1.52670E+02-2.17428E+02-3.26284E+02-1.07807E+01 2.26544E+02 9.11212E+00
 -1      3274-1.41826E+02-2.10580E+02-3.21426E+02-1.08357E+01 2.19700E+02 9.72991E+00
 -1      3275-1.39912E+02-2.04738E+02-3.18021E+02-8.10989E+00 2.05592E+02 4.48683E+00
 -1      3276-1.46181E+02-2.05055E+02-3.58842E+02 3.00993E+01 2.26360E+02 3.46592E+00
 -1      3277-1.94524E+02-3.61815E+02-4.03926E+02-1.97421E+01 3.58822E+02 1.60559E+01
 -1      3278-1.21513E+02-1.86171E+02-2.46340E+02-1.15968E+02 1.82491E+02 2.61924E+01
 -1      3279-1.56522E+01 5.57253E+01-3.27828E+01-5.45981E+01-4.35939E+01 2.05196E+01
 -1      3280-8.31657E+00 5.15721E+00 1.25048E+01 8.56501E+00-1.61921E+01 7.48114E+00
 -1      3281-5.62506E-01 3.46129E+00 2.43416E+00 1.62184E+00-8.42770E-01 1.85631E+00
 -1      3282 5.53800E+00-5.94996E+01-6.66738E+01 2.86745E+01 1.23241E+01 8.60943E+00
 -1      3283-1.15664E+01-1.61687E+02-1.12075E+02 2.00885E+01 3.09942E+01 1.67551E+00
 -1      3284-2.10833E+01-1.75958E+02-1.29658E+02 2.24548E+00 3.45156E+01-8.89880E-01
 -1      3285-3.33283E+01-1.72362E+02-1.30664E+02-4.65906E+00 2.88620E+01-6.73153E-01
 -1      3286-4.54393E+01-1.66466E+02-1.25618E+02-5.78698E+00 2.56787E+01-1.99142E-01
 -1      3287-5.78954E+01-1.64043E+02-1.22312E+02-5.22417E+00 2.48182E+01 6.93014E-01
 -1      3288-6.82718E+01-1.63564E+02-1.21383E+02-4.64742E+00 2.48328E+01 1.86703E+00
 -1      3289-7.53011E+01-1.63751E+02-1.21573E+02-4.41162E+00 2.49623E+01 2.93519E+00
 -1      3290-7.93431E+01-1.63970E+02-1.21929E+02-4.37884E+00 2.50329E+01 3.70064E+00
 -1      3291-8.13707E+01-1.64099E+02-1.22175E+02-4.40062E+00 2.50573E+01 4.18689E+00
 -1      3292-8.21962E+01-1.64187E+02-1.22351E+02-4.41470E+00 2.50733E+01 4.48410E+00
 -1      3293-8.23547E+01-1.64300E+02-1.22534E+02-4.44283E+00 2.51234E+01 4.66785E+00
 -1      3294-8.20265E+01-1.64405E+02-1.22589E+02-4.57866E+00 2.52632E+01 4.85806E+00
 -1      3295-8.03199E+01-1.64044E+02-1.21797E+02-4.93788E+00 2.54532E+01 5.33739E+00
 -1      3296-7.49930E+01-1.62468E+02-1.19431E+02-5.37818E+00 2.52400E+01 6.36460E+00
 -1      3297-6.50190E+01-1.57465E+02-1.16061E+02-5.45296E+00 2.31687E+01 7.09678E+00
 -1      3298-5.75752E+01-1.53320E+02-1.18266E+02-2.43484E+00 1.72785E+01 6.28209E+00
 -1      3299-5.48669E+01-1.52579E+02-1.35476E+02 9.57693E+00 2.69952E+01 6.74784E+00
 -1      3300-9.49121E+01-2.61706E+02-1.65403E+02-1.09078E+01 5.98391E+01 4.85740E-01
 -1      3301-5.49674E+01-1.28958E+02-9.29262E+01-4.47910E+01 2.44307E+01-8.88343E+00
 -1      3302-3.35054E+00 3.58375E+01 2.05424E-01-2.40557E+01-2.14325E+01-5.00026E+00
 -1      3303-1.27797E+01 3.42747E+00 1.32555E+01 1.42634E+00-1.08024E+01 1.27835E+00
 -1      3304-7.57135E+00 1.69690E+00 4.97142E+00 1.50589E+00-4.71863E-01 2.19371E+00
 -3
    1PSTEP                         3           1           1          
  100CL  101 1.00000E-01        3304                     0    1           1
 -4  ERROR       1    1
 -5  STR(%)      1    1    0    0
 -1         1 1.64508E+01
 -1         2 2.16215E+01
 -1         3 1.64508E+01
 -1         4 2.16215E+01
 -1         5 1.47681E+01
 -1         6 1.39958E+01
 -1         7 1.40903E+01
 -1         8 1.34631E+01
 -1         9 1.47681E+01
 -1        10 1.39958E+01
 -1        11 1.64508E+01
 -1        12 2.16215E+01
 -1        13 1.64508E+01
 -1        14 2.16215E+01
 -1        15 1.77318E+01
 -1        16 2.16215E+01
 -1        17 1.77318E+01
 -1        18 2.16215E+01
 -1        19 1.59882E+01
 -1        20 1.99126E+01
 -1        21 1.53537E+01
 -1        22 1.98267E+01
 -1        23 1.59882E+01
 -1        24 1.99126E+01
 -1        25 1.77318E+01
 -1        26 2.16215E+01
 -1        27 1.77318E+01
 -1        28 2.16215E+01
 -1        29 1.95059E+01
 -1        30 1.49119E+01
 -1        31 1.95059E+01
 -1        32 2.57545E+01
 -1        33 1.79509E+01
 -1        34 2.57545E+01
 -1        35 1.71247E+01
 -1        36 2.56819E+01
 -1        37 1.79509E+01
 -1        38 2.57545E+01
 -1        39 1.95059E+01
 -1        40 2.57545E+01
 -1        41 1.95059E+01
 -1        42 1.49119E+01
 -1        43 2.21249E+01
 -1        44 3.07865E+01
 -1        45 2.21249E+01
 -1        46 3.29031E+01
 -1        47 2.07008E+01
 -1        48 3.29031E+01
 -1        49 1.94513E+01
 -1        50 3.10667E+01
 -1        51 2.07008E+01
 -1        52 3.29031E+01
 -1        53 2.21249E+01
 -1        54 3.29031E+01
 -1        55 2.21249E+01
 -1        56 3.07865E+01
 -1        57 2.78253E+01
 -1        58 4.17762E+01
 -1        59 2.78253E+01
 -1        60 4.17762E+01
 -1        61 2.39977E+01
 -1        62 3.88487E+01
 -1        63 2.28393E+01
 -1        64 3.74778E+01
 -1        65 2.39977E+01
 -1        66 3.88487E+01
 -1        67 2.78253E+01
 -1        68 4.17762E+01
 -1        69 2.78253E+01
 -1        70 4.17762E+01
 -1        71 3.67401E+01
 -1        72 5.74682E+01
 -1        73 3.67401E+01
 -1        74 5.74682E+01
 -1        75 2.86902E+01
 -1        76 3.88487E+01
 -1        77 2.72173E+01
 -1        78 3.74778E+01
 -1        79 2.86902E+01
 -1        80 3.88487E+01
 -1        81 3.67401E+01
 -1        82 5.74682E+01
 -1        83 3.67401E+01
 -1        84 5.74682E+01
 -1        85 3.67401E+01
 -1        86 5.74682E+01
 -1        87 3.67401E+01
 -1        88 5.74682E+01
 -1        89 2.86902E+01
 -1        90 2.89370E+01
 -1        91 2.72173E+01
 -1        92 2.67400E+01
 -1        93 2.86902E+01
 -1        94 2.89370E+01
 -1        95 3.67401E+01
 -1        96 5.74682E+01
 -1        97 3.67401E+01
 -1        98 5.74682E+01
 -1        99 1.64508E+01
 -1       100 1.64508E+01
 -1       101 3.16462E+00
 -1       102 3.16462E+00
 -1       103 8.23632E-01
 -1       104 8.23632E-01
 -1       105 3.51721E-01
 -1       106 3.51721E-01
 -1       107 2.19138E-01
 -1       108 2.19138E-01
 -1       109 7.19785E-02
 -1       110 7.19785E-02
 -1       111 3.23804E-02
 -1       112 3.23804E-02
 -1       113 3.63102E-02
 -1       114 3.63102E-02
 -1       115 3.63102E-02
 -1       116 3.63102E-02
 -1       117 3.57232E-02
 -1       118 3.57232E-02
 -1       119 3.58875E-02
 -1       120 3.58875E-02
 -1       121 3.58875E-02
 -1       122 3.58875E-02
 -1       123 3.55198E-02
 -1       124 3.55198E-02
 -1       125 3.95647E-02
 -1       126 3.95647E-02
 -1       127 1.69195E-01
 -1       128 1.69195E-01
 -1       129 4.37281E-01
 -1       130 4.37281E-01
 -1       131 5.54697E-01
 -1       132 5.54697E-01
 -1       133 3.51460E+00
 -1       134 3.51460E+00
 -1       135 2.16215E+01
 -1       136 2.16215E+01
 -1       137 1.77318E+01
 -1       138 1.77318E+01
 -1       139 3.37322E+00
 -1       140 3.37322E+00
 -1       141 8.23632E-01
 -1       142 8.23632E-01
 -1       143 4.39867E-01
 -1       144 4.39867E-01
 -1       145 2.76596E-01
 -1       146 2.76596E-01
 -1       147 1.22404E-01
 -1       148 1.22404E-01
 -1       149 1.25949E-01
 -1       150 1.25949E-01
 -1       151 1.27745E-01
 -1       152 1.27745E-01
 -1       153 1.27745E-01
 -1       154 1.27745E-01
 -1       155 1.25697E-01
 -1       156 1.25697E-01
 -1       157 1.24261E-01
 -1       158 1.24261E-01
 -1       159 1.23245E-01
 -1       160 1.23245E-01
 -1       161 1.20827E-01
 -1       162 1.20827E-01
 -1       163 1.19191E-01
 -1       164 1.19191E-01
 -1       165 2.54637E-01
 -1       166 2.54637E-01
 -1       167 6.50101E-01
 -1       168 6.50101E-01
 -1       169 1.06187E+00
 -1       170 1.06187E+00
 -1       171 3.51460E+00
 -1       172 3.51460E+00
 -1       173 2.16215E+01
 -1       174 2.16215E+01
 -1       175 1.95059E+01
 -1       176 1.95059E+01
 -1       177 3.50580E+00
 -1       178 3.50580E+00
 -1       179 7.68161E-01
 -1       180 7.68161E-01
 -1       181 7.68161E-01
 -1       182 7.68161E-01
 -1       183 4.55698E-01
 -1       184 4.55698E-01
 -1       185 3.94879E-01
 -1       186 3.94879E-01
 -1       187 4.09141E-01
 -1       188 4.09141E-01
 -1       189 4.09141E-01
 -1       190 4.09141E-01
 -1       191 4.07473E-01
 -1       192 4.07473E-01
 -1       193 4.04117E-01
 -1       194 4.04117E-01
 -1       195 4.01442E-01
 -1       196 4.01442E-01
 -1       197 3.98750E-01
 -1       198 3.98750E-01
 -1       199 3.94458E-01
 -1       200 3.94458E-01
 -1       201 3.85693E-01
 -1       202 3.85693E-01
 -1       203 4.84114E-01
 -1       204 4.84114E-01
 -1       205 9.15886E-01
 -1       206 9.15886E-01
 -1       207 1.56763E+00
 -1       208 1.56763E+00
 -1       209 1.92745E+00
 -1       210 1.92745E+00
 -1       211 1.49119E+01
 -1       212 1.49119E+01
 -1       213 2.21249E+01
 -1       214 2.21249E+01
 -1       215 3.50580E+00
 -1       216 3.50580E+00
 -1       217 1.36012E+00
 -1       218 1.36012E+00
 -1       219 1.31107E+00
 -1       220 1.31107E+00
 -1       221 1.02278E+00
 -1       222 1.02278E+00
 -1       223 1.06904E+00
 -1       224 1.06904E+00
 -1       225 1.06904E+00
 -1       226 1.06904E+00
 -1       227 1.06783E+00
 -1       228 1.06783E+00
 -1       229 1.06258E+00
 -1       230 1.06258E+00
 -1       231 1.05695E+00
 -1       232 1.05695E+00
 -1       233 1.05242E+00
 -1       234 1.05242E+00
 -1       235 1.04744E+00
 -1       236 1.04744E+00
 -1       237 1.03980E+00
 -1       238 1.03980E+00
 -1       239 1.03042E+00
 -1       240 1.03042E+00
 -1       241 1.06887E+00
 -1       242 1.06887E+00
 -1       243 1.33460E+00
 -1       244 1.33460E+00
 -1       245 2.50704E+00
 -1       246 2.50704E+00
 -1       247 2.50704E+00
 -1       248 2.50704E+00
 -1       249 3.07865E+01
 -1       250 3.07865E+01
 -1       251 2.78253E+01
 -1       252 2.78253E+01
 -1       253 3.81990E+00
 -1       254 3.81990E+00
 -1       255 3.81990E+00
 -1       256 3.81990E+00
 -1       257 2.90854E+00
 -1       258 2.90854E+00
 -1       259 2.65755E+00
 -1       260 2.65755E+00
 -1       261 2.65755E+00
 -1       262 2.65755E+00
 -1       263 2.63867E+00
 -1       264 2.63867E+00
 -1       265 2.62483E+00
 -1       266 2.62483E+00
 -1       267 2.61254E+00
 -1       268 2.61254E+00
 -1       269 2.60329E+00
 -1       270 2.60329E+00
 -1       271 2.59490E+00
 -1       272 2.59490E+00
 -1       273 2.58552E+00
 -1       274 2.58552E+00
 -1       275 2.57352E+00
 -1       276 2.57352E+00
 -1       277 2.55741E+00
 -1       278 2.55741E+00
 -1       279 2.58449E+00
 -1       280 2.58449E+00
 -1       281 2.76422E+00
 -1       282 2.76422E+00
 -1       283 3.48430E+00
 -1       284 3.48430E+00
 -1       285 7.45734E+00
 -1       286 7.45734E+00
 -1       287 4.17762E+01
 -1       288 4.17762E+01
 -1       289 3.81431E+01
 -1       290 3.81431E+01
 -1       291 3.81431E+01
 -1       292 3.81431E+01
 -1       293 3.18470E+01
 -1       294 3.18470E+01
 -1       295 1.02832E+01
 -1       296 1.02832E+01
 -1       297 1.02832E+01
 -1       298 1.02832E+01
 -1       299 9.90488E+00
 -1       300 9.90488E+00
 -1       301 9.74415E+00
 -1       302 9.74415E+00
 -1       303 9.65194E+00
 -1       304 9.65194E+00
 -1       305 9.59727E+00
 -1       306 9.59727E+00
 -1       307 9.54934E+00
 -1       308 9.54934E+00
 -1       309 9.50171E+00
 -1       310 9.50171E+00
 -1       311 9.45187E+00
 -1       312 9.45187E+00
 -1       313 9.39597E+00
 -1       314 9.39597E+00
 -1       315 9.33229E+00
 -1       316 9.33229E+00
 -1       317 9.24640E+00
 -1       318 9.24640E+00
 -1       319 9.22721E+00
 -1       320 9.22721E+00
 -1       321 1.06727E+01
 -1       322 1.06727E+01
 -1       323 1.63054E+01
 -1       324 1.63054E+01
 -1       325 5.74682E+01
 -1       326 5.74682E+01
 -1       327 3.81431E+01
 -1       328 3.81431E+01
 -1       329 3.81431E+01
 -1       330 3.81431E+01
 -1       331 3.18470E+01
 -1       332 3.18470E+01
 -1       333 1.02832E+01
 -1       334 1.02832E+01
 -1       335 1.02832E+01
 -1       336 1.02832E+01
 -1       337 9.90488E+00
 -1       338 9.90488E+00
 -1       339 9.74415E+00
 -1       340 9.74415E+00
 -1       341 9.65194E+00
 -1       342 9.65194E+00
 -1       343 9.59727E+00
 -1       344 9.59727E+00
 -1       345 9.54934E+00
 -1       346 9.54934E+00
 -1       347 9.50171E+00
 -1       348 9.50171E+00
 -1       349 9.45187E+00
 -1       350 9.45187E+00
 -1       351 9.39597E+00
 -1       352 9.39597E+00
 -1       353 9.33229E+00
 -1       354 9.33229E+00
 -1       355 9.24640E+00
 -1       356 9.24640E+00
 -1       357 9.22721E+00
 -1       358 9.22721E+00
 -1       359 1.06727E+01
 -1       360 1.06727E+01
 -1       361 1.63054E+01
 -1       362 1.63054E+01
 -1       363 5.74682E+01
 -1       364 5.74682E+01
 -1       365 1.64508E+01
 -1       366 3.81431E+01
 -1       367 3.16462E+00
 -1       368 3.81431E+01
 -1       369 8.23632E-01
 -1       370 3.18470E+01
 -1       371 3.51721E-01
 -1       372 1.02832E+01
 -1       373 3.10464E-01
 -1       374 1.02832E+01
 -1       375 1.87252E-01
 -1       376 9.90488E+00
 -1       377 1.37657E-01
 -1       378 9.74415E+00
 -1       379 1.40953E-01
 -1       380 9.65194E+00
 -1       381 1.40953E-01
 -1       382 9.59727E+00
 -1       383 1.40741E-01
 -1       384 9.54934E+00
 -1       385 1.41447E-01
 -1       386 9.50171E+00
 -1       387 1.41767E-01
 -1       388 9.45187E+00
 -1       389 1.41767E-01
 -1       390 9.39597E+00
 -1       391 1.38540E-01
 -1       392 9.33229E+00
 -1       393 2.04010E-01
 -1       394 9.24640E+00
 -1       395 4.72456E-01
 -1       396 9.22721E+00
 -1       397 5.65740E-01
 -1       398 1.06727E+01
 -1       399 3.51460E+00
 -1       400 1.63054E+01
 -1       401 2.16215E+01
 -1       402 5.74682E+01
 -1       403 1.47681E+01
 -1       404 2.86902E+01
 -1       405 2.74729E+00
 -1       406 8.43932E+00
 -1       407 6.57357E-01
 -1       408 2.40918E+00
 -1       409 3.14507E-01
 -1       410 2.32794E+00
 -1       411 3.10464E-01
 -1       412 2.32794E+00
 -1       413 1.87252E-01
 -1       414 2.26812E+00
 -1       415 1.37657E-01
 -1       416 2.23428E+00
 -1       417 1.40953E-01
 -1       418 2.21834E+00
 -1       419 1.40953E-01
 -1       420 2.20983E+00
 -1       421 1.40741E-01
 -1       422 2.20391E+00
 -1       423 1.41447E-01
 -1       424 2.19809E+00
 -1       425 1.41767E-01
 -1       426 2.19107E+00
 -1       427 1.41767E-01
 -1       428 2.18077E+00
 -1       429 1.38540E-01
 -1       430 2.16732E+00
 -1       431 2.04010E-01
 -1       432 2.20916E+00
 -1       433 4.72456E-01
 -1       434 2.30204E+00
 -1       435 5.65740E-01
 -1       436 2.71574E+00
 -1       437 2.35137E+00
 -1       438 9.57197E+00
 -1       439 1.39958E+01
 -1       440 2.89370E+01
 -1       441 1.40903E+01
 -1       442 2.72173E+01
 -1       443 2.69893E+00
 -1       444 8.43932E+00
 -1       445 5.04244E-01
 -1       446 1.39229E+00
 -1       447 3.14507E-01
 -1       448 1.47108E+00
 -1       449 2.71022E-01
 -1       450 1.47108E+00
 -1       451 1.71527E-01
 -1       452 1.39962E+00
 -1       453 1.20257E-01
 -1       454 1.36818E+00
 -1       455 1.23833E-01
 -1       456 1.35043E+00
 -1       457 1.23833E-01
 -1       458 1.34333E+00
 -1       459 1.23796E-01
 -1       460 1.33936E+00
 -1       461 1.24617E-01
 -1       462 1.33580E+00
 -1       463 1.24930E-01
 -1       464 1.33078E+00
 -1       465 1.24930E-01
 -1       466 1.32222E+00
 -1       467 1.24365E-01
 -1       468 1.30670E+00
 -1       469 1.91032E-01
 -1       470 1.32321E+00
 -1       471 3.37536E-01
 -1       472 1.58107E+00
 -1       473 4.15501E-01
 -1       474 2.17439E+00
 -1       475 1.81910E+00
 -1       476 7.06781E+00
 -1       477 1.34631E+01
 -1       478 2.67400E+01
 -1       479 1.47681E+01
 -1       480 2.86902E+01
 -1       481 2.74729E+00
 -1       482 8.43932E+00
 -1       483 6.57357E-01
 -1       484 2.40918E+00
 -1       485 3.14507E-01
 -1       486 2.32794E+00
 -1       487 3.10464E-01
 -1       488 2.32794E+00
 -1       489 1.87252E-01
 -1       490 2.26812E+00
 -1       491 1.37657E-01
 -1       492 2.23428E+00
 -1       493 1.40953E-01
 -1       494 2.21834E+00
 -1       495 1.40953E-01
 -1       496 2.20983E+00
 -1       497 1.40741E-01
 -1       498 2.20391E+00
 -1       499 1.41447E-01
 -1       500 2.19809E+00
 -1       501 1.41767E-01
 -1       502 2.19107E+00
 -1       503 1.41767E-01
 -1       504 2.18077E+00
 -1       505 1.38540E-01
 -1       506 2.16732E+00
 -1       507 2.04010E-01
 -1       508 2.20916E+00
 -1       509 4.72456E-01
 -1       510 2.30204E+00
 -1       511 5.65740E-01
 -1       512 2.71574E+00
 -1       513 2.35137E+00
 -1       514 9.57197E+00
 -1       515 1.39958E+01
 -1       516 2.89370E+01
 -1       517 1.64508E+01
 -1       518 3.81431E+01
 -1       519 3.16462E+00
 -1       520 3.81431E+01
 -1       521 8.23632E-01
 -1       522 3.18470E+01
 -1       523 3.51721E-01
 -1       524 1.02832E+01
 -1       525 3.10464E-01
 -1       526 1.02832E+01
 -1       527 1.87252E-01
 -1       528 9.90488E+00
 -1       529 1.37657E-01
 -1       530 9.74415E+00
 -1       531 1.40953E-01
 -1       532 9.65194E+00
 -1       533 1.40953E-01
 -1       534 9.59727E+00
 -1       535 1.40741E-01
 -1       536 9.54934E+00
 -1       537 1.41447E-01
 -1       538 9.50171E+00
 -1       539 1.41767E-01
 -1       540 9.45187E+00
 -1       541 1.41767E-01
 -1       542 9.39597E+00
 -1       543 1.38540E-01
 -1       544 9.33229E+00
 -1       545 2.04010E-01
 -1       546 9.24640E+00
 -1       547 4.72456E-01
 -1       548 9.22721E+00
 -1       549 5.65740E-01
 -1       550 1.06727E+01
 -1       551 3.51460E+00
 -1       552 1.63054E+01
 -1       553 2.16215E+01
 -1       554 5.74682E+01
 -1       555 1.77318E+01
 -1       556 3.37322E+00
 -1       557 8.23632E-01
 -1       558 5.58958E-01
 -1       559 5.02065E-01
 -1       560 3.42568E-01
 -1       561 2.86771E-01
 -1       562 2.89216E-01
 -1       563 2.89375E-01
 -1       564 2.89425E-01
 -1       565 2.90556E-01
 -1       566 2.91681E-01
 -1       567 2.91681E-01
 -1       568 2.84005E-01
 -1       569 2.81100E-01
 -1       570 6.63152E-01
 -1       571 1.06187E+00
 -1       572 3.51460E+00
 -1       573 2.16215E+01
 -1       574 1.59882E+01
 -1       575 2.88198E+00
 -1       576 7.74070E-01
 -1       577 5.98151E-01
 -1       578 5.02065E-01
 -1       579 3.42568E-01
 -1       580 2.86771E-01
 -1       581 2.89216E-01
 -1       582 2.89375E-01
 -1       583 2.89425E-01
 -1       584 2.90556E-01
 -1       585 2.91681E-01
 -1       586 2.91681E-01
 -1       587 2.84005E-01
 -1       588 2.81100E-01
 -1       589 6.63152E-01
 -1       590 8.58757E-01
 -1       591 2.35137E+00
 -1       592 1.99126E+01
 -1       593 1.53537E+01
 -1       594 2.72531E+00
 -1       595 6.17065E-01
 -1       596 5.98151E-01
 -1       597 4.49056E-01
 -1       598 3.14871E-01
 -1       599 2.58266E-01
 -1       600 2.61081E-01
 -1       601 2.61437E-01
 -1       602 2.61565E-01
 -1       603 2.62755E-01
 -1       604 2.63867E-01
 -1       605 2.63867E-01
 -1       606 2.56249E-01
 -1       607 2.55552E-01
 -1       608 3.96564E-01
 -1       609 6.37581E-01
 -1       610 1.81910E+00
 -1       611 1.98267E+01
 -1       612 1.59882E+01
 -1       613 2.88198E+00
 -1       614 7.74070E-01
 -1       615 5.98151E-01
 -1       616 5.02065E-01
 -1       617 3.42568E-01
 -1       618 2.86771E-01
 -1       619 2.89216E-01
 -1       620 2.89375E-01
 -1       621 2.89425E-01
 -1       622 2.90556E-01
 -1       623 2.91681E-01
 -1       624 2.91681E-01
 -1       625 2.84005E-01
 -1       626 2.81100E-01
 -1       627 6.63152E-01
 -1       628 8.58757E-01
 -1       629 2.35137E+00
 -1       630 1.99126E+01
 -1       631 1.77318E+01
 -1       632 3.37322E+00
 -1       633 8.23632E-01
 -1       634 5.58958E-01
 -1       635 5.02065E-01
 -1       636 3.42568E-01
 -1       637 2.86771E-01
 -1       638 2.89216E-01
 -1       639 2.89375E-01
 -1       640 2.89425E-01
 -1       641 2.90556E-01
 -1       642 2.91681E-01
 -1       643 2.91681E-01
 -1       644 2.84005E-01
 -1       645 2.81100E-01
 -1       646 6.63152E-01
 -1       647 1.06187E+00
 -1       648 3.51460E+00
 -1       649 2.16215E+01
 -1       650 1.95059E+01
 -1       651 3.50580E+00
 -1       652 1.03515E+00
 -1       653 9.44093E-01
 -1       654 7.51956E-01
 -1       655 5.98662E-01
 -1       656 5.51580E-01
 -1       657 5.53093E-01
 -1       658 5.53144E-01
 -1       659 5.53144E-01
 -1       660 5.53497E-01
 -1       661 5.55077E-01
 -1       662 5.55077E-01
 -1       663 5.50032E-01
 -1       664 5.21840E-01
 -1       665 9.15886E-01
 -1       666 1.56763E+00
 -1       667 1.92745E+00
 -1       668 2.57545E+01
 -1       669 1.79509E+01
 -1       670 2.88198E+00
 -1       671 1.03515E+00
 -1       672 9.44093E-01
 -1       673 7.51956E-01
 -1       674 5.98662E-01
 -1       675 5.51580E-01
 -1       676 5.53093E-01
 -1       677 5.53144E-01
 -1       678 5.53144E-01
 -1       679 5.53497E-01
 -1       680 5.55077E-01
 -1       681 5.55077E-01
 -1       682 5.50032E-01
 -1       683 5.21840E-01
 -1       684 8.13178E-01
 -1       685 1.34041E+00
 -1       686 1.74551E+00
 -1       687 2.57545E+01
 -1       688 1.71247E+01
 -1       689 2.72531E+00
 -1       690 8.50199E-01
 -1       691 8.50199E-01
 -1       692 5.69523E-01
 -1       693 4.42995E-01
 -1       694 3.96916E-01
 -1       695 3.99287E-01
 -1       696 3.99902E-01
 -1       697 4.00070E-01
 -1       698 4.01067E-01
 -1       699 4.03096E-01
 -1       700 4.03096E-01
 -1       701 3.98098E-01
 -1       702 3.76318E-01
 -1       703 3.96564E-01
 -1       704 9.45083E-01
 -1       705 1.29467E+00
 -1       706 2.56819E+01
 -1       707 1.79509E+01
 -1       708 2.88198E+00
 -1       709 1.03515E+00
 -1       710 9.44093E-01
 -1       711 7.51956E-01
 -1       712 5.98662E-01
 -1       713 5.51580E-01
 -1       714 5.53093E-01
 -1       715 5.53144E-01
 -1       716 5.53144E-01
 -1       717 5.53497E-01
 -1       718 5.55077E-01
 -1       719 5.55077E-01
 -1       720 5.50032E-01
 -1       721 5.21840E-01
 -1       722 8.13178E-01
 -1       723 1.34041E+00
 -1       724 1.74551E+00
 -1       725 2.57545E+01
 -1       726 1.95059E+01
 -1       727 3.50580E+00
 -1       728 1.03515E+00
 -1       729 9.44093E-01
 -1       730 7.51956E-01
 -1       731 5.98662E-01
 -1       732 5.51580E-01
 -1       733 5.53093E-01
 -1       734 5.53144E-01
 -1       735 5.53144E-01
 -1       736 5.53497E-01
 -1       737 5.55077E-01
 -1       738 5.55077E-01
 -1       739 5.50032E-01
 -1       740 5.21840E-01
 -1       741 9.15886E-01
 -1       742 1.56763E+00
 -1       743 1.92745E+00
 -1       744 2.57545E+01
 -1       745 2.21249E+01
 -1       746 3.50580E+00
 -1       747 1.96598E+00
 -1       748 1.34813E+00
 -1       749 1.03979E+00
 -1       750 1.06904E+00
 -1       751 1.06904E+00
 -1       752 1.06783E+00
 -1       753 1.06258E+00
 -1       754 1.05695E+00
 -1       755 1.05242E+00
 -1       756 1.04744E+00
 -1       757 1.03980E+00
 -1       758 1.03042E+00
 -1       759 1.06887E+00
 -1       760 1.33460E+00
 -1       761 2.50704E+00
 -1       762 2.50704E+00
 -1       763 3.29031E+01
 -1       764 2.07008E+01
 -1       765 2.88018E+00
 -1       766 1.96598E+00
 -1       767 1.34813E+00
 -1       768 1.03979E+00
 -1       769 9.27644E-01
 -1       770 8.91633E-01
 -1       771 8.88307E-01
 -1       772 8.88307E-01
 -1       773 8.88004E-01
 -1       774 8.86911E-01
 -1       775 8.87268E-01
 -1       776 8.87349E-01
 -1       777 8.87349E-01
 -1       778 8.57797E-01
 -1       779 9.28672E-01
 -1       780 1.87704E+00
 -1       781 2.19613E+00
 -1       782 3.29031E+01
 -1       783 1.94513E+01
 -1       784 2.56083E+00
 -1       785 1.35944E+00
 -1       786 8.50199E-01
 -1       787 5.69523E-01
 -1       788 4.42995E-01
 -1       789 3.96916E-01
 -1       790 3.99287E-01
 -1       791 3.99902E-01
 -1       792 4.00070E-01
 -1       793 4.01067E-01
 -1       794 4.03096E-01
 -1       795 4.03096E-01
 -1       796 3.98098E-01
 -1       797 3.76318E-01
 -1       798 5.12475E-01
 -1       799 1.34922E+00
 -1       800 2.19613E+00
 -1       801 3.10667E+01
 -1       802 2.07008E+01
 -1       803 2.88018E+00
 -1       804 1.96598E+00
 -1       805 1.34813E+00
 -1       806 1.03979E+00
 -1       807 9.27644E-01
 -1       808 8.91633E-01
 -1       809 8.88307E-01
 -1       810 8.88307E-01
 -1       811 8.88004E-01
 -1       812 8.86911E-01
 -1       813 8.87268E-01
 -1       814 8.87349E-01
 -1       815 8.87349E-01
 -1       816 8.57797E-01
 -1       817 9.28672E-01
 -1       818 1.87704E+00
 -1       819 2.19613E+00
 -1       820 3.29031E+01
 -1       821 2.21249E+01
 -1       822 3.50580E+00
 -1       823 1.96598E+00
 -1       824 1.34813E+00
 -1       825 1.03979E+00
 -1       826 1.06904E+00
 -1       827 1.06904E+00
 -1       828 1.06783E+00
 -1       829 1.06258E+00
 -1       830 1.05695E+00
 -1       831 1.05242E+00
 -1       832 1.04744E+00
 -1       833 1.03980E+00
 -1       834 1.03042E+00
 -1       835 1.06887E+00
 -1       836 1.33460E+00
 -1       837 2.50704E+00
 -1       838 2.50704E+00
 -1       839 3.29031E+01
 -1       840 2.78253E+01
 -1       841 3.81990E+00
 -1       842 3.81990E+00
 -1       843 2.90854E+00
 -1       844 2.65755E+00
 -1       845 2.65755E+00
 -1       846 2.63867E+00
 -1       847 2.62483E+00
 -1       848 2.61254E+00
 -1       849 2.60329E+00
 -1       850 2.59490E+00
 -1       851 2.58552E+00
 -1       852 2.57352E+00
 -1       853 2.55741E+00
 -1       854 2.58449E+00
 -1       855 2.76422E+00
 -1       856 3.48430E+00
 -1       857 7.45734E+00
 -1       858 4.17762E+01
 -1       859 2.39977E+01
 -1       860 2.57554E+00
 -1       861 2.57554E+00
 -1       862 1.34813E+00
 -1       863 1.03979E+00
 -1       864 9.27644E-01
 -1       865 8.91633E-01
 -1       866 8.88307E-01
 -1       867 8.88307E-01
 -1       868 8.88004E-01
 -1       869 8.86911E-01
 -1       870 8.87268E-01
 -1       871 8.87349E-01
 -1       872 8.87349E-01
 -1       873 8.57797E-01
 -1       874 9.86132E-01
 -1       875 1.87704E+00
 -1       876 4.98292E+00
 -1       877 3.88487E+01
 -1       878 2.28393E+01
 -1       879 1.97475E+00
 -1       880 1.35944E+00
 -1       881 7.97533E-01
 -1       882 6.52994E-01
 -1       883 6.54356E-01
 -1       884 6.54356E-01
 -1       885 6.50508E-01
 -1       886 6.45386E-01
 -1       887 6.42160E-01
 -1       888 6.39473E-01
 -1       889 6.35695E-01
 -1       890 6.28928E-01
 -1       891 6.18785E-01
 -1       892 6.93015E-01
 -1       893 9.02031E-01
 -1       894 1.44978E+00
 -1       895 4.98292E+00
 -1       896 3.74778E+01
 -1       897 2.39977E+01
 -1       898 2.57554E+00
 -1       899 2.57554E+00
 -1       900 1.34813E+00
 -1       901 1.03979E+00
 -1       902 9.27644E-01
 -1       903 8.91633E-01
 -1       904 8.88307E-01
 -1       905 8.88307E-01
 -1       906 8.88004E-01
 -1       907 8.86911E-01
 -1       908 8.87268E-01
 -1       909 8.87349E-01
 -1       910 8.87349E-01
 -1       911 8.57797E-01
 -1       912 9.86132E-01
 -1       913 1.87704E+00
 -1       914 4.98292E+00
 -1       915 3.88487E+01
 -1       916 2.78253E+01
 -1       917 3.81990E+00
 -1       918 3.81990E+00
 -1       919 2.90854E+00
 -1       920 2.65755E+00
 -1       921 2.65755E+00
 -1       922 2.63867E+00
 -1       923 2.62483E+00
 -1       924 2.61254E+00
 -1       925 2.60329E+00
 -1       926 2.59490E+00
 -1       927 2.58552E+00
 -1       928 2.57352E+00
 -1       929 2.55741E+00
 -1       930 2.58449E+00
 -1       931 2.76422E+00
 -1       932 3.48430E+00
 -1       933 7.45734E+00
 -1       934 4.17762E+01
 -1       935 3.81431E+01
 -1       936 3.81431E+01
 -1       937 3.18470E+01
 -1       938 1.02832E+01
 -1       939 1.02832E+01
 -1       940 9.90488E+00
 -1       941 9.74415E+00
 -1       942 9.65194E+00
 -1       943 9.59727E+00
 -1       944 9.54934E+00
 -1       945 9.50171E+00
 -1       946 9.45187E+00
 -1       947 9.39597E+00
 -1       948 9.33229E+00
 -1       949 9.24640E+00
 -1       950 9.22721E+00
 -1       951 1.06727E+01
 -1       952 1.63054E+01
 -1       953 5.74682E+01
 -1       954 2.86902E+01
 -1       955 8.43932E+00
 -1       956 2.57554E+00
 -1       957 2.32794E+00
 -1       958 2.32794E+00
 -1       959 2.26812E+00
 -1       960 2.23428E+00
 -1       961 2.21834E+00
 -1       962 2.20983E+00
 -1       963 2.20391E+00
 -1       964 2.19809E+00
 -1       965 2.19107E+00
 -1       966 2.18077E+00
 -1       967 2.16732E+00
 -1       968 2.20916E+00
 -1       969 2.30204E+00
 -1       970 2.71574E+00
 -1       971 9.57197E+00
 -1       972 3.88487E+01
 -1       973 2.72173E+01
 -1       974 8.43932E+00
 -1       975 1.39229E+00
 -1       976 1.47108E+00
 -1       977 1.47108E+00
 -1       978 1.39962E+00
 -1       979 1.36818E+00
 -1       980 1.35043E+00
 -1       981 1.34333E+00
 -1       982 1.33936E+00
 -1       983 1.33580E+00
 -1       984 1.33078E+00
 -1       985 1.32222E+00
 -1       986 1.30670E+00
 -1       987 1.32321E+00
 -1       988 1.58107E+00
 -1       989 2.17439E+00
 -1       990 7.06781E+00
 -1       991 3.74778E+01
 -1       992 2.86902E+01
 -1       993 8.43932E+00
 -1       994 2.57554E+00
 -1       995 2.32794E+00
 -1       996 2.32794E+00
 -1       997 2.26812E+00
 -1       998 2.23428E+00
 -1       999 2.21834E+00
 -1      1000 2.20983E+00
 -1      1001 2.20391E+00
 -1      1002 2.19809E+00
 -1      1003 2.19107E+00
 -1      1004 2.18077E+00
 -1      1005 2.16732E+00
 -1      1006 2.20916E+00
 -1      1007 2.30204E+00
 -1      1008 2.71574E+00
 -1      1009 9.57197E+00
 -1      1010 3.88487E+01
 -1      1011 3.81431E+01
 -1      1012 3.81431E+01
 -1      1013 3.18470E+01
 -1      1014 1.02832E+01
 -1      1015 1.02832E+01
 -1      1016 9.90488E+00
 -1      1017 9.74415E+00
 -1      1018 9.65194E+00
 -1      1019 9.59727E+00
 -1      1020 9.54934E+00
 -1      1021 9.50171E+00
 -1      1022 9.45187E+00
 -1      1023 9.39597E+00
 -1      1024 9.33229E+00
 -1      1025 9.24640E+00
 -1      1026 9.22721E+00
 -1      1027 1.06727E+01
 -1      1028 1.63054E+01
 -1      1029 5.74682E+01
 -1      1030 1.91417E+01
 -1      1031 2.48728E+01
 -1      1032 1.91417E+01
 -1      1033 2.76474E+01
 -1      1034 5.51108E+00
 -1      1035 2.97667E+01
 -1      1036 5.51108E+00
 -1      1037 3.06442E+01
 -1      1038 4.77840E+00
 -1      1039 3.10710E+01
 -1      1040 4.04415E+00
 -1      1041 3.11361E+01
 -1      1042 3.30363E+00
 -1      1043 3.11361E+01
 -1      1044 4.04415E+00
 -1      1045 3.11361E+01
 -1      1046 4.77840E+00
 -1      1047 3.10710E+01
 -1      1048 5.51108E+00
 -1      1049 3.06442E+01
 -1      1050 5.51108E+00
 -1      1051 2.97667E+01
 -1      1052 1.91417E+01
 -1      1053 2.76474E+01
 -1      1054 1.91417E+01
 -1      1055 2.48728E+01
 -1      1056 2.99929E+01
 -1      1057 2.51381E+01
 -1      1058 2.99929E+01
 -1      1059 2.89504E+01
 -1      1060 2.05083E+01
 -1      1061 3.22111E+01
 -1      1062 2.10306E+01
 -1      1063 3.57884E+01
 -1      1064 2.10306E+01
 -1      1065 3.83615E+01
 -1      1066 2.04024E+01
 -1      1067 3.92792E+01
 -1      1068 1.88703E+01
 -1      1069 3.92792E+01
 -1      1070 2.04024E+01
 -1      1071 3.92792E+01
 -1      1072 2.10306E+01
 -1      1073 3.83615E+01
 -1      1074 2.10306E+01
 -1      1075 3.57884E+01
 -1      1076 2.05083E+01
 -1      1077 3.22111E+01
 -1      1078 2.99929E+01
 -1      1079 2.89504E+01
 -1      1080 2.99929E+01
 -1      1081 2.51381E+01
 -1      1082 6.44752E+01
 -1      1083 3.34357E+01
 -1      1084 6.44752E+01
 -1      1085 3.70701E+01
 -1      1086 4.50358E+01
 -1      1087 4.57478E+01
 -1      1088 4.02405E+01
 -1      1089 5.43310E+01
 -1      1090 3.94590E+01
 -1      1091 6.09838E+01
 -1      1092 3.76730E+01
 -1      1093 6.40823E+01
 -1      1094 3.55308E+01
 -1      1095 6.40823E+01
 -1      1096 3.76730E+01
 -1      1097 6.40823E+01
 -1      1098 3.94590E+01
 -1      1099 6.09838E+01
 -1      1100 4.02405E+01
 -1      1101 5.43310E+01
 -1      1102 4.50358E+01
 -1      1103 4.57478E+01
 -1      1104 6.44752E+01
 -1      1105 3.70701E+01
 -1      1106 6.44752E+01
 -1      1107 3.34357E+01
 -1      1108 7.78926E+01
 -1      1109 4.87600E+01
 -1      1110 7.78926E+01
 -1      1111 5.12132E+01
 -1      1112 6.16712E+01
 -1      1113 5.82147E+01
 -1      1114 5.61512E+01
 -1      1115 6.77656E+01
 -1      1116 5.26300E+01
 -1      1117 7.75148E+01
 -1      1118 4.96438E+01
 -1      1119 8.44168E+01
 -1      1120 4.77866E+01
 -1      1121 8.44168E+01
 -1      1122 4.96438E+01
 -1      1123 8.44168E+01
 -1      1124 5.26300E+01
 -1      1125 7.75148E+01
 -1      1126 5.61512E+01
 -1      1127 6.77656E+01
 -1      1128 6.16712E+01
 -1      1129 5.82147E+01
 -1      1130 7.78926E+01
 -1      1131 5.12132E+01
 -1      1132 7.78926E+01
 -1      1133 4.87600E+01
 -1      1134 7.78926E+01
 -1      1135 5.06469E+01
 -1      1136 7.78926E+01
 -1      1137 5.12132E+01
 -1      1138 6.75085E+01
 -1      1139 5.82147E+01
 -1      1140 6.75085E+01
 -1      1141 6.77656E+01
 -1      1142 6.20239E+01
 -1      1143 7.75148E+01
 -1      1144 5.70143E+01
 -1      1145 8.44168E+01
 -1      1146 5.63309E+01
 -1      1147 8.44168E+01
 -1      1148 5.70143E+01
 -1      1149 8.44168E+01
 -1      1150 6.20239E+01
 -1      1151 7.75148E+01
 -1      1152 6.75085E+01
 -1      1153 6.77656E+01
 -1      1154 6.75085E+01
 -1      1155 5.82147E+01
 -1      1156 7.78926E+01
 -1      1157 5.12132E+01
 -1      1158 7.78926E+01
 -1      1159 5.06469E+01
 -1      1160 6.87860E+01
 -1      1161 5.58105E+01
 -1      1162 6.87860E+01
 -1      1163 5.58105E+01
 -1      1164 7.24017E+01
 -1      1165 6.53570E+01
 -1      1166 7.24017E+01
 -1      1167 7.93649E+01
 -1      1168 6.51284E+01
 -1      1169 8.84568E+01
 -1      1170 6.00374E+01
 -1      1171 8.96199E+01
 -1      1172 5.89734E+01
 -1      1173 8.96199E+01
 -1      1174 6.00374E+01
 -1      1175 8.96199E+01
 -1      1176 6.51284E+01
 -1      1177 8.84568E+01
 -1      1178 7.24017E+01
 -1      1179 7.93649E+01
 -1      1180 7.24017E+01
 -1      1181 6.53570E+01
 -1      1182 6.87860E+01
 -1      1183 5.58105E+01
 -1      1184 6.87860E+01
 -1      1185 5.58105E+01
 -1      1186 4.57597E+01
 -1      1187 5.58105E+01
 -1      1188 6.70483E+01
 -1      1189 5.58105E+01
 -1      1190 7.24017E+01
 -1      1191 6.53570E+01
 -1      1192 7.24017E+01
 -1      1193 7.93649E+01
 -1      1194 6.51284E+01
 -1      1195 8.84568E+01
 -1      1196 6.00374E+01
 -1      1197 8.96199E+01
 -1      1198 5.89734E+01
 -1      1199 8.96199E+01
 -1      1200 6.00374E+01
 -1      1201 8.96199E+01
 -1      1202 6.51284E+01
 -1      1203 8.84568E+01
 -1      1204 7.24017E+01
 -1      1205 7.93649E+01
 -1      1206 7.24017E+01
 -1      1207 6.53570E+01
 -1      1208 6.70483E+01
 -1      1209 5.58105E+01
 -1      1210 4.57597E+01
 -1      1211 5.58105E+01
 -1      1212 3.09925E+01
 -1      1213 3.09925E+01
 -1      1214 3.09925E+01
 -1      1215 3.09925E+01
 -1      1216 2.63716E+01
 -1      1217 2.63716E+01
 -1      1218 2.32066E+01
 -1      1219 2.32066E+01
 -1      1220 2.17581E+01
 -1      1221 2.17581E+01
 -1      1222 2.17581E+01
 -1      1223 2.17581E+01
 -1      1224 2.16630E+01
 -1      1225 2.16630E+01
 -1      1226 2.15710E+01
 -1      1227 2.15710E+01
 -1      1228 2.15727E+01
 -1      1229 2.15727E+01
 -1      1230 2.15727E+01
 -1      1231 2.15727E+01
 -1      1232 2.15635E+01
 -1      1233 2.15635E+01
 -1      1234 2.15768E+01
 -1      1235 2.15768E+01
 -1      1236 2.17078E+01
 -1      1237 2.17078E+01
 -1      1238 2.19197E+01
 -1      1239 2.19197E+01
 -1      1240 2.19197E+01
 -1      1241 2.19197E+01
 -1      1242 2.21147E+01
 -1      1243 2.21147E+01
 -1      1244 2.35844E+01
 -1      1245 2.35844E+01
 -1      1246 2.35844E+01
 -1      1247 2.35844E+01
 -1      1248 3.01881E+01
 -1      1249 3.01881E+01
 -1      1250 3.58892E+01
 -1      1251 3.58892E+01
 -1      1252 4.01663E+01
 -1      1253 4.01663E+01
 -1      1254 4.25968E+01
 -1      1255 4.25968E+01
 -1      1256 4.25968E+01
 -1      1257 4.25968E+01
 -1      1258 3.09925E+01
 -1      1259 3.09925E+01
 -1      1260 3.09925E+01
 -1      1261 3.09925E+01
 -1      1262 2.96284E+01
 -1      1263 2.96284E+01
 -1      1264 2.70784E+01
 -1      1265 2.70784E+01
 -1      1266 2.72670E+01
 -1      1267 2.72670E+01
 -1      1268 2.72670E+01
 -1      1269 2.72670E+01
 -1      1270 2.68972E+01
 -1      1271 2.68972E+01
 -1      1272 2.66224E+01
 -1      1273 2.66224E+01
 -1      1274 2.65820E+01
 -1      1275 2.65820E+01
 -1      1276 2.65315E+01
 -1      1277 2.65315E+01
 -1      1278 2.64969E+01
 -1      1279 2.64969E+01
 -1      1280 2.64780E+01
 -1      1281 2.64780E+01
 -1      1282 2.65723E+01
 -1      1283 2.65723E+01
 -1      1284 2.70685E+01
 -1      1285 2.70685E+01
 -1      1286 2.74139E+01
 -1      1287 2.74139E+01
 -1      1288 2.75560E+01
 -1      1289 2.75560E+01
 -1      1290 2.99668E+01
 -1      1291 2.99668E+01
 -1      1292 2.99668E+01
 -1      1293 2.99668E+01
 -1      1294 3.36421E+01
 -1      1295 3.36421E+01
 -1      1296 3.66263E+01
 -1      1297 3.66263E+01
 -1      1298 4.01663E+01
 -1      1299 4.01663E+01
 -1      1300 4.25968E+01
 -1      1301 4.25968E+01
 -1      1302 4.25968E+01
 -1      1303 4.25968E+01
 -1      1304 6.44752E+01
 -1      1305 6.44752E+01
 -1      1306 6.25462E+01
 -1      1307 6.25462E+01
 -1      1308 6.61845E+01
 -1      1309 6.61845E+01
 -1      1310 6.82292E+01
 -1      1311 6.82292E+01
 -1      1312 6.85393E+01
 -1      1313 6.85393E+01
 -1      1314 6.85393E+01
 -1      1315 6.85393E+01
 -1      1316 6.83203E+01
 -1      1317 6.83203E+01
 -1      1318 6.80616E+01
 -1      1319 6.80616E+01
 -1      1320 6.79205E+01
 -1      1321 6.79205E+01
 -1      1322 6.77957E+01
 -1      1323 6.77957E+01
 -1      1324 6.77168E+01
 -1      1325 6.77168E+01
 -1      1326 6.76691E+01
 -1      1327 6.76691E+01
 -1      1328 6.76095E+01
 -1      1329 6.76095E+01
 -1      1330 6.79048E+01
 -1      1331 6.79048E+01
 -1      1332 6.82956E+01
 -1      1333 6.82956E+01
 -1      1334 6.84568E+01
 -1      1335 6.84568E+01
 -1      1336 6.95820E+01
 -1      1337 6.95820E+01
 -1      1338 6.95820E+01
 -1      1339 6.95820E+01
 -1      1340 6.71856E+01
 -1      1341 6.71856E+01
 -1      1342 6.48005E+01
 -1      1343 6.48005E+01
 -1      1344 5.08037E+01
 -1      1345 5.08037E+01
 -1      1346 2.64589E+01
 -1      1347 2.64589E+01
 -1      1348 3.34357E+01
 -1      1349 3.34357E+01
 -1      1350 7.91231E+01
 -1      1351 7.91231E+01
 -1      1352 9.26826E+01
 -1      1353 9.26826E+01
 -1      1354 9.83268E+01
 -1      1355 9.83268E+01
 -1      1356 9.83268E+01
 -1      1357 9.83268E+01
 -1      1358 9.82441E+01
 -1      1359 9.82441E+01
 -1      1360 9.79241E+01
 -1      1361 9.79241E+01
 -1      1362 9.77521E+01
 -1      1363 9.77521E+01
 -1      1364 9.76810E+01
 -1      1365 9.76810E+01
 -1      1366 9.76333E+01
 -1      1367 9.76333E+01
 -1      1368 9.75867E+01
 -1      1369 9.75867E+01
 -1      1370 9.75385E+01
 -1      1371 9.75385E+01
 -1      1372 9.75335E+01
 -1      1373 9.75335E+01
 -1      1374 9.75335E+01
 -1      1375 9.75335E+01
 -1      1376 9.74883E+01
 -1      1377 9.74883E+01
 -1      1378 9.72935E+01
 -1      1379 9.72935E+01
 -1      1380 9.75338E+01
 -1      1381 9.75338E+01
 -1      1382 9.75338E+01
 -1      1383 9.75338E+01
 -1      1384 9.88373E+01
 -1      1385 9.88373E+01
 -1      1386 9.88373E+01
 -1      1387 9.88373E+01
 -1      1388 9.09277E+01
 -1      1389 9.09277E+01
 -1      1390 5.81066E+01
 -1      1391 5.81066E+01
 -1      1392 3.34141E+01
 -1      1393 3.34141E+01
 -1      1394 4.87600E+01
 -1      1395 4.87600E+01
 -1      1396 7.91231E+01
 -1      1397 7.91231E+01
 -1      1398 9.26826E+01
 -1      1399 9.26826E+01
 -1      1400 9.83268E+01
 -1      1401 9.83268E+01
 -1      1402 9.83268E+01
 -1      1403 9.83268E+01
 -1      1404 9.82441E+01
 -1      1405 9.82441E+01
 -1      1406 9.79241E+01
 -1      1407 9.79241E+01
 -1      1408 9.77521E+01
 -1      1409 9.77521E+01
 -1      1410 9.76810E+01
 -1      1411 9.76810E+01
 -1      1412 9.76333E+01
 -1      1413 9.76333E+01
 -1      1414 9.75867E+01
 -1      1415 9.75867E+01
 -1      1416 9.75385E+01
 -1      1417 9.75385E+01
 -1      1418 9.75335E+01
 -1      1419 9.75335E+01
 -1      1420 9.75335E+01
 -1      1421 9.75335E+01
 -1      1422 9.74883E+01
 -1      1423 9.74883E+01
 -1      1424 9.72935E+01
 -1      1425 9.72935E+01
 -1      1426 9.75338E+01
 -1      1427 9.75338E+01
 -1      1428 9.75338E+01
 -1      1429 9.75338E+01
 -1      1430 9.88373E+01
 -1      1431 9.88373E+01
 -1      1432 9.88373E+01
 -1      1433 9.88373E+01
 -1      1434 9.09277E+01
 -1      1435 9.09277E+01
 -1      1436 6.45368E+01
 -1      1437 6.45368E+01
 -1      1438 4.81069E+01
 -1      1439 4.81069E+01
 -1      1440 5.06469E+01
 -1      1441 5.06469E+01
 -1      1442 6.87860E+01
 -1      1443 6.87860E+01
 -1      1444 5.51318E+01
 -1      1445 5.51318E+01
 -1      1446 6.26383E+01
 -1      1447 6.26383E+01
 -1      1448 7.02231E+01
 -1      1449 7.02231E+01
 -1      1450 7.61037E+01
 -1      1451 7.61037E+01
 -1      1452 8.04013E+01
 -1      1453 8.04013E+01
 -1      1454 8.25878E+01
 -1      1455 8.25878E+01
 -1      1456 8.25878E+01
 -1      1457 8.25878E+01
 -1      1458 8.24324E+01
 -1      1459 8.24324E+01
 -1      1460 8.22599E+01
 -1      1461 8.22599E+01
 -1      1462 8.21467E+01
 -1      1463 8.21467E+01
 -1      1464 8.22361E+01
 -1      1465 8.22361E+01
 -1      1466 8.22361E+01
 -1      1467 8.22361E+01
 -1      1468 8.20941E+01
 -1      1469 8.20941E+01
 -1      1470 8.06684E+01
 -1      1471 8.06684E+01
 -1      1472 7.81672E+01
 -1      1473 7.81672E+01
 -1      1474 8.00079E+01
 -1      1475 8.00079E+01
 -1      1476 8.00079E+01
 -1      1477 8.00079E+01
 -1      1478 1.00346E+02
 -1      1479 1.00346E+02
 -1      1480 1.00346E+02
 -1      1481 1.00346E+02
 -1      1482 7.11329E+01
 -1      1483 7.11329E+01
 -1      1484 7.84895E+01
 -1      1485 7.84895E+01
 -1      1486 7.84895E+01
 -1      1487 7.84895E+01
 -1      1488 5.24723E+01
 -1      1489 5.24723E+01
 -1      1490 5.24723E+01
 -1      1491 5.24723E+01
 -1      1492 4.43220E+01
 -1      1493 4.43220E+01
 -1      1494 4.41352E+01
 -1      1495 4.41352E+01
 -1      1496 4.53271E+01
 -1      1497 4.53271E+01
 -1      1498 4.53271E+01
 -1      1499 4.53271E+01
 -1      1500 4.50482E+01
 -1      1501 4.50482E+01
 -1      1502 4.44334E+01
 -1      1503 4.44334E+01
 -1      1504 4.39322E+01
 -1      1505 4.39322E+01
 -1      1506 4.36325E+01
 -1      1507 4.36325E+01
 -1      1508 4.34700E+01
 -1      1509 4.34700E+01
 -1      1510 4.33803E+01
 -1      1511 4.33803E+01
 -1      1512 4.34734E+01
 -1      1513 4.34734E+01
 -1      1514 4.40815E+01
 -1      1515 4.40815E+01
 -1      1516 4.52697E+01
 -1      1517 4.52697E+01
 -1      1518 4.52697E+01
 -1      1519 4.52697E+01
 -1      1520 4.51671E+01
 -1      1521 4.51671E+01
 -1      1522 4.70355E+01
 -1      1523 4.70355E+01
 -1      1524 1.00346E+02
 -1      1525 1.00346E+02
 -1      1526 1.00346E+02
 -1      1527 1.00346E+02
 -1      1528 7.11329E+01
 -1      1529 7.11329E+01
 -1      1530 7.84895E+01
 -1      1531 7.84895E+01
 -1      1532 7.84895E+01
 -1      1533 7.84895E+01
 -1      1534 3.09925E+01
 -1      1535 7.03573E+01
 -1      1536 3.09925E+01
 -1      1537 7.26631E+01
 -1      1538 2.63716E+01
 -1      1539 7.61920E+01
 -1      1540 2.32066E+01
 -1      1541 7.89767E+01
 -1      1542 2.17581E+01
 -1      1543 8.25072E+01
 -1      1544 2.17581E+01
 -1      1545 8.59213E+01
 -1      1546 2.16630E+01
 -1      1547 8.83477E+01
 -1      1548 2.15710E+01
 -1      1549 8.97131E+01
 -1      1550 2.15727E+01
 -1      1551 9.03751E+01
 -1      1552 2.15727E+01
 -1      1553 9.06492E+01
 -1      1554 2.15635E+01
 -1      1555 9.07329E+01
 -1      1556 2.15768E+01
 -1      1557 9.07775E+01
 -1      1558 2.17078E+01
 -1      1559 9.07775E+01
 -1      1560 2.19197E+01
 -1      1561 9.07434E+01
 -1      1562 2.19197E+01
 -1      1563 9.01259E+01
 -1      1564 2.21147E+01
 -1      1565 8.73160E+01
 -1      1566 2.35844E+01
 -1      1567 8.35770E+01
 -1      1568 2.35844E+01
 -1      1569 8.51496E+01
 -1      1570 3.01881E+01
 -1      1571 1.00346E+02
 -1      1572 3.58892E+01
 -1      1573 1.00346E+02
 -1      1574 4.01663E+01
 -1      1575 8.04124E+01
 -1      1576 4.25968E+01
 -1      1577 7.84895E+01
 -1      1578 4.25968E+01
 -1      1579 7.84895E+01
 -1      1580 1.95195E+01
 -1      1581 7.24017E+01
 -1      1582 1.95195E+01
 -1      1583 7.26631E+01
 -1      1584 1.03547E+01
 -1      1585 7.61920E+01
 -1      1586 4.86509E+00
 -1      1587 7.89767E+01
 -1      1588 3.89654E+00
 -1      1589 8.25072E+01
 -1      1590 3.89024E+00
 -1      1591 8.59213E+01
 -1      1592 3.75549E+00
 -1      1593 8.83477E+01
 -1      1594 3.67092E+00
 -1      1595 8.97131E+01
 -1      1596 3.65400E+00
 -1      1597 9.03751E+01
 -1      1598 3.65390E+00
 -1      1599 9.06492E+01
 -1      1600 3.65024E+00
 -1      1601 9.07329E+01
 -1      1602 3.66220E+00
 -1      1603 9.07775E+01
 -1      1604 3.73235E+00
 -1      1605 9.07775E+01
 -1      1606 3.84571E+00
 -1      1607 9.07434E+01
 -1      1608 3.84571E+00
 -1      1609 9.01259E+01
 -1      1610 3.83443E+00
 -1      1611 8.73160E+01
 -1      1612 4.99535E+00
 -1      1613 8.35770E+01
 -1      1614 4.99535E+00
 -1      1615 8.51496E+01
 -1      1616 1.66418E+01
 -1      1617 8.61910E+01
 -1      1618 3.18925E+01
 -1      1619 8.61910E+01
 -1      1620 3.94737E+01
 -1      1621 8.04124E+01
 -1      1622 3.98784E+01
 -1      1623 7.18166E+01
 -1      1624 3.98784E+01
 -1      1625 7.02818E+01
 -1      1626 2.02211E+01
 -1      1627 7.24017E+01
 -1      1628 2.02211E+01
 -1      1629 5.61098E+01
 -1      1630 1.08873E+01
 -1      1631 4.46370E+01
 -1      1632 5.14215E+00
 -1      1633 4.30511E+01
 -1      1634 4.21152E+00
 -1      1635 4.30511E+01
 -1      1636 4.19351E+00
 -1      1637 4.28603E+01
 -1      1638 4.06025E+00
 -1      1639 4.27010E+01
 -1      1640 3.97945E+00
 -1      1641 4.25913E+01
 -1      1642 3.96123E+00
 -1      1643 4.25305E+01
 -1      1644 3.96123E+00
 -1      1645 4.24989E+01
 -1      1646 3.95852E+00
 -1      1647 4.24816E+01
 -1      1648 3.96829E+00
 -1      1649 4.24795E+01
 -1      1650 4.03520E+00
 -1      1651 4.24940E+01
 -1      1652 4.15340E+00
 -1      1653 4.25710E+01
 -1      1654 4.16588E+00
 -1      1655 4.27193E+01
 -1      1656 4.16588E+00
 -1      1657 4.30567E+01
 -1      1658 5.89912E+00
 -1      1659 4.30567E+01
 -1      1660 5.89912E+00
 -1      1661 5.06926E+01
 -1      1662 1.74267E+01
 -1      1663 5.40821E+01
 -1      1664 3.18925E+01
 -1      1665 6.22830E+01
 -1      1666 4.02517E+01
 -1      1667 7.41231E+01
 -1      1668 4.16941E+01
 -1      1669 8.83577E+01
 -1      1670 4.16941E+01
 -1      1671 8.83577E+01
 -1      1672 2.02211E+01
 -1      1673 6.51284E+01
 -1      1674 2.02211E+01
 -1      1675 4.63098E+01
 -1      1676 1.08873E+01
 -1      1677 3.01558E+01
 -1      1678 5.14215E+00
 -1      1679 2.75237E+01
 -1      1680 4.21152E+00
 -1      1681 2.75237E+01
 -1      1682 4.19351E+00
 -1      1683 2.72411E+01
 -1      1684 4.06025E+00
 -1      1685 2.70486E+01
 -1      1686 3.97945E+00
 -1      1687 2.69561E+01
 -1      1688 3.96123E+00
 -1      1689 2.69164E+01
 -1      1690 3.96123E+00
 -1      1691 2.68990E+01
 -1      1692 3.95852E+00
 -1      1693 2.68966E+01
 -1      1694 3.96829E+00
 -1      1695 2.68973E+01
 -1      1696 4.03520E+00
 -1      1697 2.69589E+01
 -1      1698 4.15340E+00
 -1      1699 2.70977E+01
 -1      1700 4.16588E+00
 -1      1701 2.74360E+01
 -1      1702 4.16588E+00
 -1      1703 2.74360E+01
 -1      1704 5.89912E+00
 -1      1705 2.75779E+01
 -1      1706 5.89912E+00
 -1      1707 4.04385E+01
 -1      1708 1.74267E+01
 -1      1709 4.53231E+01
 -1      1710 3.10734E+01
 -1      1711 6.00437E+01
 -1      1712 4.02517E+01
 -1      1713 7.48699E+01
 -1      1714 4.27627E+01
 -1      1715 8.83577E+01
 -1      1716 4.27627E+01
 -1      1717 8.84568E+01
 -1      1718 1.96657E+01
 -1      1719 6.00374E+01
 -1      1720 1.96657E+01
 -1      1721 3.36552E+01
 -1      1722 1.00153E+01
 -1      1723 7.48136E+00
 -1      1724 4.69140E+00
 -1      1725 4.12771E+00
 -1      1726 3.92609E+00
 -1      1727 4.12771E+00
 -1      1728 3.89918E+00
 -1      1729 3.95496E+00
 -1      1730 3.76423E+00
 -1      1731 3.84984E+00
 -1      1732 3.68473E+00
 -1      1733 3.80372E+00
 -1      1734 3.66670E+00
 -1      1735 3.78638E+00
 -1      1736 3.66670E+00
 -1      1737 3.77952E+00
 -1      1738 3.66466E+00
 -1      1739 3.78051E+00
 -1      1740 3.67303E+00
 -1      1741 3.78326E+00
 -1      1742 3.73870E+00
 -1      1743 3.82094E+00
 -1      1744 3.86235E+00
 -1      1745 3.89967E+00
 -1      1746 3.89256E+00
 -1      1747 4.06484E+00
 -1      1748 3.89256E+00
 -1      1749 4.06484E+00
 -1      1750 5.25999E+00
 -1      1751 4.00075E+00
 -1      1752 5.25999E+00
 -1      1753 2.17587E+01
 -1      1754 1.68098E+01
 -1      1755 2.72423E+01
 -1      1756 2.96565E+01
 -1      1757 5.44155E+01
 -1      1758 3.98036E+01
 -1      1759 7.48699E+01
 -1      1760 4.29994E+01
 -1      1761 8.68955E+01
 -1      1762 4.29994E+01
 -1      1763 8.96199E+01
 -1      1764 1.81780E+01
 -1      1765 5.89734E+01
 -1      1766 1.81780E+01
 -1      1767 3.20900E+01
 -1      1768 8.15591E+00
 -1      1769 4.91787E+00
 -1      1770 3.94175E+00
 -1      1771 3.11008E+00
 -1      1772 3.20938E+00
 -1      1773 3.11008E+00
 -1      1774 3.18070E+00
 -1      1775 2.94376E+00
 -1      1776 3.04317E+00
 -1      1777 2.84349E+00
 -1      1778 2.96314E+00
 -1      1779 2.79534E+00
 -1      1780 2.94564E+00
 -1      1781 2.77639E+00
 -1      1782 2.94564E+00
 -1      1783 2.76870E+00
 -1      1784 2.94406E+00
 -1      1785 2.76883E+00
 -1      1786 2.95169E+00
 -1      1787 2.77185E+00
 -1      1788 3.01751E+00
 -1      1789 2.81049E+00
 -1      1790 3.14621E+00
 -1      1791 2.89160E+00
 -1      1792 3.18819E+00
 -1      1793 3.07059E+00
 -1      1794 3.18819E+00
 -1      1795 3.07059E+00
 -1      1796 4.43427E+00
 -1      1797 2.99456E+00
 -1      1798 4.43427E+00
 -1      1799 2.03807E+01
 -1      1800 1.51703E+01
 -1      1801 2.57003E+01
 -1      1802 2.81392E+01
 -1      1803 5.20222E+01
 -1      1804 3.88402E+01
 -1      1805 7.48465E+01
 -1      1806 4.29994E+01
 -1      1807 8.68955E+01
 -1      1808 4.29994E+01
 -1      1809 8.96199E+01
 -1      1810 1.96657E+01
 -1      1811 6.00374E+01
 -1      1812 1.96657E+01
 -1      1813 3.36552E+01
 -1      1814 1.00153E+01
 -1      1815 7.48136E+00
 -1      1816 4.69140E+00
 -1      1817 4.12771E+00
 -1      1818 3.92609E+00
 -1      1819 4.12771E+00
 -1      1820 3.89918E+00
 -1      1821 3.95496E+00
 -1      1822 3.76423E+00
 -1      1823 3.84984E+00
 -1      1824 3.68473E+00
 -1      1825 3.80372E+00
 -1      1826 3.66670E+00
 -1      1827 3.78638E+00
 -1      1828 3.66670E+00
 -1      1829 3.77952E+00
 -1      1830 3.66466E+00
 -1      1831 3.78051E+00
 -1      1832 3.67303E+00
 -1      1833 3.78326E+00
 -1      1834 3.73870E+00
 -1      1835 3.82094E+00
 -1      1836 3.86235E+00
 -1      1837 3.89967E+00
 -1      1838 3.89256E+00
 -1      1839 4.06484E+00
 -1      1840 3.89256E+00
 -1      1841 4.06484E+00
 -1      1842 5.25999E+00
 -1      1843 4.00075E+00
 -1      1844 5.25999E+00
 -1      1845 2.17587E+01
 -1      1846 1.68098E+01
 -1      1847 2.72423E+01
 -1      1848 2.96565E+01
 -1      1849 5.44155E+01
 -1      1850 3.98036E+01
 -1      1851 7.48699E+01
 -1      1852 4.29994E+01
 -1      1853 8.68955E+01
 -1      1854 4.29994E+01
 -1      1855 8.96199E+01
 -1      1856 2.02211E+01
 -1      1857 6.51284E+01
 -1      1858 2.02211E+01
 -1      1859 4.63098E+01
 -1      1860 1.08873E+01
 -1      1861 3.01558E+01
 -1      1862 5.14215E+00
 -1      1863 2.75237E+01
 -1      1864 4.21152E+00
 -1      1865 2.75237E+01
 -1      1866 4.19351E+00
 -1      1867 2.72411E+01
 -1      1868 4.06025E+00
 -1      1869 2.70486E+01
 -1      1870 3.97945E+00
 -1      1871 2.69561E+01
 -1      1872 3.96123E+00
 -1      1873 2.69164E+01
 -1      1874 3.96123E+00
 -1      1875 2.68990E+01
 -1      1876 3.95852E+00
 -1      1877 2.68966E+01
 -1      1878 3.96829E+00
 -1      1879 2.68973E+01
 -1      1880 4.03520E+00
 -1      1881 2.69589E+01
 -1      1882 4.15340E+00
 -1      1883 2.70977E+01
 -1      1884 4.16588E+00
 -1      1885 2.74360E+01
 -1      1886 4.16588E+00
 -1      1887 2.74360E+01
 -1      1888 5.89912E+00
 -1      1889 2.75779E+01
 -1      1890 5.89912E+00
 -1      1891 4.04385E+01
 -1      1892 1.74267E+01
 -1      1893 4.53231E+01
 -1      1894 3.10734E+01
 -1      1895 6.00437E+01
 -1      1896 4.02517E+01
 -1      1897 7.48699E+01
 -1      1898 4.27627E+01
 -1      1899 8.83577E+01
 -1      1900 4.27627E+01
 -1      1901 8.84568E+01
 -1      1902 2.02211E+01
 -1      1903 7.24017E+01
 -1      1904 2.02211E+01
 -1      1905 5.61098E+01
 -1      1906 1.08873E+01
 -1      1907 4.46370E+01
 -1      1908 5.14215E+00
 -1      1909 4.30511E+01
 -1      1910 4.21152E+00
 -1      1911 4.30511E+01
 -1      1912 4.19351E+00
 -1      1913 4.28603E+01
 -1      1914 4.06025E+00
 -1      1915 4.27010E+01
 -1      1916 3.97945E+00
 -1      1917 4.25913E+01
 -1      1918 3.96123E+00
 -1      1919 4.25305E+01
 -1      1920 3.96123E+00
 -1      1921 4.24989E+01
 -1      1922 3.95852E+00
 -1      1923 4.24816E+01
 -1      1924 3.96829E+00
 -1      1925 4.24795E+01
 -1      1926 4.03520E+00
 -1      1927 4.24940E+01
 -1      1928 4.15340E+00
 -1      1929 4.25710E+01
 -1      1930 4.16588E+00
 -1      1931 4.27193E+01
 -1      1932 4.16588E+00
 -1      1933 4.30567E+01
 -1      1934 5.89912E+00
 -1      1935 4.30567E+01
 -1      1936 5.89912E+00
 -1      1937 5.06926E+01
 -1      1938 1.74267E+01
 -1      1939 5.40821E+01
 -1      1940 3.18925E+01
 -1      1941 6.22830E+01
 -1      1942 4.02517E+01
 -1      1943 7.41231E+01
 -1      1944 4.16941E+01
 -1      1945 8.83577E+01
 -1      1946 4.16941E+01
 -1      1947 8.83577E+01
 -1      1948 1.95195E+01
 -1      1949 7.24017E+01
 -1      1950 1.95195E+01
 -1      1951 7.26631E+01
 -1      1952 1.03547E+01
 -1      1953 7.61920E+01
 -1      1954 4.86509E+00
 -1      1955 7.89767E+01
 -1      1956 3.89654E+00
 -1      1957 8.25072E+01
 -1      1958 3.89024E+00
 -1      1959 8.59213E+01
 -1      1960 3.75549E+00
 -1      1961 8.83477E+01
 -1      1962 3.67092E+00
 -1      1963 8.97131E+01
 -1      1964 3.65400E+00
 -1      1965 9.03751E+01
 -1      1966 3.65390E+00
 -1      1967 9.06492E+01
 -1      1968 3.65024E+00
 -1      1969 9.07329E+01
 -1      1970 3.66220E+00
 -1      1971 9.07775E+01
 -1      1972 3.73235E+00
 -1      1973 9.07775E+01
 -1      1974 3.84571E+00
 -1      1975 9.07434E+01
 -1      1976 3.84571E+00
 -1      1977 9.01259E+01
 -1      1978 3.83443E+00
 -1      1979 8.73160E+01
 -1      1980 4.99535E+00
 -1      1981 8.35770E+01
 -1      1982 4.99535E+00
 -1      1983 8.51496E+01
 -1      1984 1.66418E+01
 -1      1985 8.61910E+01
 -1      1986 3.18925E+01
 -1      1987 8.61910E+01
 -1      1988 3.94737E+01
 -1      1989 8.04124E+01
 -1      1990 3.98784E+01
 -1      1991 7.18166E+01
 -1      1992 3.98784E+01
 -1      1993 7.02818E+01
 -1      1994 3.09925E+01
 -1      1995 7.03573E+01
 -1      1996 3.09925E+01
 -1      1997 7.26631E+01
 -1      1998 2.63716E+01
 -1      1999 7.61920E+01
 -1      2000 2.32066E+01
 -1      2001 7.89767E+01
 -1      2002 2.17581E+01
 -1      2003 8.25072E+01
 -1      2004 2.17581E+01
 -1      2005 8.59213E+01
 -1      2006 2.16630E+01
 -1      2007 8.83477E+01
 -1      2008 2.15710E+01
 -1      2009 8.97131E+01
 -1      2010 2.15727E+01
 -1      2011 9.03751E+01
 -1      2012 2.15727E+01
 -1      2013 9.06492E+01
 -1      2014 2.15635E+01
 -1      2015 9.07329E+01
 -1      2016 2.15768E+01
 -1      2017 9.07775E+01
 -1      2018 2.17078E+01
 -1      2019 9.07775E+01
 -1      2020 2.19197E+01
 -1      2021 9.07434E+01
 -1      2022 2.19197E+01
 -1      2023 9.01259E+01
 -1      2024 2.21147E+01
 -1      2025 8.73160E+01
 -1      2026 2.35844E+01
 -1      2027 8.35770E+01
 -1      2028 2.35844E+01
 -1      2029 8.51496E+01
 -1      2030 3.01881E+01
 -1      2031 1.00346E+02
 -1      2032 3.58892E+01
 -1      2033 1.00346E+02
 -1      2034 4.01663E+01
 -1      2035 8.04124E+01
 -1      2036 4.25968E+01
 -1      2037 7.84895E+01
 -1      2038 4.25968E+01
 -1      2039 7.84895E+01
 -1      2040 3.09925E+01
 -1      2041 3.09925E+01
 -1      2042 2.96284E+01
 -1      2043 2.70784E+01
 -1      2044 2.72670E+01
 -1      2045 2.72670E+01
 -1      2046 2.68972E+01
 -1      2047 2.66224E+01
 -1      2048 2.65820E+01
 -1      2049 2.65315E+01
 -1      2050 2.64969E+01
 -1      2051 2.64780E+01
 -1      2052 2.65723E+01
 -1      2053 2.70685E+01
 -1      2054 2.74139E+01
 -1      2055 2.75560E+01
 -1      2056 2.99668E+01
 -1      2057 2.99668E+01
 -1      2058 3.36421E+01
 -1      2059 3.66263E+01
 -1      2060 4.01663E+01
 -1      2061 4.25968E+01
 -1      2062 4.25968E+01
 -1      2063 2.05123E+01
 -1      2064 2.05123E+01
 -1      2065 1.31230E+01
 -1      2066 6.41635E+00
 -1      2067 5.41149E+00
 -1      2068 5.24717E+00
 -1      2069 4.91028E+00
 -1      2070 4.80836E+00
 -1      2071 4.78078E+00
 -1      2072 4.77895E+00
 -1      2073 4.77625E+00
 -1      2074 4.77625E+00
 -1      2075 4.83847E+00
 -1      2076 4.98644E+00
 -1      2077 5.20358E+00
 -1      2078 5.20358E+00
 -1      2079 8.97005E+00
 -1      2080 8.97005E+00
 -1      2081 2.06656E+01
 -1      2082 3.66607E+01
 -1      2083 3.94737E+01
 -1      2084 3.98784E+01
 -1      2085 3.98784E+01
 -1      2086 2.10306E+01
 -1      2087 2.05237E+01
 -1      2088 1.31230E+01
 -1      2089 6.41635E+00
 -1      2090 5.41149E+00
 -1      2091 5.24717E+00
 -1      2092 4.91028E+00
 -1      2093 4.80836E+00
 -1      2094 4.78078E+00
 -1      2095 4.77895E+00
 -1      2096 4.77625E+00
 -1      2097 4.77625E+00
 -1      2098 4.83847E+00
 -1      2099 4.98644E+00
 -1      2100 5.20358E+00
 -1      2101 5.20358E+00
 -1      2102 8.97005E+00
 -1      2103 8.97005E+00
 -1      2104 2.06656E+01
 -1      2105 3.68391E+01
 -1      2106 4.02517E+01
 -1      2107 4.16941E+01
 -1      2108 4.16941E+01
 -1      2109 2.10306E+01
 -1      2110 2.05237E+01
 -1      2111 1.24369E+01
 -1      2112 5.49392E+00
 -1      2113 4.90311E+00
 -1      2114 4.83417E+00
 -1      2115 4.65984E+00
 -1      2116 4.56542E+00
 -1      2117 4.53877E+00
 -1      2118 4.53829E+00
 -1      2119 4.53710E+00
 -1      2120 4.53710E+00
 -1      2121 4.59327E+00
 -1      2122 4.74329E+00
 -1      2123 4.86637E+00
 -1      2124 4.86637E+00
 -1      2125 8.43017E+00
 -1      2126 8.43017E+00
 -1      2127 2.02945E+01
 -1      2128 3.68391E+01
 -1      2129 4.02517E+01
 -1      2130 4.27627E+01
 -1      2131 4.27627E+01
 -1      2132 2.04024E+01
 -1      2133 1.96657E+01
 -1      2134 1.02862E+01
 -1      2135 4.69140E+00
 -1      2136 4.01611E+00
 -1      2137 3.93945E+00
 -1      2138 3.76463E+00
 -1      2139 3.68473E+00
 -1      2140 3.66670E+00
 -1      2141 3.66670E+00
 -1      2142 3.66466E+00
 -1      2143 3.67303E+00
 -1      2144 3.73870E+00
 -1      2145 3.86235E+00
 -1      2146 4.00358E+00
 -1      2147 4.00358E+00
 -1      2148 6.26727E+00
 -1      2149 6.26727E+00
 -1      2150 1.87119E+01
 -1      2151 3.55492E+01
 -1      2152 3.98036E+01
 -1      2153 4.29994E+01
 -1      2154 4.29994E+01
 -1      2155 1.88703E+01
 -1      2156 1.81780E+01
 -1      2157 8.15591E+00
 -1      2158 3.94175E+00
 -1      2159 3.20938E+00
 -1      2160 3.18070E+00
 -1      2161 3.04317E+00
 -1      2162 2.96314E+00
 -1      2163 2.94564E+00
 -1      2164 2.94564E+00
 -1      2165 2.94406E+00
 -1      2166 2.95169E+00
 -1      2167 3.01751E+00
 -1      2168 3.14621E+00
 -1      2169 3.18819E+00
 -1      2170 3.18819E+00
 -1      2171 4.43427E+00
 -1      2172 4.43427E+00
 -1      2173 1.59134E+01
 -1      2174 3.35231E+01
 -1      2175 3.88402E+01
 -1      2176 4.29994E+01
 -1      2177 4.29994E+01
 -1      2178 2.04024E+01
 -1      2179 1.96657E+01
 -1      2180 1.02862E+01
 -1      2181 4.69140E+00
 -1      2182 4.01611E+00
 -1      2183 3.93945E+00
 -1      2184 3.76463E+00
 -1      2185 3.68473E+00
 -1      2186 3.66670E+00
 -1      2187 3.66670E+00
 -1      2188 3.66466E+00
 -1      2189 3.67303E+00
 -1      2190 3.73870E+00
 -1      2191 3.86235E+00
 -1      2192 4.00358E+00
 -1      2193 4.00358E+00
 -1      2194 6.26727E+00
 -1      2195 6.26727E+00
 -1      2196 1.87119E+01
 -1      2197 3.55492E+01
 -1      2198 3.98036E+01
 -1      2199 4.29994E+01
 -1      2200 4.29994E+01
 -1      2201 2.10306E+01
 -1      2202 2.05237E+01
 -1      2203 1.24369E+01
 -1      2204 5.49392E+00
 -1      2205 4.90311E+00
 -1      2206 4.83417E+00
 -1      2207 4.65984E+00
 -1      2208 4.56542E+00
 -1      2209 4.53877E+00
 -1      2210 4.53829E+00
 -1      2211 4.53710E+00
 -1      2212 4.53710E+00
 -1      2213 4.59327E+00
 -1      2214 4.74329E+00
 -1      2215 4.86637E+00
 -1      2216 4.86637E+00
 -1      2217 8.43017E+00
 -1      2218 8.43017E+00
 -1      2219 2.02945E+01
 -1      2220 3.68391E+01
 -1      2221 4.02517E+01
 -1      2222 4.27627E+01
 -1      2223 4.27627E+01
 -1      2224 2.10306E+01
 -1      2225 2.05237E+01
 -1      2226 1.31230E+01
 -1      2227 6.41635E+00
 -1      2228 5.41149E+00
 -1      2229 5.24717E+00
 -1      2230 4.91028E+00
 -1      2231 4.80836E+00
 -1      2232 4.78078E+00
 -1      2233 4.77895E+00
 -1      2234 4.77625E+00
 -1      2235 4.77625E+00
 -1      2236 4.83847E+00
 -1      2237 4.98644E+00
 -1      2238 5.20358E+00
 -1      2239 5.20358E+00
 -1      2240 8.97005E+00
 -1      2241 8.97005E+00
 -1      2242 2.06656E+01
 -1      2243 3.68391E+01
 -1      2244 4.02517E+01
 -1      2245 4.16941E+01
 -1      2246 4.16941E+01
 -1      2247 2.05123E+01
 -1      2248 2.05123E+01
 -1      2249 1.31230E+01
 -1      2250 6.41635E+00
 -1      2251 5.41149E+00
 -1      2252 5.24717E+00
 -1      2253 4.91028E+00
 -1      2254 4.80836E+00
 -1      2255 4.78078E+00
 -1      2256 4.77895E+00
 -1      2257 4.77625E+00
 -1      2258 4.77625E+00
 -1      2259 4.83847E+00
 -1      2260 4.98644E+00
 -1      2261 5.20358E+00
 -1      2262 5.20358E+00
 -1      2263 8.97005E+00
 -1      2264 8.97005E+00
 -1      2265 2.06656E+01
 -1      2266 3.66607E+01
 -1      2267 3.94737E+01
 -1      2268 3.98784E+01
 -1      2269 3.98784E+01
 -1      2270 3.09925E+01
 -1      2271 3.09925E+01
 -1      2272 2.96284E+01
 -1      2273 2.70784E+01
 -1      2274 2.72670E+01
 -1      2275 2.72670E+01
 -1      2276 2.68972E+01
 -1      2277 2.66224E+01
 -1      2278 2.65820E+01
 -1      2279 2.65315E+01
 -1      2280 2.64969E+01
 -1      2281 2.64780E+01
 -1      2282 2.65723E+01
 -1      2283 2.70685E+01
 -1      2284 2.74139E+01
 -1      2285 2.75560E+01
 -1      2286 2.99668E+01
 -1      2287 2.99668E+01
 -1      2288 3.36421E+01
 -1      2289 3.66263E+01
 -1      2290 4.01663E+01
 -1      2291 4.25968E+01
 -1      2292 4.25968E+01
 -1      2293 6.44752E+01
 -1      2294 6.25462E+01
 -1      2295 6.61845E+01
 -1      2296 6.82292E+01
 -1      2297 6.85393E+01
 -1      2298 6.85393E+01
 -1      2299 6.83203E+01
 -1      2300 6.80616E+01
 -1      2301 6.79205E+01
 -1      2302 6.77957E+01
 -1      2303 6.77168E+01
 -1      2304 6.76691E+01
 -1      2305 6.76095E+01
 -1      2306 6.79048E+01
 -1      2307 6.82956E+01
 -1      2308 6.84568E+01
 -1      2309 6.95820E+01
 -1      2310 6.95820E+01
 -1      2311 6.71856E+01
 -1      2312 6.48005E+01
 -1      2313 5.08037E+01
 -1      2314 2.81177E+01
 -1      2315 3.70701E+01
 -1      2316 4.50358E+01
 -1      2317 3.14753E+01
 -1      2318 2.58076E+01
 -1      2319 2.07420E+01
 -1      2320 2.07420E+01
 -1      2321 2.05444E+01
 -1      2322 2.00849E+01
 -1      2323 1.98253E+01
 -1      2324 1.97367E+01
 -1      2325 1.97269E+01
 -1      2326 1.97252E+01
 -1      2327 1.97252E+01
 -1      2328 1.98231E+01
 -1      2329 2.02409E+01
 -1      2330 2.05824E+01
 -1      2331 2.05824E+01
 -1      2332 2.39947E+01
 -1      2333 2.39947E+01
 -1      2334 3.37237E+01
 -1      2335 4.34144E+01
 -1      2336 4.34144E+01
 -1      2337 3.30137E+01
 -1      2338 4.57478E+01
 -1      2339 4.02405E+01
 -1      2340 2.74779E+01
 -1      2341 1.83491E+01
 -1      2342 1.20381E+01
 -1      2343 1.20381E+01
 -1      2344 1.17854E+01
 -1      2345 1.13381E+01
 -1      2346 1.11032E+01
 -1      2347 1.10267E+01
 -1      2348 1.10267E+01
 -1      2349 1.10322E+01
 -1      2350 1.10322E+01
 -1      2351 1.11414E+01
 -1      2352 1.15276E+01
 -1      2353 1.19248E+01
 -1      2354 1.19248E+01
 -1      2355 1.56606E+01
 -1      2356 1.62313E+01
 -1      2357 2.78373E+01
 -1      2358 4.25795E+01
 -1      2359 4.25795E+01
 -1      2360 3.36352E+01
 -1      2361 5.43310E+01
 -1      2362 3.94590E+01
 -1      2363 2.46315E+01
 -1      2364 1.33697E+01
 -1      2365 6.76827E+00
 -1      2366 6.76827E+00
 -1      2367 6.49236E+00
 -1      2368 6.04350E+00
 -1      2369 5.81733E+00
 -1      2370 5.75263E+00
 -1      2371 5.75577E+00
 -1      2372 5.76311E+00
 -1      2373 5.76311E+00
 -1      2374 5.86259E+00
 -1      2375 6.24139E+00
 -1      2376 6.73853E+00
 -1      2377 6.73853E+00
 -1      2378 1.09038E+01
 -1      2379 1.18468E+01
 -1      2380 2.39562E+01
 -1      2381 4.23079E+01
 -1      2382 4.23079E+01
 -1      2383 3.36352E+01
 -1      2384 6.09838E+01
 -1      2385 3.76730E+01
 -1      2386 2.08620E+01
 -1      2387 1.02862E+01
 -1      2388 4.24808E+00
 -1      2389 4.01611E+00
 -1      2390 3.93945E+00
 -1      2391 3.76463E+00
 -1      2392 3.67268E+00
 -1      2393 3.64744E+00
 -1      2394 3.64744E+00
 -1      2395 3.64754E+00
 -1      2396 3.64754E+00
 -1      2397 3.70103E+00
 -1      2398 3.85580E+00
 -1      2399 4.00358E+00
 -1      2400 4.00358E+00
 -1      2401 6.26727E+00
 -1      2402 7.98137E+00
 -1      2403 1.97238E+01
 -1      2404 4.06804E+01
 -1      2405 4.06804E+01
 -1      2406 3.27815E+01
 -1      2407 6.40823E+01
 -1      2408 3.55308E+01
 -1      2409 1.74838E+01
 -1      2410 6.99008E+00
 -1      2411 2.85095E+00
 -1      2412 2.63248E+00
 -1      2413 2.54892E+00
 -1      2414 2.36764E+00
 -1      2415 2.27419E+00
 -1      2416 2.25016E+00
 -1      2417 2.25016E+00
 -1      2418 2.25137E+00
 -1      2419 2.25137E+00
 -1      2420 2.30501E+00
 -1      2421 2.46615E+00
 -1      2422 2.63042E+00
 -1      2423 2.63042E+00
 -1      2424 4.18170E+00
 -1      2425 4.53128E+00
 -1      2426 1.61141E+01
 -1      2427 3.84956E+01
 -1      2428 3.84956E+01
 -1      2429 3.12136E+01
 -1      2430 6.40823E+01
 -1      2431 3.76730E+01
 -1      2432 2.08620E+01
 -1      2433 1.02862E+01
 -1      2434 4.24808E+00
 -1      2435 4.01611E+00
 -1      2436 3.93945E+00
 -1      2437 3.76463E+00
 -1      2438 3.67268E+00
 -1      2439 3.64744E+00
 -1      2440 3.64744E+00
 -1      2441 3.64754E+00
 -1      2442 3.64754E+00
 -1      2443 3.70103E+00
 -1      2444 3.85580E+00
 -1      2445 4.00358E+00
 -1      2446 4.00358E+00
 -1      2447 6.26727E+00
 -1      2448 7.98137E+00
 -1      2449 1.97238E+01
 -1      2450 4.06804E+01
 -1      2451 4.06804E+01
 -1      2452 3.27815E+01
 -1      2453 6.40823E+01
 -1      2454 3.94590E+01
 -1      2455 2.46315E+01
 -1      2456 1.33697E+01
 -1      2457 6.76827E+00
 -1      2458 6.76827E+00
 -1      2459 6.49236E+00
 -1      2460 6.04350E+00
 -1      2461 5.81733E+00
 -1      2462 5.75263E+00
 -1      2463 5.75577E+00
 -1      2464 5.76311E+00
 -1      2465 5.76311E+00
 -1      2466 5.86259E+00
 -1      2467 6.24139E+00
 -1      2468 6.73853E+00
 -1      2469 6.73853E+00
 -1      2470 1.09038E+01
 -1      2471 1.18468E+01
 -1      2472 2.39562E+01
 -1      2473 4.23079E+01
 -1      2474 4.23079E+01
 -1      2475 3.36352E+01
 -1      2476 6.09838E+01
 -1      2477 4.02405E+01
 -1      2478 2.74779E+01
 -1      2479 1.83491E+01
 -1      2480 1.20381E+01
 -1      2481 1.20381E+01
 -1      2482 1.17854E+01
 -1      2483 1.13381E+01
 -1      2484 1.11032E+01
 -1      2485 1.10267E+01
 -1      2486 1.10267E+01
 -1      2487 1.10322E+01
 -1      2488 1.10322E+01
 -1      2489 1.11414E+01
 -1      2490 1.15276E+01
 -1      2491 1.19248E+01
 -1      2492 1.19248E+01
 -1      2493 1.56606E+01
 -1      2494 1.62313E+01
 -1      2495 2.78373E+01
 -1      2496 4.25795E+01
 -1      2497 4.25795E+01
 -1      2498 3.36352E+01
 -1      2499 5.43310E+01
 -1      2500 4.50358E+01
 -1      2501 3.14753E+01
 -1      2502 2.58076E+01
 -1      2503 2.07420E+01
 -1      2504 2.07420E+01
 -1      2505 2.05444E+01
 -1      2506 2.00849E+01
 -1      2507 1.98253E+01
 -1      2508 1.97367E+01
 -1      2509 1.97269E+01
 -1      2510 1.97252E+01
 -1      2511 1.97252E+01
 -1      2512 1.98231E+01
 -1      2513 2.02409E+01
 -1      2514 2.05824E+01
 -1      2515 2.05824E+01
 -1      2516 2.39947E+01
 -1      2517 2.39947E+01
 -1      2518 3.37237E+01
 -1      2519 4.34144E+01
 -1      2520 4.34144E+01
 -1      2521 3.30137E+01
 -1      2522 4.57478E+01
 -1      2523 6.44752E+01
 -1      2524 6.25462E+01
 -1      2525 6.61845E+01
 -1      2526 6.82292E+01
 -1      2527 6.85393E+01
 -1      2528 6.85393E+01
 -1      2529 6.83203E+01
 -1      2530 6.80616E+01
 -1      2531 6.79205E+01
 -1      2532 6.77957E+01
 -1      2533 6.77168E+01
 -1      2534 6.76691E+01
 -1      2535 6.76095E+01
 -1      2536 6.79048E+01
 -1      2537 6.82956E+01
 -1      2538 6.84568E+01
 -1      2539 6.95820E+01
 -1      2540 6.95820E+01
 -1      2541 6.71856E+01
 -1      2542 6.48005E+01
 -1      2543 5.08037E+01
 -1      2544 2.81177E+01
 -1      2545 3.70701E+01
 -1      2546 7.91231E+01
 -1      2547 9.26826E+01
 -1      2548 9.83268E+01
 -1      2549 9.83268E+01
 -1      2550 9.82441E+01
 -1      2551 9.79241E+01
 -1      2552 9.77521E+01
 -1      2553 9.76810E+01
 -1      2554 9.76333E+01
 -1      2555 9.75867E+01
 -1      2556 9.75385E+01
 -1      2557 9.75335E+01
 -1      2558 9.75335E+01
 -1      2559 9.74883E+01
 -1      2560 9.72935E+01
 -1      2561 9.75338E+01
 -1      2562 9.75338E+01
 -1      2563 9.88373E+01
 -1      2564 9.88373E+01
 -1      2565 9.09277E+01
 -1      2566 5.81066E+01
 -1      2567 3.41676E+01
 -1      2568 5.12132E+01
 -1      2569 6.16712E+01
 -1      2570 4.37809E+01
 -1      2571 3.77747E+01
 -1      2572 3.53035E+01
 -1      2573 3.53035E+01
 -1      2574 3.50169E+01
 -1      2575 3.46100E+01
 -1      2576 3.43843E+01
 -1      2577 3.42928E+01
 -1      2578 3.42559E+01
 -1      2579 3.42542E+01
 -1      2580 3.42542E+01
 -1      2581 3.42739E+01
 -1      2582 3.45924E+01
 -1      2583 3.50212E+01
 -1      2584 3.50212E+01
 -1      2585 3.78782E+01
 -1      2586 3.91391E+01
 -1      2587 4.53753E+01
 -1      2588 4.94737E+01
 -1      2589 4.94737E+01
 -1      2590 3.87811E+01
 -1      2591 5.82147E+01
 -1      2592 5.61512E+01
 -1      2593 3.73265E+01
 -1      2594 2.71455E+01
 -1      2595 2.26659E+01
 -1      2596 2.26659E+01
 -1      2597 2.22967E+01
 -1      2598 2.19074E+01
 -1      2599 2.17172E+01
 -1      2600 2.16524E+01
 -1      2601 2.16344E+01
 -1      2602 2.16437E+01
 -1      2603 2.16437E+01
 -1      2604 2.17031E+01
 -1      2605 2.19958E+01
 -1      2606 2.24330E+01
 -1      2607 2.24330E+01
 -1      2608 2.54585E+01
 -1      2609 2.89580E+01
 -1      2610 3.71207E+01
 -1      2611 4.90878E+01
 -1      2612 4.90878E+01
 -1      2613 4.36518E+01
 -1      2614 6.77656E+01
 -1      2615 5.26300E+01
 -1      2616 3.13855E+01
 -1      2617 1.77818E+01
 -1      2618 1.25320E+01
 -1      2619 1.25320E+01
 -1      2620 1.21097E+01
 -1      2621 1.16979E+01
 -1      2622 1.15062E+01
 -1      2623 1.14477E+01
 -1      2624 1.14412E+01
 -1      2625 1.14510E+01
 -1      2626 1.14510E+01
 -1      2627 1.15194E+01
 -1      2628 1.18161E+01
 -1      2629 1.23165E+01
 -1      2630 1.23165E+01
 -1      2631 1.60026E+01
 -1      2632 2.07249E+01
 -1      2633 2.99256E+01
 -1      2634 4.78602E+01
 -1      2635 4.78602E+01
 -1      2636 4.61489E+01
 -1      2637 7.75148E+01
 -1      2638 4.96438E+01
 -1      2639 2.52492E+01
 -1      2640 9.17057E+00
 -1      2641 4.04428E+00
 -1      2642 4.04428E+00
 -1      2643 3.86144E+00
 -1      2644 3.69011E+00
 -1      2645 3.61253E+00
 -1      2646 3.59065E+00
 -1      2647 3.59071E+00
 -1      2648 3.59500E+00
 -1      2649 3.59500E+00
 -1      2650 3.62288E+00
 -1      2651 3.74025E+00
 -1      2652 3.95342E+00
 -1      2653 3.96656E+00
 -1      2654 6.69375E+00
 -1      2655 1.22072E+01
 -1      2656 2.22796E+01
 -1      2657 4.54725E+01
 -1      2658 4.54725E+01
 -1      2659 7.98766E+01
 -1      2660 8.44168E+01
 -1      2661 4.77866E+01
 -1      2662 2.15152E+01
 -1      2663 4.96189E+00
 -1      2664 2.07326E+00
 -1      2665 2.07326E+00
 -1      2666 1.93962E+00
 -1      2667 1.75424E+00
 -1      2668 1.66001E+00
 -1      2669 1.62984E+00
 -1      2670 1.63069E+00
 -1      2671 1.63359E+00
 -1      2672 1.63359E+00
 -1      2673 1.67142E+00
 -1      2674 1.83191E+00
 -1      2675 2.09227E+00
 -1      2676 2.09227E+00
 -1      2677 3.67341E+00
 -1      2678 6.63581E+00
 -1      2679 1.71485E+01
 -1      2680 4.31701E+01
 -1      2681 4.31701E+01
 -1      2682 7.98766E+01
 -1      2683 8.44168E+01
 -1      2684 4.96438E+01
 -1      2685 2.52492E+01
 -1      2686 9.17057E+00
 -1      2687 4.04428E+00
 -1      2688 4.04428E+00
 -1      2689 3.86144E+00
 -1      2690 3.69011E+00
 -1      2691 3.61253E+00
 -1      2692 3.59065E+00
 -1      2693 3.59071E+00
 -1      2694 3.59500E+00
 -1      2695 3.59500E+00
 -1      2696 3.62288E+00
 -1      2697 3.74025E+00
 -1      2698 3.95342E+00
 -1      2699 3.96656E+00
 -1      2700 6.69375E+00
 -1      2701 1.22072E+01
 -1      2702 2.22796E+01
 -1      2703 4.54725E+01
 -1      2704 4.54725E+01
 -1      2705 7.98766E+01
 -1      2706 8.44168E+01
 -1      2707 5.26300E+01
 -1      2708 3.13855E+01
 -1      2709 1.77818E+01
 -1      2710 1.25320E+01
 -1      2711 1.25320E+01
 -1      2712 1.21097E+01
 -1      2713 1.16979E+01
 -1      2714 1.15062E+01
 -1      2715 1.14477E+01
 -1      2716 1.14412E+01
 -1      2717 1.14510E+01
 -1      2718 1.14510E+01
 -1      2719 1.15194E+01
 -1      2720 1.18161E+01
 -1      2721 1.23165E+01
 -1      2722 1.23165E+01
 -1      2723 1.60026E+01
 -1      2724 2.07249E+01
 -1      2725 2.99256E+01
 -1      2726 4.78602E+01
 -1      2727 4.78602E+01
 -1      2728 4.61489E+01
 -1      2729 7.75148E+01
 -1      2730 5.61512E+01
 -1      2731 3.73265E+01
 -1      2732 2.71455E+01
 -1      2733 2.26659E+01
 -1      2734 2.26659E+01
 -1      2735 2.22967E+01
 -1      2736 2.19074E+01
 -1      2737 2.17172E+01
 -1      2738 2.16524E+01
 -1      2739 2.16344E+01
 -1      2740 2.16437E+01
 -1      2741 2.16437E+01
 -1      2742 2.17031E+01
 -1      2743 2.19958E+01
 -1      2744 2.24330E+01
 -1      2745 2.24330E+01
 -1      2746 2.54585E+01
 -1      2747 2.89580E+01
 -1      2748 3.71207E+01
 -1      2749 4.90878E+01
 -1      2750 4.90878E+01
 -1      2751 4.36518E+01
 -1      2752 6.77656E+01
 -1      2753 6.16712E+01
 -1      2754 4.37809E+01
 -1      2755 3.77747E+01
 -1      2756 3.53035E+01
 -1      2757 3.53035E+01
 -1      2758 3.50169E+01
 -1      2759 3.46100E+01
 -1      2760 3.43843E+01
 -1      2761 3.42928E+01
 -1      2762 3.42559E+01
 -1      2763 3.42542E+01
 -1      2764 3.42542E+01
 -1      2765 3.42739E+01
 -1      2766 3.45924E+01
 -1      2767 3.50212E+01
 -1      2768 3.50212E+01
 -1      2769 3.78782E+01
 -1      2770 3.91391E+01
 -1      2771 4.53753E+01
 -1      2772 4.94737E+01
 -1      2773 4.94737E+01
 -1      2774 3.87811E+01
 -1      2775 5.82147E+01
 -1      2776 7.91231E+01
 -1      2777 9.26826E+01
 -1      2778 9.83268E+01
 -1      2779 9.83268E+01
 -1      2780 9.82441E+01
 -1      2781 9.79241E+01
 -1      2782 9.77521E+01
 -1      2783 9.76810E+01
 -1      2784 9.76333E+01
 -1      2785 9.75867E+01
 -1      2786 9.75385E+01
 -1      2787 9.75335E+01
 -1      2788 9.75335E+01
 -1      2789 9.74883E+01
 -1      2790 9.72935E+01
 -1      2791 9.75338E+01
 -1      2792 9.75338E+01
 -1      2793 9.88373E+01
 -1      2794 9.88373E+01
 -1      2795 9.09277E+01
 -1      2796 5.81066E+01
 -1      2797 3.41676E+01
 -1      2798 5.12132E+01
 -1      2799 7.91231E+01
 -1      2800 9.26826E+01
 -1      2801 9.83268E+01
 -1      2802 9.83268E+01
 -1      2803 9.82441E+01
 -1      2804 9.79241E+01
 -1      2805 9.77521E+01
 -1      2806 9.76810E+01
 -1      2807 9.76333E+01
 -1      2808 9.75867E+01
 -1      2809 9.75385E+01
 -1      2810 9.75335E+01
 -1      2811 9.75335E+01
 -1      2812 9.74883E+01
 -1      2813 9.72935E+01
 -1      2814 9.75338E+01
 -1      2815 9.75338E+01
 -1      2816 9.88373E+01
 -1      2817 9.88373E+01
 -1      2818 9.09277E+01
 -1      2819 6.45368E+01
 -1      2820 7.39695E+01
 -1      2821 7.39695E+01
 -1      2822 6.75085E+01
 -1      2823 5.24545E+01
 -1      2824 4.59693E+01
 -1      2825 4.62844E+01
 -1      2826 4.62844E+01
 -1      2827 4.59880E+01
 -1      2828 4.56178E+01
 -1      2829 4.53869E+01
 -1      2830 4.52718E+01
 -1      2831 4.52129E+01
 -1      2832 4.51777E+01
 -1      2833 4.51796E+01
 -1      2834 4.51796E+01
 -1      2835 4.52235E+01
 -1      2836 4.55779E+01
 -1      2837 4.58232E+01
 -1      2838 4.81862E+01
 -1      2839 5.07813E+01
 -1      2840 5.22727E+01
 -1      2841 5.52581E+01
 -1      2842 5.52581E+01
 -1      2843 7.45568E+01
 -1      2844 7.45568E+01
 -1      2845 6.75085E+01
 -1      2846 4.87307E+01
 -1      2847 3.86480E+01
 -1      2848 3.59321E+01
 -1      2849 3.59321E+01
 -1      2850 3.56280E+01
 -1      2851 3.53571E+01
 -1      2852 3.52278E+01
 -1      2853 3.51755E+01
 -1      2854 3.51536E+01
 -1      2855 3.51506E+01
 -1      2856 3.51523E+01
 -1      2857 3.51698E+01
 -1      2858 3.53422E+01
 -1      2859 3.56775E+01
 -1      2860 3.59377E+01
 -1      2861 3.67980E+01
 -1      2862 4.33831E+01
 -1      2863 4.79195E+01
 -1      2864 5.52581E+01
 -1      2865 5.52581E+01
 -1      2866 7.54052E+01
 -1      2867 7.54052E+01
 -1      2868 6.20239E+01
 -1      2869 3.85064E+01
 -1      2870 2.28438E+01
 -1      2871 1.89825E+01
 -1      2872 1.89825E+01
 -1      2873 1.86146E+01
 -1      2874 1.82845E+01
 -1      2875 1.81456E+01
 -1      2876 1.80969E+01
 -1      2877 1.80805E+01
 -1      2878 1.80873E+01
 -1      2879 1.80873E+01
 -1      2880 1.81304E+01
 -1      2881 1.83615E+01
 -1      2882 1.87210E+01
 -1      2883 1.91739E+01
 -1      2884 2.04293E+01
 -1      2885 3.05130E+01
 -1      2886 3.67327E+01
 -1      2887 5.37189E+01
 -1      2888 5.37189E+01
 -1      2889 7.59670E+01
 -1      2890 7.75148E+01
 -1      2891 5.70143E+01
 -1      2892 2.81687E+01
 -1      2893 8.42855E+00
 -1      2894 4.04428E+00
 -1      2895 4.04428E+00
 -1      2896 3.86144E+00
 -1      2897 3.69011E+00
 -1      2898 3.61253E+00
 -1      2899 3.59065E+00
 -1      2900 3.59071E+00
 -1      2901 3.59500E+00
 -1      2902 3.59500E+00
 -1      2903 3.62288E+00
 -1      2904 3.74025E+00
 -1      2905 3.95342E+00
 -1      2906 3.96656E+00
 -1      2907 6.69375E+00
 -1      2908 1.70260E+01
 -1      2909 2.42869E+01
 -1      2910 4.99573E+01
 -1      2911 4.99573E+01
 -1      2912 7.98766E+01
 -1      2913 8.44168E+01
 -1      2914 5.63309E+01
 -1      2915 2.62995E+01
 -1      2916 4.26539E+00
 -1      2917 2.11739E+00
 -1      2918 2.11739E+00
 -1      2919 1.92753E+00
 -1      2920 1.76666E+00
 -1      2921 1.70350E+00
 -1      2922 1.68387E+00
 -1      2923 1.67967E+00
 -1      2924 1.68431E+00
 -1      2925 1.68431E+00
 -1      2926 1.71038E+00
 -1      2927 1.82231E+00
 -1      2928 1.97385E+00
 -1      2929 2.25583E+00
 -1      2930 3.36735E+00
 -1      2931 1.33732E+01
 -1      2932 2.03616E+01
 -1      2933 4.77346E+01
 -1      2934 4.77346E+01
 -1      2935 7.98766E+01
 -1      2936 8.44168E+01
 -1      2937 5.70143E+01
 -1      2938 2.81687E+01
 -1      2939 8.42855E+00
 -1      2940 4.04428E+00
 -1      2941 4.04428E+00
 -1      2942 3.86144E+00
 -1      2943 3.69011E+00
 -1      2944 3.61253E+00
 -1      2945 3.59065E+00
 -1      2946 3.59071E+00
 -1      2947 3.59500E+00
 -1      2948 3.59500E+00
 -1      2949 3.62288E+00
 -1      2950 3.74025E+00
 -1      2951 3.95342E+00
 -1      2952 3.96656E+00
 -1      2953 6.69375E+00
 -1      2954 1.70260E+01
 -1      2955 2.42869E+01
 -1      2956 4.99573E+01
 -1      2957 4.99573E+01
 -1      2958 7.98766E+01
 -1      2959 8.44168E+01
 -1      2960 6.20239E+01
 -1      2961 3.85064E+01
 -1      2962 2.28438E+01
 -1      2963 1.89825E+01
 -1      2964 1.89825E+01
 -1      2965 1.86146E+01
 -1      2966 1.82845E+01
 -1      2967 1.81456E+01
 -1      2968 1.80969E+01
 -1      2969 1.80805E+01
 -1      2970 1.80873E+01
 -1      2971 1.80873E+01
 -1      2972 1.81304E+01
 -1      2973 1.83615E+01
 -1      2974 1.87210E+01
 -1      2975 1.91739E+01
 -1      2976 2.04293E+01
 -1      2977 3.05130E+01
 -1      2978 3.67327E+01
 -1      2979 5.37189E+01
 -1      2980 5.37189E+01
 -1      2981 7.59670E+01
 -1      2982 7.75148E+01
 -1      2983 6.75085E+01
 -1      2984 4.87307E+01
 -1      2985 3.86480E+01
 -1      2986 3.59321E+01
 -1      2987 3.59321E+01
 -1      2988 3.56280E+01
 -1      2989 3.53571E+01
 -1      2990 3.52278E+01
 -1      2991 3.51755E+01
 -1      2992 3.51536E+01
 -1      2993 3.51506E+01
 -1      2994 3.51523E+01
 -1      2995 3.51698E+01
 -1      2996 3.53422E+01
 -1      2997 3.56775E+01
 -1      2998 3.59377E+01
 -1      2999 3.67980E+01
 -1      3000 4.33831E+01
 -1      3001 4.79195E+01
 -1      3002 5.52581E+01
 -1      3003 5.52581E+01
 -1      3004 7.54052E+01
 -1      3005 7.54052E+01
 -1      3006 6.75085E+01
 -1      3007 5.24545E+01
 -1      3008 4.59693E+01
 -1      3009 4.62844E+01
 -1      3010 4.62844E+01
 -1      3011 4.59880E+01
 -1      3012 4.56178E+01
 -1      3013 4.53869E+01
 -1      3014 4.52718E+01
 -1      3015 4.52129E+01
 -1      3016 4.51777E+01
 -1      3017 4.51796E+01
 -1      3018 4.51796E+01
 -1      3019 4.52235E+01
 -1      3020 4.55779E+01
 -1      3021 4.58232E+01
 -1      3022 4.81862E+01
 -1      3023 5.07813E+01
 -1      3024 5.22727E+01
 -1      3025 5.52581E+01
 -1      3026 5.52581E+01
 -1      3027 7.45568E+01
 -1      3028 7.45568E+01
 -1      3029 7.91231E+01
 -1      3030 9.26826E+01
 -1      3031 9.83268E+01
 -1      3032 9.83268E+01
 -1      3033 9.82441E+01
 -1      3034 9.79241E+01
 -1      3035 9.77521E+01
 -1      3036 9.76810E+01
 -1      3037 9.76333E+01
 -1      3038 9.75867E+01
 -1      3039 9.75385E+01
 -1      3040 9.75335E+01
 -1      3041 9.75335E+01
 -1      3042 9.74883E+01
 -1      3043 9.72935E+01
 -1      3044 9.75338E+01
 -1      3045 9.75338E+01
 -1      3046 9.88373E+01
 -1      3047 9.88373E+01
 -1      3048 9.09277E+01
 -1      3049 6.45368E+01
 -1      3050 7.39695E+01
 -1      3051 7.39695E+01
 -1      3052 7.03573E+01
 -1      3053 7.26631E+01
 -1      3054 7.61920E+01
 -1      3055 7.89767E+01
 -1      3056 8.25072E+01
 -1      3057 8.59213E+01
 -1      3058 8.83477E+01
 -1      3059 8.97131E+01
 -1      3060 9.03751E+01
 -1      3061 9.06492E+01
 -1      3062 9.07329E+01
 -1      3063 9.07775E+01
 -1      3064 9.07775E+01
 -1      3065 9.07434E+01
 -1      3066 9.01259E+01
 -1      3067 8.73160E+01
 -1      3068 8.35770E+01
 -1      3069 8.51496E+01
 -1      3070 1.00346E+02
 -1      3071 1.00346E+02
 -1      3072 8.04124E+01
 -1      3073 7.84895E+01
 -1      3074 7.84895E+01
 -1      3075 7.24017E+01
 -1      3076 7.26631E+01
 -1      3077 7.61920E+01
 -1      3078 7.89767E+01
 -1      3079 8.25072E+01
 -1      3080 8.59213E+01
 -1      3081 8.83477E+01
 -1      3082 8.97131E+01
 -1      3083 9.03751E+01
 -1      3084 9.06492E+01
 -1      3085 9.07329E+01
 -1      3086 9.07775E+01
 -1      3087 9.07775E+01
 -1      3088 9.07434E+01
 -1      3089 9.01259E+01
 -1      3090 8.73160E+01
 -1      3091 8.35770E+01
 -1      3092 8.51496E+01
 -1      3093 8.61910E+01
 -1      3094 8.61910E+01
 -1      3095 8.04124E+01
 -1      3096 7.45568E+01
 -1      3097 7.45568E+01
 -1      3098 7.24017E+01
 -1      3099 5.61098E+01
 -1      3100 4.46370E+01
 -1      3101 4.30511E+01
 -1      3102 4.30511E+01
 -1      3103 4.28603E+01
 -1      3104 4.27010E+01
 -1      3105 4.25913E+01
 -1      3106 4.25305E+01
 -1      3107 4.24989E+01
 -1      3108 4.24816E+01
 -1      3109 4.24795E+01
 -1      3110 4.24940E+01
 -1      3111 4.25710E+01
 -1      3112 4.27193E+01
 -1      3113 4.30567E+01
 -1      3114 4.30567E+01
 -1      3115 5.06926E+01
 -1      3116 5.40821E+01
 -1      3117 6.22830E+01
 -1      3118 7.41231E+01
 -1      3119 8.83577E+01
 -1      3120 8.83577E+01
 -1      3121 6.51284E+01
 -1      3122 4.63098E+01
 -1      3123 3.01558E+01
 -1      3124 2.75237E+01
 -1      3125 2.75237E+01
 -1      3126 2.72411E+01
 -1      3127 2.70486E+01
 -1      3128 2.69561E+01
 -1      3129 2.69164E+01
 -1      3130 2.68990E+01
 -1      3131 2.68966E+01
 -1      3132 2.68973E+01
 -1      3133 2.69589E+01
 -1      3134 2.70977E+01
 -1      3135 2.74360E+01
 -1      3136 2.74360E+01
 -1      3137 2.75779E+01
 -1      3138 4.04385E+01
 -1      3139 4.53231E+01
 -1      3140 6.00437E+01
 -1      3141 7.48699E+01
 -1      3142 8.83577E+01
 -1      3143 8.84568E+01
 -1      3144 6.00374E+01
 -1      3145 3.36552E+01
 -1      3146 7.48136E+00
 -1      3147 4.12771E+00
 -1      3148 4.12771E+00
 -1      3149 3.95496E+00
 -1      3150 3.84984E+00
 -1      3151 3.80372E+00
 -1      3152 3.78638E+00
 -1      3153 3.77952E+00
 -1      3154 3.78051E+00
 -1      3155 3.78326E+00
 -1      3156 3.82094E+00
 -1      3157 3.89967E+00
 -1      3158 4.06484E+00
 -1      3159 4.06484E+00
 -1      3160 4.62406E+00
 -1      3161 2.17587E+01
 -1      3162 2.72423E+01
 -1      3163 5.44155E+01
 -1      3164 7.48699E+01
 -1      3165 8.68955E+01
 -1      3166 8.96199E+01
 -1      3167 5.89734E+01
 -1      3168 3.20900E+01
 -1      3169 4.91787E+00
 -1      3170 3.11008E+00
 -1      3171 3.11008E+00
 -1      3172 2.94376E+00
 -1      3173 2.84349E+00
 -1      3174 2.79534E+00
 -1      3175 2.77639E+00
 -1      3176 2.76870E+00
 -1      3177 2.76883E+00
 -1      3178 2.77185E+00
 -1      3179 2.81049E+00
 -1      3180 2.89160E+00
 -1      3181 3.07059E+00
 -1      3182 3.07059E+00
 -1      3183 3.00383E+00
 -1      3184 2.03807E+01
 -1      3185 2.57003E+01
 -1      3186 5.20222E+01
 -1      3187 7.48465E+01
 -1      3188 8.68955E+01
 -1      3189 8.96199E+01
 -1      3190 6.00374E+01
 -1      3191 3.36552E+01
 -1      3192 7.48136E+00
 -1      3193 4.12771E+00
 -1      3194 4.12771E+00
 -1      3195 3.95496E+00
 -1      3196 3.84984E+00
 -1      3197 3.80372E+00
 -1      3198 3.78638E+00
 -1      3199 3.77952E+00
 -1      3200 3.78051E+00
 -1      3201 3.78326E+00
 -1      3202 3.82094E+00
 -1      3203 3.89967E+00
 -1      3204 4.06484E+00
 -1      3205 4.06484E+00
 -1      3206 4.62406E+00
 -1      3207 2.17587E+01
 -1      3208 2.72423E+01
 -1      3209 5.44155E+01
 -1      3210 7.48699E+01
 -1      3211 8.68955E+01
 -1      3212 8.96199E+01
 -1      3213 6.51284E+01
 -1      3214 4.63098E+01
 -1      3215 3.01558E+01
 -1      3216 2.75237E+01
 -1      3217 2.75237E+01
 -1      3218 2.72411E+01
 -1      3219 2.70486E+01
 -1      3220 2.69561E+01
 -1      3221 2.69164E+01
 -1      3222 2.68990E+01
 -1      3223 2.68966E+01
 -1      3224 2.68973E+01
 -1      3225 2.69589E+01
 -1      3226 2.70977E+01
 -1      3227 2.74360E+01
 -1      3228 2.74360E+01
 -1      3229 2.75779E+01
 -1      3230 4.04385E+01
 -1      3231 4.53231E+01
 -1      3232 6.00437E+01
 -1      3233 7.48699E+01
 -1      3234 8.83577E+01
 -1      3235 8.84568E+01
 -1      3236 7.24017E+01
 -1      3237 5.61098E+01
 -1      3238 4.46370E+01
 -1      3239 4.30511E+01
 -1      3240 4.30511E+01
 -1      3241 4.28603E+01
 -1      3242 4.27010E+01
 -1      3243 4.25913E+01
 -1      3244 4.25305E+01
 -1      3245 4.24989E+01
 -1      3246 4.24816E+01
 -1      3247 4.24795E+01
 -1      3248 4.24940E+01
 -1      3249 4.25710E+01
 -1      3250 4.27193E+01
 -1      3251 4.30567E+01
 -1      3252 4.30567E+01
 -1      3253 5.06926E+01
 -1      3254 5.40821E+01
 -1      3255 6.22830E+01
 -1      3256 7.41231E+01
 -1      3257 8.83577E+01
 -1      3258 8.83577E+01
 -1      3259 7.24017E+01
 -1      3260 7.26631E+01
 -1      3261 7.61920E+01
 -1      3262 7.89767E+01
 -1      3263 8.25072E+01
 -1      3264 8.59213E+01
 -1      3265 8.83477E+01
 -1      3266 8.97131E+01
 -1      3267 9.03751E+01
 -1      3268 9.06492E+01
 -1      3269 9.07329E+01
 -1      3270 9.07775E+01
 -1      3271 9.07775E+01
 -1      3272 9.07434E+01
 -1      3273 9.01259E+01
 -1      3274 8.73160E+01
 -1      3275 8.35770E+01
 -1      3276 8.51496E+01
 -1      3277 8.61910E+01
 -1      3278 8.61910E+01
 -1      3279 8.04124E+01
 -1      3280 7.45568E+01
 -1      3281 7.45568E+01
 -1      3282 7.03573E+01
 -1      3283 7.26631E+01
 -1      3284 7.61920E+01
 -1      3285 7.89767E+01
 -1      3286 8.25072E+01
 -1      3287 8.59213E+01
 -1      3288 8.83477E+01
 -1      3289 8.97131E+01
 -1      3290 9.03751E+01
 -1      3291 9.06492E+01
 -1      3292 9.07329E+01
 -1      3293 9.07775E+01
 -1      3294 9.07775E+01
 -1      3295 9.07434E+01
 -1      3296 9.01259E+01
 -1      3297 8.73160E+01
 -1      3298 8.35770E+01
 -1      3299 8.51496E+01
 -1      3300 1.00346E+02
 -1      3301 1.00346E+02
 -1      3302 8.04124E+01
 -1      3303 7.84895E+01
 -1      3304 7.84895E+01
 -3
    1PSTEP                         4           2           1          
  100CL  102 2.00000E-01        3304                     0    2           1
 -4  DISP        4    1
 -5  D1          1    2    1    0
 -5  D2          1    2    2    0
 -5  D3          1    2    3    0
 -5  ALL         1    2    0    0    1ALL
 -1         1 0.00000E+00 0.00000E+00 0.00000E+00
 -1         2 1.11904E-02 8.80479E-05-1.13246E-05
 -1         3 0.00000E+00 0.00000E+00 0.00000E+00
 -1         4 1.09732E-02 4.76855E-05-1.29468E-05
 -1         5 0.00000E+00 0.00000E+00 0.00000E+00
 -1         6 1.09292E-02 2.22627E-05-1.40042E-05
 -1         7 0.00000E+00 0.00000E+00 0.00000E+00
 -1         8 1.09170E-02 1.92789E-10-1.40614E-05
 -1         9 0.00000E+00 0.00000E+00 0.00000E+00
 -1        10 1.09292E-02-2.22623E-05-1.40042E-05
 -1        11 0.00000E+00 0.00000E+00 0.00000E+00
 -1        12 1.09732E-02-4.76851E-05-1.29468E-05
 -1        13 0.00000E+00 0.00000E+00 0.00000E+00
 -1        14 1.11904E-02-8.80475E-05-1.13246E-05
 -1        15 0.00000E+00 0.00000E+00 0.00000E+00
 -1        16 1.09898E-02 5.22764E-05-2.36094E-04
 -1        17 0.00000E+00 0.00000E+00 0.00000E+00
 -1        18 1.08820E-02 3.75371E-05-2.24529E-04
 -1        19 0.00000E+00 0.00000E+00 0.00000E+00
 -1        20 1.08360E-02 1.99387E-05-2.25813E-04
 -1        21 0.00000E+00 0.00000E+00 0.00000E+00
 -1        22 1.08251E-02 1.92778E-10-2.25853E-04
 -1        23 0.00000E+00 0.00000E+00 0.00000E+00
 -1        24 1.08360E-02-1.99383E-05-2.25813E-04
 -1        25 0.00000E+00 0.00000E+00 0.00000E+00
 -1        26 1.08820E-02-3.75367E-05-2.24529E-04
 -1        27 0.00000E+00 0.00000E+00 0.00000E+00
 -1        28 1.09898E-02-5.22760E-05-2.36094E-04
 -1        29 0.00000E+00 0.00000E+00 0.00000E+00
 -1        30 1.09560E-02 2.71437E-05-4.62547E-04
 -1        31 0.00000E+00 0.00000E+00 0.00000E+00
 -1        32 1.08531E-02 2.48799E-05-4.51676E-04
 -1        33 0.00000E+00 0.00000E+00 0.00000E+00
 -1        34 1.08186E-02 1.69191E-05-4.45217E-04
 -1        35 0.00000E+00 0.00000E+00 0.00000E+00
 -1        36 1.08084E-02 1.92810E-10-4.42612E-04
 -1        37 0.00000E+00 0.00000E+00 0.00000E+00
 -1        38 1.08186E-02-1.69187E-05-4.45217E-04
 -1        39 0.00000E+00 0.00000E+00 0.00000E+00
 -1        40 1.08531E-02-2.48795E-05-4.51676E-04
 -1        41 0.00000E+00 0.00000E+00 0.00000E+00
 -1        42 1.09560E-02-2.71433E-05-4.62547E-04
 -1        43 0.00000E+00 0.00000E+00 0.00000E+00
 -1        44 1.09699E-02 2.01577E-05-7.08582E-04
 -1        45 0.00000E+00 0.00000E+00 0.00000E+00
 -1        46 1.08723E-02 2.59671E-05-6.96337E-04
 -1        47 0.00000E+00 0.00000E+00 0.00000E+00
 -1        48 1.08384E-02 1.97509E-05-6.75857E-04
 -1        49 0.00000E+00 0.00000E+00 0.00000E+00
 -1        50 1.08289E-02 1.92870E-10-6.66635E-04
 -1        51 0.00000E+00 0.00000E+00 0.00000E+00
 -1        52 1.08384E-02-1.97505E-05-6.75857E-04
 -1        53 0.00000E+00 0.00000E+00 0.00000E+00
 -1        54 1.08723E-02-2.59667E-05-6.96337E-04
 -1        55 0.00000E+00 0.00000E+00 0.00000E+00
 -1        56 1.09699E-02-2.01573E-05-7.08582E-04
 -1        57 0.00000E+00 0.00000E+00 0.00000E+00
 -1        58 1.10365E-02 2.44877E-05-9.93792E-04
 -1        59 0.00000E+00 0.00000E+00 0.00000E+00
 -1        60 1.09363E-02 3.92118E-05-9.60412E-04
 -1        61 0.00000E+00 0.00000E+00 0.00000E+00
 -1        62 1.08997E-02 2.72809E-05-9.11890E-04
 -1        63 0.00000E+00 0.00000E+00 0.00000E+00
 -1        64 1.08883E-02 1.92944E-10-8.93263E-04
 -1        65 0.00000E+00 0.00000E+00 0.00000E+00
 -1        66 1.08997E-02-2.72805E-05-9.11890E-04
 -1        67 0.00000E+00 0.00000E+00 0.00000E+00
 -1        68 1.09363E-02-3.92114E-05-9.60412E-04
 -1        69 0.00000E+00 0.00000E+00 0.00000E+00
 -1        70 1.10365E-02-2.44873E-05-9.93792E-04
 -1        71 0.00000E+00 0.00000E+00 0.00000E+00
 -1        72 1.11763E-02 2.66543E-05-1.35965E-03
 -1        73 0.00000E+00 0.00000E+00 0.00000E+00
 -1        74 1.10765E-02 4.37376E-05-1.23536E-03
 -1        75 0.00000E+00 0.00000E+00 0.00000E+00
 -1        76 1.10222E-02 1.69568E-05-1.14899E-03
 -1        77 0.00000E+00 0.00000E+00 0.00000E+00
 -1        78 1.10065E-02 1.93017E-10-1.12922E-03
 -1        79 0.00000E+00 0.00000E+00 0.00000E+00
 -1        80 1.10222E-02-1.69564E-05-1.14899E-03
 -1        81 0.00000E+00 0.00000E+00 0.00000E+00
 -1        82 1.10765E-02-4.37372E-05-1.23536E-03
 -1        83 0.00000E+00 0.00000E+00 0.00000E+00
 -1        84 1.11763E-02-2.66539E-05-1.35965E-03
 -1        85 0.00000E+00 0.00000E+00 0.00000E+00
 -1        86 1.16017E-02-1.18879E-04-1.88558E-03
 -1        87 0.00000E+00 0.00000E+00 0.00000E+00
 -1        88 1.13615E-02-6.89534E-05-1.50417E-03
 -1        89 0.00000E+00 0.00000E+00 0.00000E+00
 -1        90 1.12855E-02-2.85512E-05-1.42164E-03
 -1        91 0.00000E+00 0.00000E+00 0.00000E+00
 -1        92 1.12648E-02 1.93079E-10-1.39562E-03
 -1        93 0.00000E+00 0.00000E+00 0.00000E+00
 -1        94 1.12855E-02 2.85516E-05-1.42164E-03
 -1        95 0.00000E+00 0.00000E+00 0.00000E+00
 -1        96 1.13615E-02 6.89538E-05-1.50417E-03
 -1        97 0.00000E+00 0.00000E+00 0.00000E+00
 -1        98 1.16017E-02 1.18879E-04-1.88558E-03
 -1        99 3.90299E-04 1.05311E-04-3.21354E-06
 -1       100 3.90299E-04-1.05311E-04-3.21354E-06
 -1       101 9.00833E-04 7.43677E-05-8.01287E-06
 -1       102 9.00833E-04-7.43677E-05-8.01287E-06
 -1       103 1.46992E-03 6.04045E-05-8.53302E-06
 -1       104 1.46992E-03-6.04045E-05-8.53302E-06
 -1       105 2.03390E-03 5.68423E-05-8.60977E-06
 -1       106 2.03390E-03-5.68422E-05-8.60977E-06
 -1       107 2.58618E-03 5.69089E-05-8.40160E-06
 -1       108 2.58618E-03-5.69087E-05-8.40160E-06
 -1       109 3.13366E-03 5.75538E-05-8.31334E-06
 -1       110 3.13366E-03-5.75536E-05-8.31334E-06
 -1       111 3.68071E-03 5.81718E-05-8.27831E-06
 -1       112 3.68071E-03-5.81716E-05-8.27831E-06
 -1       113 4.22885E-03 5.86809E-05-8.27236E-06
 -1       114 4.22885E-03-5.86806E-05-8.27236E-06
 -1       115 4.77844E-03 5.91243E-05-8.27313E-06
 -1       116 4.77844E-03-5.91239E-05-8.27313E-06
 -1       117 5.32949E-03 5.95399E-05-8.27507E-06
 -1       118 5.32949E-03-5.95396E-05-8.27507E-06
 -1       119 5.88197E-03 5.99497E-05-8.27725E-06
 -1       120 5.88197E-03-5.99493E-05-8.27725E-06
 -1       121 6.43592E-03 6.03718E-05-8.27990E-06
 -1       122 6.43592E-03-6.03715E-05-8.27990E-06
 -1       123 6.99140E-03 6.08443E-05-8.28133E-06
 -1       124 6.99140E-03-6.08439E-05-8.28133E-06
 -1       125 7.54838E-03 6.14279E-05-8.26592E-06
 -1       126 7.54838E-03-6.14275E-05-8.26592E-06
 -1       127 8.10621E-03 6.21761E-05-8.21045E-06
 -1       128 8.10621E-03-6.21757E-05-8.21045E-06
 -1       129 8.66177E-03 6.30214E-05-8.00004E-06
 -1       130 8.66177E-03-6.30210E-05-8.00004E-06
 -1       131 9.20622E-03 6.26042E-05-7.83218E-06
 -1       132 9.20622E-03-6.26038E-05-7.83218E-06
 -1       133 9.72899E-03 5.44652E-05-7.56930E-06
 -1       134 9.72899E-03-5.44648E-05-7.56930E-06
 -1       135 1.02577E-02 6.62488E-06-1.12455E-05
 -1       136 1.02577E-02-6.62450E-06-1.12455E-05
 -1       137 3.94040E-04 1.05390E-04-9.28235E-05
 -1       138 3.94040E-04-1.05390E-04-9.28235E-05
 -1       139 9.07042E-04 7.43680E-05-1.44394E-04
 -1       140 9.07042E-04-7.43680E-05-1.44394E-04
 -1       141 1.47513E-03 6.09622E-05-1.56011E-04
 -1       142 1.47513E-03-6.09621E-05-1.56011E-04
 -1       143 2.03732E-03 5.77317E-05-1.54103E-04
 -1       144 2.03732E-03-5.77316E-05-1.54103E-04
 -1       145 2.58863E-03 5.79727E-05-1.51338E-04
 -1       146 2.58863E-03-5.79726E-05-1.51338E-04
 -1       147 3.13587E-03 5.86525E-05-1.50095E-04
 -1       148 3.13587E-03-5.86523E-05-1.50095E-04
 -1       149 3.68290E-03 5.92654E-05-1.49800E-04
 -1       150 3.68290E-03-5.92652E-05-1.49800E-04
 -1       151 4.23106E-03 5.97661E-05-1.49868E-04
 -1       152 4.23106E-03-5.97658E-05-1.49868E-04
 -1       153 4.78067E-03 6.02038E-05-1.50028E-04
 -1       154 4.78067E-03-6.02035E-05-1.50028E-04
 -1       155 5.33172E-03 6.06163E-05-1.50197E-04
 -1       156 5.33172E-03-6.06159E-05-1.50197E-04
 -1       157 5.88420E-03 6.10236E-05-1.50368E-04
 -1       158 5.88420E-03-6.10232E-05-1.50368E-04
 -1       159 6.43814E-03 6.14419E-05-1.50551E-04
 -1       160 6.43814E-03-6.14416E-05-1.50551E-04
 -1       161 6.99359E-03 6.19068E-05-1.50721E-04
 -1       162 6.99359E-03-6.19064E-05-1.50721E-04
 -1       163 7.55053E-03 6.24794E-05-1.50703E-04
 -1       164 7.55053E-03-6.24790E-05-1.50703E-04
 -1       165 8.10835E-03 6.32183E-05-1.50023E-04
 -1       166 8.10835E-03-6.32179E-05-1.50023E-04
 -1       167 8.66441E-03 6.41872E-05-1.47401E-04
 -1       168 8.66441E-03-6.41868E-05-1.47401E-04
 -1       169 9.21085E-03 6.40144E-05-1.42925E-04
 -1       170 9.21085E-03-6.40140E-05-1.42925E-04
 -1       171 9.73320E-03 5.66669E-05-1.39608E-04
 -1       172 9.73320E-03-5.66665E-05-1.39608E-04
 -1       173 1.02878E-02 1.11837E-05-1.86696E-04
 -1       174 1.02878E-02-1.11833E-05-1.86696E-04
 -1       175 4.01154E-04 1.05180E-04-1.87724E-04
 -1       176 4.01154E-04-1.05180E-04-1.87724E-04
 -1       177 9.20457E-04 7.41399E-05-2.84406E-04
 -1       178 9.20457E-04-7.41399E-05-2.84406E-04
 -1       179 1.48546E-03 6.21331E-05-3.04660E-04
 -1       180 1.48546E-03-6.21330E-05-3.04660E-04
 -1       181 2.04231E-03 5.99793E-05-3.00614E-04
 -1       182 2.04231E-03-5.99792E-05-3.00614E-04
 -1       183 2.59108E-03 6.06922E-05-2.95665E-04
 -1       184 2.59108E-03-6.06920E-05-2.95665E-04
 -1       185 3.13769E-03 6.14704E-05-2.93474E-04
 -1       186 3.13769E-03-6.14702E-05-2.93474E-04
 -1       187 3.68466E-03 6.20780E-05-2.92971E-04
 -1       188 3.68466E-03-6.20777E-05-2.92971E-04
 -1       189 4.23287E-03 6.25626E-05-2.93125E-04
 -1       190 4.23287E-03-6.25623E-05-2.93125E-04
 -1       191 4.78252E-03 6.29903E-05-2.93443E-04
 -1       192 4.78252E-03-6.29900E-05-2.93443E-04
 -1       193 5.33360E-03 6.33985E-05-2.93774E-04
 -1       194 5.33360E-03-6.33981E-05-2.93774E-04
 -1       195 5.88607E-03 6.38028E-05-2.94109E-04
 -1       196 5.88607E-03-6.38025E-05-2.94109E-04
 -1       197 6.43997E-03 6.42136E-05-2.94467E-04
 -1       198 6.43997E-03-6.42132E-05-2.94467E-04
 -1       199 6.99534E-03 6.46620E-05-2.94801E-04
 -1       200 6.99534E-03-6.46616E-05-2.94801E-04
 -1       201 7.55219E-03 6.52028E-05-2.94809E-04
 -1       202 7.55219E-03-6.52024E-05-2.94809E-04
 -1       203 8.11010E-03 6.59552E-05-2.93558E-04
 -1       204 8.11010E-03-6.59549E-05-2.93558E-04
 -1       205 8.66764E-03 6.70891E-05-2.89217E-04
 -1       206 8.66764E-03-6.70887E-05-2.89217E-04
 -1       207 9.21839E-03 6.81711E-05-2.79796E-04
 -1       208 9.21839E-03-6.81707E-05-2.79796E-04
 -1       209 9.75271E-03 6.15701E-05-2.77447E-04
 -1       210 9.75271E-03-6.15697E-05-2.77447E-04
 -1       211 1.02838E-02 1.99339E-05-3.41310E-04
 -1       212 1.02838E-02-1.99335E-05-3.41310E-04
 -1       213 4.13720E-04 1.03869E-04-2.94362E-04
 -1       214 4.13720E-04-1.03869E-04-2.94362E-04
 -1       215 9.42438E-04 7.27105E-05-4.32031E-04
 -1       216 9.42438E-04-7.27104E-05-4.32031E-04
 -1       217 1.49986E-03 6.32046E-05-4.56522E-04
 -1       218 1.49986E-03-6.32045E-05-4.56522E-04
 -1       219 2.04795E-03 6.29296E-05-4.50353E-04
 -1       220 2.04795E-03-6.29295E-05-4.50353E-04
 -1       221 2.59330E-03 6.43452E-05-4.43997E-04
 -1       222 2.59330E-03-6.43451E-05-4.43997E-04
 -1       223 3.13907E-03 6.52517E-05-4.41173E-04
 -1       224 3.13907E-03-6.52515E-05-4.41173E-04
 -1       225 3.68598E-03 6.58491E-05-4.40566E-04
 -1       226 3.68598E-03-6.58489E-05-4.40566E-04
 -1       227 4.23430E-03 6.63083E-05-4.40827E-04
 -1       228 4.23430E-03-6.63081E-05-4.40827E-04
 -1       229 4.78402E-03 6.67212E-05-4.41297E-04
 -1       230 4.78402E-03-6.67209E-05-4.41297E-04
 -1       231 5.33511E-03 6.71242E-05-4.41784E-04
 -1       232 5.33511E-03-6.71239E-05-4.41784E-04
 -1       233 5.88758E-03 6.75249E-05-4.42276E-04
 -1       234 5.88758E-03-6.75245E-05-4.42276E-04
 -1       235 6.44143E-03 6.79256E-05-4.42799E-04
 -1       236 6.44143E-03-6.79252E-05-4.42799E-04
 -1       237 6.99668E-03 6.83452E-05-4.43294E-04
 -1       238 6.99668E-03-6.83448E-05-4.43294E-04
 -1       239 7.55336E-03 6.88481E-05-4.43356E-04
 -1       240 7.55336E-03-6.88477E-05-4.43356E-04
 -1       241 8.11144E-03 6.95698E-05-4.41773E-04
 -1       242 8.11144E-03-6.95694E-05-4.41773E-04
 -1       243 8.67049E-03 7.10419E-05-4.36168E-04
 -1       244 8.67049E-03-7.10415E-05-4.36168E-04
 -1       245 9.22910E-03 7.35946E-05-4.24138E-04
 -1       246 9.22910E-03-7.35942E-05-4.24138E-04
 -1       247 9.77613E-03 6.98675E-05-4.17559E-04
 -1       248 9.77613E-03-6.98671E-05-4.17559E-04
 -1       249 1.03012E-02 3.17143E-05-4.89953E-04
 -1       250 1.03012E-02-3.17139E-05-4.89953E-04
 -1       251 4.36421E-04 9.86547E-05-4.23336E-04
 -1       252 4.36421E-04-9.86547E-05-4.23336E-04
 -1       253 9.75034E-04 6.63915E-05-5.92362E-04
 -1       254 9.75034E-04-6.63914E-05-5.92362E-04
 -1       255 1.51573E-03 6.11049E-05-6.15484E-04
 -1       256 1.51573E-03-6.11048E-05-6.15484E-04
 -1       257 2.05290E-03 6.35085E-05-6.08285E-04
 -1       258 2.05290E-03-6.35084E-05-6.08285E-04
 -1       259 2.59500E-03 6.57287E-05-6.01451E-04
 -1       260 2.59500E-03-6.57286E-05-6.01451E-04
 -1       261 3.13993E-03 6.67592E-05-5.98329E-04
 -1       262 3.13993E-03-6.67590E-05-5.98329E-04
 -1       263 3.68691E-03 6.73403E-05-5.97759E-04
 -1       264 3.68691E-03-6.73401E-05-5.97759E-04
 -1       265 4.23536E-03 6.77597E-05-5.98139E-04
 -1       266 4.23536E-03-6.77594E-05-5.98139E-04
 -1       267 4.78515E-03 6.81550E-05-5.98756E-04
 -1       268 4.78515E-03-6.81547E-05-5.98756E-04
 -1       269 5.33628E-03 6.85517E-05-5.99391E-04
 -1       270 5.33628E-03-6.85513E-05-5.99391E-04
 -1       271 5.88874E-03 6.89487E-05-6.00031E-04
 -1       272 5.88874E-03-6.89483E-05-6.00031E-04
 -1       273 6.44253E-03 6.93372E-05-6.00706E-04
 -1       274 6.44253E-03-6.93369E-05-6.00706E-04
 -1       275 6.99764E-03 6.97210E-05-6.01348E-04
 -1       276 6.99764E-03-6.97206E-05-6.01348E-04
 -1       277 7.55407E-03 7.01585E-05-6.01518E-04
 -1       278 7.55407E-03-7.01581E-05-6.01518E-04
 -1       279 8.11216E-03 7.08656E-05-5.99809E-04
 -1       280 8.11216E-03-7.08652E-05-5.99809E-04
 -1       281 8.67276E-03 7.25628E-05-5.93661E-04
 -1       282 8.67276E-03-7.25624E-05-5.93661E-04
 -1       283 9.23832E-03 7.70281E-05-5.81146E-04
 -1       284 9.23832E-03-7.70277E-05-5.81146E-04
 -1       285 9.80544E-03 7.79718E-05-5.68489E-04
 -1       286 9.80544E-03-7.79714E-05-5.68489E-04
 -1       287 1.03457E-02 4.55823E-05-6.37723E-04
 -1       288 1.03457E-02-4.55819E-05-6.37723E-04
 -1       289 4.82220E-04 7.97150E-05-5.94863E-04
 -1       290 4.82220E-04-7.97150E-05-5.94863E-04
 -1       291 1.01889E-03 4.48788E-05-7.71667E-04
 -1       292 1.01889E-03-4.48788E-05-7.71667E-04
 -1       293 1.52702E-03 4.61685E-05-7.90531E-04
 -1       294 1.52702E-03-4.61685E-05-7.90531E-04
 -1       295 2.05665E-03 5.19397E-05-7.85126E-04
 -1       296 2.05665E-03-5.19396E-05-7.85126E-04
 -1       297 2.59560E-03 5.47880E-05-7.78147E-04
 -1       298 2.59560E-03-5.47878E-05-7.78147E-04
 -1       299 3.14028E-03 5.60139E-05-7.75219E-04
 -1       300 3.14028E-03-5.60137E-05-7.75219E-04
 -1       301 3.68744E-03 5.65269E-05-7.74753E-04
 -1       302 3.68744E-03-5.65266E-05-7.74753E-04
 -1       303 4.23607E-03 5.69046E-05-7.75267E-04
 -1       304 4.23607E-03-5.69044E-05-7.75267E-04
 -1       305 4.78595E-03 5.72771E-05-7.76020E-04
 -1       306 4.78595E-03-5.72768E-05-7.76020E-04
 -1       307 5.33710E-03 5.76677E-05-7.76794E-04
 -1       308 5.33710E-03-5.76674E-05-7.76794E-04
 -1       309 5.88956E-03 5.80615E-05-7.77575E-04
 -1       310 5.88956E-03-5.80612E-05-7.77575E-04
 -1       311 6.44330E-03 5.84358E-05-7.78389E-04
 -1       312 6.44330E-03-5.84354E-05-7.78389E-04
 -1       313 6.99826E-03 5.87819E-05-7.79167E-04
 -1       314 6.99826E-03-5.87815E-05-7.79167E-04
 -1       315 7.55439E-03 5.91226E-05-7.79446E-04
 -1       316 7.55439E-03-5.91222E-05-7.79446E-04
 -1       317 8.11210E-03 5.98033E-05-7.77880E-04
 -1       318 8.11210E-03-5.98029E-05-7.77880E-04
 -1       319 8.67390E-03 6.17091E-05-7.71716E-04
 -1       320 8.67390E-03-6.17087E-05-7.71716E-04
 -1       321 9.24313E-03 6.76920E-05-7.59937E-04
 -1       322 9.24313E-03-6.76916E-05-7.59937E-04
 -1       323 9.83251E-03 7.67901E-05-7.47495E-04
 -1       324 9.83251E-03-7.67897E-05-7.47495E-04
 -1       325 1.04224E-02 4.88961E-05-7.89612E-04
 -1       326 1.04224E-02-4.88958E-05-7.89612E-04
 -1       327 6.18821E-04-1.01396E-05-8.44308E-04
 -1       328 6.18821E-04 1.01396E-05-8.44308E-04
 -1       329 1.04266E-03-4.49692E-05-9.71675E-04
 -1       330 1.04266E-03 4.49692E-05-9.71675E-04
 -1       331 1.53420E-03-3.17849E-05-1.00370E-03
 -1       332 1.53420E-03 3.17850E-05-1.00370E-03
 -1       333 2.05657E-03-2.43084E-05-9.97778E-04
 -1       334 2.05657E-03 2.43085E-05-9.97778E-04
 -1       335 2.59494E-03-2.02013E-05-9.92098E-04
 -1       336 2.59494E-03 2.02014E-05-9.92098E-04
 -1       337 3.14010E-03-1.89903E-05-9.89393E-04
 -1       338 3.14010E-03 1.89905E-05-9.89393E-04
 -1       339 3.68767E-03-1.85271E-05-9.89112E-04
 -1       340 3.68767E-03 1.85274E-05-9.89112E-04
 -1       341 4.23648E-03-1.82109E-05-9.89741E-04
 -1       342 4.23648E-03 1.82112E-05-9.89741E-04
 -1       343 4.78641E-03-1.78615E-05-9.90623E-04
 -1       344 4.78641E-03 1.78618E-05-9.90623E-04
 -1       345 5.33757E-03-1.74782E-05-9.91532E-04
 -1       346 5.33757E-03 1.74785E-05-9.91532E-04
 -1       347 5.89004E-03-1.70882E-05-9.92448E-04
 -1       348 5.89004E-03 1.70886E-05-9.92448E-04
 -1       349 6.44376E-03-1.67272E-05-9.93393E-04
 -1       350 6.44376E-03 1.67276E-05-9.93393E-04
 -1       351 6.99862E-03-1.64317E-05-9.94280E-04
 -1       352 6.99862E-03 1.64321E-05-9.94280E-04
 -1       353 7.55439E-03-1.61726E-05-9.94696E-04
 -1       354 7.55439E-03 1.61730E-05-9.94696E-04
 -1       355 8.11145E-03-1.56801E-05-9.93208E-04
 -1       356 8.11145E-03 1.56805E-05-9.93208E-04
 -1       357 8.67226E-03-1.32934E-05-9.88114E-04
 -1       358 8.67226E-03 1.32938E-05-9.88114E-04
 -1       359 9.24432E-03-6.33210E-06-9.75129E-04
 -1       360 9.24432E-03 6.33249E-06-9.75129E-04
 -1       361 9.83877E-03 1.05260E-05-9.76708E-04
 -1       362 9.83877E-03-1.05256E-05-9.76708E-04
 -1       363 1.05019E-02 8.05741E-06-9.66108E-04
 -1       364 1.05019E-02-8.05702E-06-9.66108E-04
 -1       365 3.78272E-04 6.77523E-05-3.02095E-06
 -1       366 6.15113E-04-9.61239E-07-6.75466E-04
 -1       367 9.07818E-04 5.33624E-05-7.95435E-06
 -1       368 1.04705E-03-2.11993E-05-8.25532E-04
 -1       369 1.47201E-03 4.08370E-05-8.72330E-06
 -1       370 1.53259E-03-1.73136E-05-8.58853E-04
 -1       371 2.03418E-03 3.87835E-05-8.76958E-06
 -1       372 2.05548E-03-1.11123E-05-8.56859E-04
 -1       373 2.58599E-03 3.88455E-05-8.59956E-06
 -1       374 2.59436E-03-8.44620E-06-8.51648E-04
 -1       375 3.13347E-03 3.92876E-05-8.50968E-06
 -1       376 3.13988E-03-7.56802E-06-8.49093E-04
 -1       377 3.68056E-03 3.96934E-05-8.47555E-06
 -1       378 3.68756E-03-7.27137E-06-8.48734E-04
 -1       379 4.22872E-03 4.00342E-05-8.46824E-06
 -1       380 4.23638E-03-7.05885E-06-8.49320E-04
 -1       381 4.77832E-03 4.03306E-05-8.46858E-06
 -1       382 4.78630E-03-6.82744E-06-8.50179E-04
 -1       383 5.32938E-03 4.06085E-05-8.47029E-06
 -1       384 5.33746E-03-6.57231E-06-8.51081E-04
 -1       385 5.88186E-03 4.08822E-05-8.47232E-06
 -1       386 5.88993E-03-6.31289E-06-8.51992E-04
 -1       387 6.43580E-03 4.11644E-05-8.47477E-06
 -1       388 6.44366E-03-6.07310E-06-8.52922E-04
 -1       389 6.99126E-03 4.14803E-05-8.47495E-06
 -1       390 6.99852E-03-5.87710E-06-8.53775E-04
 -1       391 7.54820E-03 4.18693E-05-8.45951E-06
 -1       392 7.55428E-03-5.70689E-06-8.54085E-04
 -1       393 8.10593E-03 4.23373E-05-8.39816E-06
 -1       394 8.11108E-03-5.39549E-06-8.52596E-04
 -1       395 8.66153E-03 4.29672E-05-8.21130E-06
 -1       396 8.67127E-03-3.71027E-06-8.47275E-04
 -1       397 9.20725E-03 4.29700E-05-8.03894E-06
 -1       398 9.24244E-03 1.19560E-06-8.37778E-04
 -1       399 9.73420E-03 3.75163E-05-7.88370E-06
 -1       400 9.83666E-03 1.61413E-05-8.36814E-04
 -1       401 1.02812E-02-5.19099E-06-1.15880E-05
 -1       402 1.05387E-02-1.61501E-05-8.83846E-04
 -1       403 3.75128E-04 3.33207E-05-2.74233E-06
 -1       404 6.07912E-04 2.05775E-06-6.48574E-04
 -1       405 9.07865E-04 2.78560E-05-7.89065E-06
 -1       406 1.04856E-03-7.50822E-06-7.91987E-04
 -1       407 1.47403E-03 2.10719E-05-8.64117E-06
 -1       408 1.53377E-03-6.92648E-06-8.29074E-04
 -1       409 2.03434E-03 1.98418E-05-8.74091E-06
 -1       410 2.05503E-03-3.74801E-06-8.28362E-04
 -1       411 2.58588E-03 1.99727E-05-8.56546E-06
 -1       412 2.59409E-03-2.30282E-06-8.23797E-04
 -1       413 3.13336E-03 2.01776E-05-8.48203E-06
 -1       414 3.13972E-03-1.86714E-06-8.21285E-04
 -1       415 3.68048E-03 2.03818E-05-8.44675E-06
 -1       416 3.68747E-03-1.71289E-06-8.20910E-04
 -1       417 4.22866E-03 2.05515E-05-8.43945E-06
 -1       418 4.23631E-03-1.60781E-06-8.21471E-04
 -1       419 4.77826E-03 2.07001E-05-8.43947E-06
 -1       420 4.78624E-03-1.49216E-06-8.22319E-04
 -1       421 5.32932E-03 2.08391E-05-8.44110E-06
 -1       422 5.33740E-03-1.36494E-06-8.23216E-04
 -1       423 5.88180E-03 2.09761E-05-8.44304E-06
 -1       424 5.88986E-03-1.23549E-06-8.24125E-04
 -1       425 6.43574E-03 2.11174E-05-8.44531E-06
 -1       426 6.44360E-03-1.11615E-06-8.25047E-04
 -1       427 6.99119E-03 2.12761E-05-8.44512E-06
 -1       428 6.99845E-03-1.01729E-06-8.25877E-04
 -1       429 7.54810E-03 2.14665E-05-8.42907E-06
 -1       430 7.55418E-03-9.39946E-07-8.26149E-04
 -1       431 8.10575E-03 2.17062E-05-8.36857E-06
 -1       432 8.11082E-03-7.48429E-07-8.24603E-04
 -1       433 8.66135E-03 2.19558E-05-8.19508E-06
 -1       434 8.67079E-03-5.19197E-08-8.19522E-04
 -1       435 9.20812E-03 2.25464E-05-7.99351E-06
 -1       436 9.24149E-03 3.40505E-06-8.10982E-04
 -1       437 9.74076E-03 1.78155E-05-8.00418E-06
 -1       438 9.84649E-03 9.08460E-06-8.14840E-04
 -1       439 1.02656E-02-2.77256E-06-1.14389E-05
 -1       440 1.05176E-02-1.23400E-05-8.60598E-04
 -1       441 3.74434E-04 6.37044E-12-2.64882E-06
 -1       442 6.05735E-04 4.09968E-12-6.40477E-04
 -1       443 9.07578E-04 1.89496E-11-7.82805E-06
 -1       444 1.04860E-03 1.63145E-11-7.81519E-04
 -1       445 1.47460E-03 3.55075E-11-8.60175E-06
 -1       446 1.53434E-03 3.34547E-11-8.19543E-04
 -1       447 2.03448E-03 5.52350E-11-8.70679E-06
 -1       448 2.05497E-03 5.36653E-11-8.19286E-04
 -1       449 2.58582E-03 7.65806E-11-8.53585E-06
 -1       450 2.59399E-03 7.54796E-11-8.14928E-04
 -1       451 3.13333E-03 9.82747E-11-8.45222E-06
 -1       452 3.13968E-03 9.76203E-11-8.12445E-04
 -1       453 3.68045E-03 1.19244E-10-8.41747E-06
 -1       454 3.68744E-03 1.18980E-10-8.12063E-04
 -1       455 4.22864E-03 1.38604E-10-8.40983E-06
 -1       456 4.23629E-03 1.38642E-10-8.12617E-04
 -1       457 4.77825E-03 1.55655E-10-8.40980E-06
 -1       458 4.78621E-03 1.55893E-10-8.13461E-04
 -1       459 5.32931E-03 1.69899E-10-8.41135E-06
 -1       460 5.33738E-03 1.70230E-10-8.14356E-04
 -1       461 5.88179E-03 1.81057E-10-8.41325E-06
 -1       462 5.88984E-03 1.81372E-10-8.15264E-04
 -1       463 6.43572E-03 1.89001E-10-8.41540E-06
 -1       464 6.44358E-03 1.89289E-10-8.16184E-04
 -1       465 6.99117E-03 1.93874E-10-8.41518E-06
 -1       466 6.99843E-03 1.94243E-10-8.17006E-04
 -1       467 7.54807E-03 1.95689E-10-8.39840E-06
 -1       468 7.55413E-03 1.96780E-10-8.17270E-04
 -1       469 8.10572E-03 1.96589E-10-8.33972E-06
 -1       470 8.11079E-03 1.97580E-10-8.15696E-04
 -1       471 8.66116E-03 1.96463E-10-8.16263E-06
 -1       472 8.67040E-03 1.97282E-10-8.10728E-04
 -1       473 9.20898E-03 1.95717E-10-7.97515E-06
 -1       474 9.24210E-03 1.96380E-10-8.02538E-04
 -1       475 9.74172E-03 1.94585E-10-7.98323E-06
 -1       476 9.84869E-03 1.95240E-10-8.07858E-04
 -1       477 1.02602E-02 1.93475E-10-1.14932E-05
 -1       478 1.05089E-02 1.94104E-10-8.52125E-04
 -1       479 3.75128E-04-3.33207E-05-2.74233E-06
 -1       480 6.07912E-04-2.05774E-06-6.48574E-04
 -1       481 9.07865E-04-2.78560E-05-7.89065E-06
 -1       482 1.04856E-03 7.50825E-06-7.91987E-04
 -1       483 1.47403E-03-2.10718E-05-8.64117E-06
 -1       484 1.53377E-03 6.92655E-06-8.29074E-04
 -1       485 2.03434E-03-1.98417E-05-8.74091E-06
 -1       486 2.05503E-03 3.74812E-06-8.28362E-04
 -1       487 2.58588E-03-1.99725E-05-8.56546E-06
 -1       488 2.59409E-03 2.30297E-06-8.23797E-04
 -1       489 3.13336E-03-2.01774E-05-8.48203E-06
 -1       490 3.13972E-03 1.86733E-06-8.21285E-04
 -1       491 3.68048E-03-2.03816E-05-8.44675E-06
 -1       492 3.68747E-03 1.71313E-06-8.20910E-04
 -1       493 4.22866E-03-2.05512E-05-8.43945E-06
 -1       494 4.23631E-03 1.60809E-06-8.21471E-04
 -1       495 4.77826E-03-2.06997E-05-8.43947E-06
 -1       496 4.78624E-03 1.49247E-06-8.22319E-04
 -1       497 5.32932E-03-2.08388E-05-8.44110E-06
 -1       498 5.33740E-03 1.36528E-06-8.23216E-04
 -1       499 5.88180E-03-2.09758E-05-8.44304E-06
 -1       500 5.88986E-03 1.23585E-06-8.24125E-04
 -1       501 6.43574E-03-2.11171E-05-8.44531E-06
 -1       502 6.44360E-03 1.11653E-06-8.25047E-04
 -1       503 6.99119E-03-2.12757E-05-8.44512E-06
 -1       504 6.99845E-03 1.01768E-06-8.25877E-04
 -1       505 7.54810E-03-2.14661E-05-8.42907E-06
 -1       506 7.55418E-03 9.40340E-07-8.26149E-04
 -1       507 8.10575E-03-2.17058E-05-8.36857E-06
 -1       508 8.11082E-03 7.48824E-07-8.24603E-04
 -1       509 8.66135E-03-2.19554E-05-8.19508E-06
 -1       510 8.67079E-03 5.23142E-08-8.19522E-04
 -1       511 9.20812E-03-2.25460E-05-7.99351E-06
 -1       512 9.24149E-03-3.40466E-06-8.10982E-04
 -1       513 9.74076E-03-1.78151E-05-8.00418E-06
 -1       514 9.84649E-03-9.08421E-06-8.14840E-04
 -1       515 1.02656E-02 2.77294E-06-1.14389E-05
 -1       516 1.05176E-02 1.23404E-05-8.60598E-04
 -1       517 3.78272E-04-6.77523E-05-3.02095E-06
 -1       518 6.15113E-04 9.61249E-07-6.75466E-04
 -1       519 9.07818E-04-5.33624E-05-7.95435E-06
 -1       520 1.04705E-03 2.11993E-05-8.25532E-04
 -1       521 1.47201E-03-4.08369E-05-8.72330E-06
 -1       522 1.53259E-03 1.73136E-05-8.58853E-04
 -1       523 2.03418E-03-3.87834E-05-8.76958E-06
 -1       524 2.05548E-03 1.11124E-05-8.56859E-04
 -1       525 2.58599E-03-3.88454E-05-8.59956E-06
 -1       526 2.59436E-03 8.44635E-06-8.51648E-04
 -1       527 3.13347E-03-3.92874E-05-8.50968E-06
 -1       528 3.13988E-03 7.56822E-06-8.49093E-04
 -1       529 3.68056E-03-3.96931E-05-8.47555E-06
 -1       530 3.68756E-03 7.27161E-06-8.48734E-04
 -1       531 4.22872E-03-4.00339E-05-8.46824E-06
 -1       532 4.23638E-03 7.05913E-06-8.49320E-04
 -1       533 4.77832E-03-4.03303E-05-8.46858E-06
 -1       534 4.78630E-03 6.82775E-06-8.50179E-04
 -1       535 5.32938E-03-4.06082E-05-8.47029E-06
 -1       536 5.33746E-03 6.57265E-06-8.51081E-04
 -1       537 5.88186E-03-4.08818E-05-8.47232E-06
 -1       538 5.88993E-03 6.31325E-06-8.51992E-04
 -1       539 6.43580E-03-4.11641E-05-8.47477E-06
 -1       540 6.44366E-03 6.07348E-06-8.52922E-04
 -1       541 6.99126E-03-4.14799E-05-8.47495E-06
 -1       542 6.99852E-03 5.87748E-06-8.53775E-04
 -1       543 7.54820E-03-4.18689E-05-8.45951E-06
 -1       544 7.55428E-03 5.70728E-06-8.54085E-04
 -1       545 8.10593E-03-4.23369E-05-8.39816E-06
 -1       546 8.11108E-03 5.39588E-06-8.52596E-04
 -1       547 8.66153E-03-4.29668E-05-8.21130E-06
 -1       548 8.67127E-03 3.71067E-06-8.47275E-04
 -1       549 9.20725E-03-4.29697E-05-8.03894E-06
 -1       550 9.24244E-03-1.19521E-06-8.37778E-04
 -1       551 9.73420E-03-3.75159E-05-7.88370E-06
 -1       552 9.83666E-03-1.61409E-05-8.36814E-04
 -1       553 1.02812E-02 5.19137E-06-1.15880E-05
 -1       554 1.05387E-02 1.61505E-05-8.83846E-04
 -1       555 3.82075E-04 6.81251E-05-9.15805E-05
 -1       556 9.14002E-04 5.38196E-05-1.43072E-04
 -1       557 1.47711E-03 4.16390E-05-1.55440E-04
 -1       558 2.03753E-03 3.98288E-05-1.54126E-04
 -1       559 2.58843E-03 4.00019E-05-1.51632E-04
 -1       560 3.13568E-03 4.04655E-05-1.50451E-04
 -1       561 3.68275E-03 4.08668E-05-1.50155E-04
 -1       562 4.23094E-03 4.12014E-05-1.50214E-04
 -1       563 4.78055E-03 4.14936E-05-1.50369E-04
 -1       564 5.33161E-03 4.17690E-05-1.50534E-04
 -1       565 5.88409E-03 4.20409E-05-1.50703E-04
 -1       566 6.43802E-03 4.23202E-05-1.50882E-04
 -1       567 6.99345E-03 4.26319E-05-1.51041E-04
 -1       568 7.55036E-03 4.30082E-05-1.51012E-04
 -1       569 8.10807E-03 4.34941E-05-1.50317E-04
 -1       570 8.66419E-03 4.41053E-05-1.47932E-04
 -1       571 9.21128E-03 4.46571E-05-1.43625E-04
 -1       572 9.74139E-03 3.84957E-05-1.42662E-04
 -1       573 1.02930E-02-3.61963E-07-1.85874E-04
 -1       574 3.79024E-04 3.36430E-05-8.94350E-05
 -1       575 9.14068E-04 2.82674E-05-1.40714E-04
 -1       576 1.47905E-03 2.16417E-05-1.53450E-04
 -1       577 2.03764E-03 2.05465E-05-1.52499E-04
 -1       578 2.58830E-03 2.07302E-05-1.50160E-04
 -1       579 3.13556E-03 2.09455E-05-1.49021E-04
 -1       580 3.68266E-03 2.11474E-05-1.48727E-04
 -1       581 4.23086E-03 2.13139E-05-1.48781E-04
 -1       582 4.78049E-03 2.14603E-05-1.48932E-04
 -1       583 5.33155E-03 2.15981E-05-1.49096E-04
 -1       584 5.88403E-03 2.17341E-05-1.49264E-04
 -1       585 6.43795E-03 2.18741E-05-1.49440E-04
 -1       586 6.99337E-03 2.20297E-05-1.49594E-04
 -1       587 7.55025E-03 2.22179E-05-1.49556E-04
 -1       588 8.10790E-03 2.24506E-05-1.48875E-04
 -1       589 8.66389E-03 2.27487E-05-1.46567E-04
 -1       590 9.21238E-03 2.34167E-05-1.42568E-04
 -1       591 9.74682E-03 1.89182E-05-1.42473E-04
 -1       592 1.02805E-02-1.15211E-06-1.83291E-04
 -1       593 3.78369E-04 6.23655E-12-8.84425E-05
 -1       594 9.13793E-04 1.88801E-11-1.39595E-04
 -1       595 1.47960E-03 3.54722E-11-1.52437E-04
 -1       596 2.03775E-03 5.51288E-11-1.51605E-04
 -1       597 2.58823E-03 7.64479E-11-1.49318E-04
 -1       598 3.13553E-03 9.81265E-11-1.48192E-04
 -1       599 3.68263E-03 1.19087E-10-1.47899E-04
 -1       600 4.23084E-03 1.38438E-10-1.47952E-04
 -1       601 4.78046E-03 1.55480E-10-1.48102E-04
 -1       602 5.33153E-03 1.69714E-10-1.48266E-04
 -1       603 5.88401E-03 1.80853E-10-1.48433E-04
 -1       604 6.43793E-03 1.88797E-10-1.48609E-04
 -1       605 6.99335E-03 1.93625E-10-1.48760E-04
 -1       606 7.55021E-03 1.95820E-10-1.48722E-04
 -1       607 8.10785E-03 1.96651E-10-1.48042E-04
 -1       608 8.66373E-03 1.96529E-10-1.45767E-04
 -1       609 9.21312E-03 1.95767E-10-1.41863E-04
 -1       610 9.74792E-03 1.94661E-10-1.42033E-04
 -1       611 1.02751E-02 1.93617E-10-1.82095E-04
 -1       612 3.79024E-04-3.36430E-05-8.94350E-05
 -1       613 9.14068E-04-2.82674E-05-1.40714E-04
 -1       614 1.47905E-03-2.16416E-05-1.53450E-04
 -1       615 2.03764E-03-2.05464E-05-1.52499E-04
 -1       616 2.58830E-03-2.07301E-05-1.50160E-04
 -1       617 3.13556E-03-2.09453E-05-1.49021E-04
 -1       618 3.68266E-03-2.11472E-05-1.48727E-04
 -1       619 4.23086E-03-2.13136E-05-1.48781E-04
 -1       620 4.78049E-03-2.14600E-05-1.48932E-04
 -1       621 5.33155E-03-2.15978E-05-1.49096E-04
 -1       622 5.88403E-03-2.17338E-05-1.49264E-04
 -1       623 6.43795E-03-2.18738E-05-1.49440E-04
 -1       624 6.99337E-03-2.20293E-05-1.49594E-04
 -1       625 7.55025E-03-2.22176E-05-1.49556E-04
 -1       626 8.10790E-03-2.24503E-05-1.48875E-04
 -1       627 8.66389E-03-2.27483E-05-1.46567E-04
 -1       628 9.21238E-03-2.34163E-05-1.42568E-04
 -1       629 9.74682E-03-1.89179E-05-1.42473E-04
 -1       630 1.02805E-02 1.15250E-06-1.83291E-04
 -1       631 3.82075E-04-6.81251E-05-9.15805E-05
 -1       632 9.14002E-04-5.38196E-05-1.43072E-04
 -1       633 1.47711E-03-4.16389E-05-1.55440E-04
 -1       634 2.03753E-03-3.98287E-05-1.54126E-04
 -1       635 2.58843E-03-4.00017E-05-1.51632E-04
 -1       636 3.13568E-03-4.04653E-05-1.50451E-04
 -1       637 3.68275E-03-4.08666E-05-1.50155E-04
 -1       638 4.23094E-03-4.12011E-05-1.50214E-04
 -1       639 4.78055E-03-4.14933E-05-1.50369E-04
 -1       640 5.33161E-03-4.17687E-05-1.50534E-04
 -1       641 5.88409E-03-4.20405E-05-1.50703E-04
 -1       642 6.43802E-03-4.23198E-05-1.50882E-04
 -1       643 6.99345E-03-4.26315E-05-1.51041E-04
 -1       644 7.55036E-03-4.30078E-05-1.51012E-04
 -1       645 8.10807E-03-4.34937E-05-1.50317E-04
 -1       646 8.66419E-03-4.41049E-05-1.47932E-04
 -1       647 9.21128E-03-4.46567E-05-1.43625E-04
 -1       648 9.74139E-03-3.84953E-05-1.42662E-04
 -1       649 1.02930E-02 3.62350E-07-1.85874E-04
 -1       650 3.89527E-04 6.92927E-05-1.84162E-04
 -1       651 9.27265E-04 5.50506E-05-2.80442E-04
 -1       652 1.48705E-03 4.38195E-05-3.02144E-04
 -1       653 2.04231E-03 4.27723E-05-2.99316E-04
 -1       654 2.59082E-03 4.32553E-05-2.94861E-04
 -1       655 3.13749E-03 4.37810E-05-2.92778E-04
 -1       656 3.68451E-03 4.41772E-05-2.92274E-04
 -1       657 4.23275E-03 4.45003E-05-2.92411E-04
 -1       658 4.78241E-03 4.47854E-05-2.92719E-04
 -1       659 5.33349E-03 4.50578E-05-2.93045E-04
 -1       660 5.88596E-03 4.53274E-05-2.93377E-04
 -1       661 6.43985E-03 4.56018E-05-2.93728E-04
 -1       662 6.99521E-03 4.59006E-05-2.94044E-04
 -1       663 7.55202E-03 4.62615E-05-2.94022E-04
 -1       664 8.10983E-03 4.67284E-05-2.92785E-04
 -1       665 8.66717E-03 4.75308E-05-2.88667E-04
 -1       666 9.21889E-03 4.86590E-05-2.80318E-04
 -1       667 9.75870E-03 4.36930E-05-2.80022E-04
 -1       668 1.02948E-02 6.75191E-06-3.43247E-04
 -1       669 3.86887E-04 3.47547E-05-1.78699E-04
 -1       670 9.27329E-04 2.94419E-05-2.74176E-04
 -1       671 1.48879E-03 2.33131E-05-2.96615E-04
 -1       672 2.04229E-03 2.26150E-05-2.94481E-04
 -1       673 2.59065E-03 2.29534E-05-2.90318E-04
 -1       674 3.13736E-03 2.31976E-05-2.88310E-04
 -1       675 3.68442E-03 2.33968E-05-2.87808E-04
 -1       676 4.23268E-03 2.35572E-05-2.87937E-04
 -1       677 4.78234E-03 2.37000E-05-2.88238E-04
 -1       678 5.33342E-03 2.38362E-05-2.88562E-04
 -1       679 5.88590E-03 2.39712E-05-2.88892E-04
 -1       680 6.43979E-03 2.41085E-05-2.89238E-04
 -1       681 6.99513E-03 2.42581E-05-2.89543E-04
 -1       682 7.55192E-03 2.44365E-05-2.89508E-04
 -1       683 8.10963E-03 2.46641E-05-2.88282E-04
 -1       684 8.66682E-03 2.50452E-05-2.84329E-04
 -1       685 9.21973E-03 2.60116E-05-2.76542E-04
 -1       686 9.76370E-03 2.21555E-05-2.77748E-04
 -1       687 1.02836E-02 2.99563E-06-3.38253E-04
 -1       688 3.86401E-04 6.02137E-12-1.76250E-04
 -1       689 9.27074E-04 1.86296E-11-2.71338E-04
 -1       690 1.48928E-03 3.52946E-11-2.93998E-04
 -1       691 2.04237E-03 5.49576E-11-2.92085E-04
 -1       692 2.59057E-03 7.62824E-11-2.88020E-04
 -1       693 3.13732E-03 9.79774E-11-2.86038E-04
 -1       694 3.68439E-03 1.18954E-10-2.85537E-04
 -1       695 4.23265E-03 1.38317E-10-2.85664E-04
 -1       696 4.78232E-03 1.55365E-10-2.85963E-04
 -1       697 5.33340E-03 1.69599E-10-2.86286E-04
 -1       698 5.88587E-03 1.80729E-10-2.86615E-04
 -1       699 6.43976E-03 1.88666E-10-2.86960E-04
 -1       700 6.99511E-03 1.93544E-10-2.87262E-04
 -1       701 7.55188E-03 1.95931E-10-2.87222E-04
 -1       702 8.10957E-03 1.96772E-10-2.86002E-04
 -1       703 8.66664E-03 1.96631E-10-2.82102E-04
 -1       704 9.22038E-03 1.95860E-10-2.74525E-04
 -1       705 9.76467E-03 1.94779E-10-2.76132E-04
 -1       706 1.02789E-02 1.93732E-10-3.35705E-04
 -1       707 3.86887E-04-3.47547E-05-1.78699E-04
 -1       708 9.27329E-04-2.94418E-05-2.74176E-04
 -1       709 1.48879E-03-2.33130E-05-2.96615E-04
 -1       710 2.04229E-03-2.26149E-05-2.94481E-04
 -1       711 2.59065E-03-2.29532E-05-2.90318E-04
 -1       712 3.13736E-03-2.31974E-05-2.88310E-04
 -1       713 3.68442E-03-2.33966E-05-2.87808E-04
 -1       714 4.23268E-03-2.35569E-05-2.87937E-04
 -1       715 4.78234E-03-2.36996E-05-2.88238E-04
 -1       716 5.33342E-03-2.38359E-05-2.88562E-04
 -1       717 5.88590E-03-2.39708E-05-2.88892E-04
 -1       718 6.43979E-03-2.41082E-05-2.89238E-04
 -1       719 6.99513E-03-2.42578E-05-2.89543E-04
 -1       720 7.55192E-03-2.44361E-05-2.89508E-04
 -1       721 8.10963E-03-2.46637E-05-2.88282E-04
 -1       722 8.66682E-03-2.50448E-05-2.84329E-04
 -1       723 9.21973E-03-2.60112E-05-2.76542E-04
 -1       724 9.76370E-03-2.21551E-05-2.77748E-04
 -1       725 1.02836E-02-2.99525E-06-3.38253E-04
 -1       726 3.89527E-04-6.92927E-05-1.84162E-04
 -1       727 9.27265E-04-5.50506E-05-2.80442E-04
 -1       728 1.48705E-03-4.38194E-05-3.02144E-04
 -1       729 2.04231E-03-4.27722E-05-2.99316E-04
 -1       730 2.59082E-03-4.32552E-05-2.94861E-04
 -1       731 3.13749E-03-4.37808E-05-2.92778E-04
 -1       732 3.68451E-03-4.41769E-05-2.92274E-04
 -1       733 4.23275E-03-4.45000E-05-2.92411E-04
 -1       734 4.78241E-03-4.47851E-05-2.92719E-04
 -1       735 5.33349E-03-4.50574E-05-2.93045E-04
 -1       736 5.88596E-03-4.53271E-05-2.93377E-04
 -1       737 6.43985E-03-4.56015E-05-2.93728E-04
 -1       738 6.99521E-03-4.59002E-05-2.94044E-04
 -1       739 7.55202E-03-4.62611E-05-2.94022E-04
 -1       740 8.10983E-03-4.67280E-05-2.92785E-04
 -1       741 8.66717E-03-4.75304E-05-2.88667E-04
 -1       742 9.21889E-03-4.86586E-05-2.80318E-04
 -1       743 9.75870E-03-4.36926E-05-2.80022E-04
 -1       744 1.02948E-02-6.75152E-06-3.43247E-04
 -1       745 4.03067E-04 7.08027E-05-2.85091E-04
 -1       746 9.48972E-04 5.63348E-05-4.21697E-04
 -1       747 1.50078E-03 4.68777E-05-4.48572E-04
 -1       748 2.04763E-03 4.71509E-05-4.44258E-04
 -1       749 2.59295E-03 4.80946E-05-4.38552E-04
 -1       750 3.13886E-03 4.87016E-05-4.35863E-04
 -1       751 3.68584E-03 4.90898E-05-4.35249E-04
 -1       752 4.23418E-03 4.93947E-05-4.35485E-04
 -1       753 4.78390E-03 4.96699E-05-4.35941E-04
 -1       754 5.33500E-03 4.99387E-05-4.36423E-04
 -1       755 5.88747E-03 5.02061E-05-4.36911E-04
 -1       756 6.44132E-03 5.04735E-05-4.37424E-04
 -1       757 6.99656E-03 5.07537E-05-4.37893E-04
 -1       758 7.55320E-03 5.10845E-05-4.37913E-04
 -1       759 8.11113E-03 5.15371E-05-4.36330E-04
 -1       760 8.66986E-03 5.25356E-05-4.31008E-04
 -1       761 9.22888E-03 5.46506E-05-4.20404E-04
 -1       762 9.78112E-03 5.19110E-05-4.17093E-04
 -1       763 1.03145E-02 1.68481E-05-4.90440E-04
 -1       764 4.01345E-04 3.62705E-05-2.73062E-04
 -1       765 9.49052E-04 3.07985E-05-4.08043E-04
 -1       766 1.50217E-03 2.55890E-05-4.36105E-04
 -1       767 2.04742E-03 2.55838E-05-4.32795E-04
 -1       768 2.59273E-03 2.61451E-05-4.27493E-04
 -1       769 3.13873E-03 2.64308E-05-4.24902E-04
 -1       770 3.68576E-03 2.66250E-05-4.24288E-04
 -1       771 4.23411E-03 2.67760E-05-4.24512E-04
 -1       772 4.78384E-03 2.69137E-05-4.24960E-04
 -1       773 5.33494E-03 2.70482E-05-4.25438E-04
 -1       774 5.88741E-03 2.71820E-05-4.25923E-04
 -1       775 6.44125E-03 2.73158E-05-4.26430E-04
 -1       776 6.99649E-03 2.74561E-05-4.26884E-04
 -1       777 7.55310E-03 2.76180E-05-4.26883E-04
 -1       778 8.11091E-03 2.78409E-05-4.25308E-04
 -1       779 8.66942E-03 2.83097E-05-4.20208E-04
 -1       780 9.22925E-03 2.97660E-05-4.10404E-04
 -1       781 9.78580E-03 2.71898E-05-4.09146E-04
 -1       782 1.03053E-02 8.58302E-06-4.80618E-04
 -1       783 4.01195E-04 5.75251E-12-2.68066E-04
 -1       784 9.48829E-04 1.82477E-11-4.02293E-04
 -1       785 1.50256E-03 3.49917E-11-4.30716E-04
 -1       786 2.04744E-03 5.47182E-11-4.27714E-04
 -1       787 2.59263E-03 7.60931E-11-4.22553E-04
 -1       788 3.13868E-03 9.78387E-11-4.19996E-04
 -1       789 3.68573E-03 1.18861E-10-4.19383E-04
 -1       790 4.23409E-03 1.38260E-10-4.19603E-04
 -1       791 4.78382E-03 1.55331E-10-4.20048E-04
 -1       792 5.33492E-03 1.69573E-10-4.20525E-04
 -1       793 5.88739E-03 1.80699E-10-4.21009E-04
 -1       794 6.44123E-03 1.88635E-10-4.21514E-04
 -1       795 6.99646E-03 1.93570E-10-4.21964E-04
 -1       796 7.55307E-03 1.96067E-10-4.21956E-04
 -1       797 8.11084E-03 1.96929E-10-4.20385E-04
 -1       798 8.66921E-03 1.96765E-10-4.15367E-04
 -1       799 9.22974E-03 1.95977E-10-4.05821E-04
 -1       800 9.78674E-03 1.94906E-10-4.05239E-04
 -1       801 1.03012E-02 1.93841E-10-4.75753E-04
 -1       802 4.01345E-04-3.62705E-05-2.73062E-04
 -1       803 9.49052E-04-3.07985E-05-4.08043E-04
 -1       804 1.50217E-03-2.55890E-05-4.36105E-04
 -1       805 2.04742E-03-2.55837E-05-4.32795E-04
 -1       806 2.59273E-03-2.61450E-05-4.27493E-04
 -1       807 3.13873E-03-2.64306E-05-4.24902E-04
 -1       808 3.68576E-03-2.66248E-05-4.24288E-04
 -1       809 4.23411E-03-2.67757E-05-4.24512E-04
 -1       810 4.78384E-03-2.69134E-05-4.24960E-04
 -1       811 5.33494E-03-2.70479E-05-4.25438E-04
 -1       812 5.88741E-03-2.71816E-05-4.25923E-04
 -1       813 6.44125E-03-2.73154E-05-4.26430E-04
 -1       814 6.99649E-03-2.74558E-05-4.26885E-04
 -1       815 7.55310E-03-2.76176E-05-4.26883E-04
 -1       816 8.11091E-03-2.78405E-05-4.25308E-04
 -1       817 8.66942E-03-2.83093E-05-4.20208E-04
 -1       818 9.22925E-03-2.97656E-05-4.10404E-04
 -1       819 9.78580E-03-2.71894E-05-4.09146E-04
 -1       820 1.03053E-02-8.58263E-06-4.80618E-04
 -1       821 4.03067E-04-7.08027E-05-2.85091E-04
 -1       822 9.48972E-04-5.63348E-05-4.21697E-04
 -1       823 1.50078E-03-4.68777E-05-4.48572E-04
 -1       824 2.04763E-03-4.71508E-05-4.44258E-04
 -1       825 2.59295E-03-4.80944E-05-4.38552E-04
 -1       826 3.13886E-03-4.87014E-05-4.35863E-04
 -1       827 3.68584E-03-4.90896E-05-4.35249E-04
 -1       828 4.23418E-03-4.93944E-05-4.35485E-04
 -1       829 4.78390E-03-4.96696E-05-4.35941E-04
 -1       830 5.33500E-03-4.99384E-05-4.36423E-04
 -1       831 5.88747E-03-5.02057E-05-4.36911E-04
 -1       832 6.44132E-03-5.04731E-05-4.37424E-04
 -1       833 6.99656E-03-5.07533E-05-4.37893E-04
 -1       834 7.55320E-03-5.10841E-05-4.37913E-04
 -1       835 8.11113E-03-5.15367E-05-4.36330E-04
 -1       836 8.66986E-03-5.25352E-05-4.31008E-04
 -1       837 9.22888E-03-5.46502E-05-4.20404E-04
 -1       838 9.78112E-03-5.19107E-05-4.17093E-04
 -1       839 1.03145E-02-1.68478E-05-4.90440E-04
 -1       840 4.28276E-04 7.03197E-05-3.99303E-04
 -1       841 9.81043E-04 5.44069E-05-5.66519E-04
 -1       842 1.51563E-03 4.79661E-05-5.93324E-04
 -1       843 2.05221E-03 5.01143E-05-5.88540E-04
 -1       844 2.59455E-03 5.15670E-05-5.82409E-04
 -1       845 3.13972E-03 5.22687E-05-5.79440E-04
 -1       846 3.68677E-03 5.26389E-05-5.78846E-04
 -1       847 4.23525E-03 5.29183E-05-5.79194E-04
 -1       848 4.78504E-03 5.31810E-05-5.79794E-04
 -1       849 5.33617E-03 5.34458E-05-5.80423E-04
 -1       850 5.88864E-03 5.37108E-05-5.81059E-04
 -1       851 6.44243E-03 5.39699E-05-5.81722E-04
 -1       852 6.99753E-03 5.42259E-05-5.82333E-04
 -1       853 7.55392E-03 5.45117E-05-5.82443E-04
 -1       854 8.11184E-03 5.49497E-05-5.80722E-04
 -1       855 8.67190E-03 5.61057E-05-5.74850E-04
 -1       856 9.23729E-03 5.94084E-05-5.63926E-04
 -1       857 9.80864E-03 6.05661E-05-5.56116E-04
 -1       858 1.03617E-02 2.65178E-05-6.28611E-04
 -1       859 4.28200E-04 3.57515E-05-3.75916E-04
 -1       860 9.81025E-04 2.93467E-05-5.40669E-04
 -1       861 1.51660E-03 2.57556E-05-5.69279E-04
 -1       862 2.05180E-03 2.66828E-05-5.65710E-04
 -1       863 2.59426E-03 2.75086E-05-5.60084E-04
 -1       864 3.13957E-03 2.78411E-05-5.57215E-04
 -1       865 3.68669E-03 2.80258E-05-5.56617E-04
 -1       866 4.23518E-03 2.81639E-05-5.56948E-04
 -1       867 4.78498E-03 2.82952E-05-5.57538E-04
 -1       868 5.33611E-03 2.84276E-05-5.58163E-04
 -1       869 5.88857E-03 2.85602E-05-5.58796E-04
 -1       870 6.44237E-03 2.86897E-05-5.59452E-04
 -1       871 6.99746E-03 2.88179E-05-5.60044E-04
 -1       872 7.55383E-03 2.89561E-05-5.60128E-04
 -1       873 8.11160E-03 2.91736E-05-5.58395E-04
 -1       874 8.67135E-03 2.97113E-05-5.52802E-04
 -1       875 9.23715E-03 3.17949E-05-5.42758E-04
 -1       876 9.81307E-03 3.12717E-05-5.37808E-04
 -1       877 1.03537E-02 1.25461E-05-6.10005E-04
 -1       878 4.28349E-04 5.40544E-12-3.67871E-04
 -1       879 9.80858E-04 1.77456E-11-5.31493E-04
 -1       880 1.51688E-03 3.45789E-11-5.60575E-04
 -1       881 2.05176E-03 5.44176E-11-5.57406E-04
 -1       882 2.59414E-03 7.58901E-11-5.51946E-04
 -1       883 3.13953E-03 9.77252E-11-5.49117E-04
 -1       884 3.68666E-03 1.18826E-10-5.48519E-04
 -1       885 4.23516E-03 1.38285E-10-5.48845E-04
 -1       886 4.78496E-03 1.55397E-10-5.49431E-04
 -1       887 5.33608E-03 1.69659E-10-5.50054E-04
 -1       888 5.88855E-03 1.80786E-10-5.50686E-04
 -1       889 6.44234E-03 1.88723E-10-5.51340E-04
 -1       890 6.99744E-03 1.93693E-10-5.51927E-04
 -1       891 7.55380E-03 1.96248E-10-5.52000E-04
 -1       892 8.11153E-03 1.97116E-10-5.50270E-04
 -1       893 8.67109E-03 1.96921E-10-5.44774E-04
 -1       894 9.23749E-03 1.96108E-10-5.35026E-04
 -1       895 9.81415E-03 1.95028E-10-5.31048E-04
 -1       896 1.03496E-02 1.93942E-10-6.02402E-04
 -1       897 4.28200E-04-3.57515E-05-3.75916E-04
 -1       898 9.81025E-04-2.93467E-05-5.40669E-04
 -1       899 1.51660E-03-2.57555E-05-5.69279E-04
 -1       900 2.05180E-03-2.66827E-05-5.65710E-04
 -1       901 2.59426E-03-2.75085E-05-5.60084E-04
 -1       902 3.13957E-03-2.78409E-05-5.57215E-04
 -1       903 3.68669E-03-2.80256E-05-5.56617E-04
 -1       904 4.23518E-03-2.81636E-05-5.56948E-04
 -1       905 4.78498E-03-2.82949E-05-5.57538E-04
 -1       906 5.33611E-03-2.84272E-05-5.58163E-04
 -1       907 5.88857E-03-2.85598E-05-5.58796E-04
 -1       908 6.44237E-03-2.86893E-05-5.59452E-04
 -1       909 6.99746E-03-2.88175E-05-5.60044E-04
 -1       910 7.55383E-03-2.89557E-05-5.60128E-04
 -1       911 8.11160E-03-2.91732E-05-5.58395E-04
 -1       912 8.67135E-03-2.97109E-05-5.52802E-04
 -1       913 9.23715E-03-3.17945E-05-5.42758E-04
 -1       914 9.81307E-03-3.12713E-05-5.37808E-04
 -1       915 1.03537E-02-1.25457E-05-6.10005E-04
 -1       916 4.28276E-04-7.03197E-05-3.99303E-04
 -1       917 9.81043E-04-5.44069E-05-5.66519E-04
 -1       918 1.51563E-03-4.79661E-05-5.93324E-04
 -1       919 2.05221E-03-5.01142E-05-5.88540E-04
 -1       920 2.59455E-03-5.15668E-05-5.82409E-04
 -1       921 3.13972E-03-5.22685E-05-5.79440E-04
 -1       922 3.68677E-03-5.26387E-05-5.78846E-04
 -1       923 4.23525E-03-5.29180E-05-5.79194E-04
 -1       924 4.78504E-03-5.31807E-05-5.79794E-04
 -1       925 5.33617E-03-5.34454E-05-5.80423E-04
 -1       926 5.88863E-03-5.37104E-05-5.81059E-04
 -1       927 6.44243E-03-5.39695E-05-5.81722E-04
 -1       928 6.99753E-03-5.42255E-05-5.82333E-04
 -1       929 7.55392E-03-5.45113E-05-5.82443E-04
 -1       930 8.11184E-03-5.49493E-05-5.80722E-04
 -1       931 8.67190E-03-5.61053E-05-5.74850E-04
 -1       932 9.23729E-03-5.94080E-05-5.63926E-04
 -1       933 9.80864E-03-6.05657E-05-5.56116E-04
 -1       934 1.03617E-02-2.65174E-05-6.28611E-04
 -1       935 4.81636E-04 5.78612E-05-5.29166E-04
 -1       936 1.02252E-03 3.77328E-05-7.07041E-04
 -1       937 1.52612E-03 3.66273E-05-7.31063E-04
 -1       938 2.05548E-03 4.06931E-05-7.28214E-04
 -1       939 2.59508E-03 4.27383E-05-7.22028E-04
 -1       940 3.14005E-03 4.35250E-05-7.19215E-04
 -1       941 3.68733E-03 4.38652E-05-7.18712E-04
 -1       942 4.23597E-03 4.41121E-05-7.19185E-04
 -1       943 4.78584E-03 4.43603E-05-7.19919E-04
 -1       944 5.33699E-03 4.46206E-05-7.20686E-04
 -1       945 5.88945E-03 4.48831E-05-7.21463E-04
 -1       946 6.44320E-03 4.51333E-05-7.22264E-04
 -1       947 6.99816E-03 4.53601E-05-7.23006E-04
 -1       948 7.55426E-03 4.55909E-05-7.23212E-04
 -1       949 8.11179E-03 4.59819E-05-7.21603E-04
 -1       950 8.67281E-03 4.73666E-05-7.15643E-04
 -1       951 9.24148E-03 5.14882E-05-7.05791E-04
 -1       952 9.83261E-03 5.94003E-05-6.97524E-04
 -1       953 1.04422E-02 2.27843E-05-7.56656E-04
 -1       954 4.81745E-04 2.41036E-05-4.93950E-04
 -1       955 1.02250E-03 1.64845E-05-6.69034E-04
 -1       956 1.52688E-03 1.50726E-05-6.95335E-04
 -1       957 2.05494E-03 1.70990E-05-6.93899E-04
 -1       958 2.59475E-03 1.82128E-05-6.88263E-04
 -1       959 3.13991E-03 1.85953E-05-6.85540E-04
 -1       960 3.68725E-03 1.87649E-05-6.85024E-04
 -1       961 4.23590E-03 1.88871E-05-6.85477E-04
 -1       962 4.78578E-03 1.90107E-05-6.86199E-04
 -1       963 5.33692E-03 1.91407E-05-6.86962E-04
 -1       964 5.88939E-03 1.92719E-05-6.87736E-04
 -1       965 6.44314E-03 1.93967E-05-6.88529E-04
 -1       966 6.99810E-03 1.95102E-05-6.89249E-04
 -1       967 7.55417E-03 1.96198E-05-6.89426E-04
 -1       968 8.11155E-03 1.98232E-05-6.87771E-04
 -1       969 8.67215E-03 2.04389E-05-6.82126E-04
 -1       970 9.24098E-03 2.31312E-05-6.73145E-04
 -1       971 9.83768E-03 2.56845E-05-6.68550E-04
 -1       972 1.04330E-02 5.74242E-06-7.29626E-04
 -1       973 4.81534E-04 4.90437E-12-4.87331E-04
 -1       974 1.02235E-03 1.71068E-11-6.60005E-04
 -1       975 1.52723E-03 3.40649E-11-6.87144E-04
 -1       976 2.05486E-03 5.40629E-11-6.86109E-04
 -1       977 2.59463E-03 7.56823E-11-6.80672E-04
 -1       978 3.13986E-03 9.76482E-11-6.77984E-04
 -1       979 3.68722E-03 1.18860E-10-6.77465E-04
 -1       980 4.23588E-03 1.38407E-10-6.77912E-04
 -1       981 4.78575E-03 1.55579E-10-6.78630E-04
 -1       982 5.33690E-03 1.69873E-10-6.79392E-04
 -1       983 5.88937E-03 1.81006E-10-6.80164E-04
 -1       984 6.44312E-03 1.88938E-10-6.80955E-04
 -1       985 6.99808E-03 1.93916E-10-6.81669E-04
 -1       986 7.55413E-03 1.96484E-10-6.81835E-04
 -1       987 8.11149E-03 1.97334E-10-6.80174E-04
 -1       988 8.67181E-03 1.97096E-10-6.74636E-04
 -1       989 9.24134E-03 1.96246E-10-6.65945E-04
 -1       990 9.83916E-03 1.95141E-10-6.62795E-04
 -1       991 1.04275E-02 1.94032E-10-7.21963E-04
 -1       992 4.81745E-04-2.41036E-05-4.93950E-04
 -1       993 1.02250E-03-1.64844E-05-6.69034E-04
 -1       994 1.52688E-03-1.50726E-05-6.95335E-04
 -1       995 2.05494E-03-1.70989E-05-6.93899E-04
 -1       996 2.59475E-03-1.82127E-05-6.88263E-04
 -1       997 3.13991E-03-1.85951E-05-6.85540E-04
 -1       998 3.68725E-03-1.87647E-05-6.85024E-04
 -1       999 4.23590E-03-1.88868E-05-6.85477E-04
 -1      1000 4.78578E-03-1.90104E-05-6.86199E-04
 -1      1001 5.33692E-03-1.91404E-05-6.86962E-04
 -1      1002 5.88939E-03-1.92716E-05-6.87736E-04
 -1      1003 6.44314E-03-1.93963E-05-6.88529E-04
 -1      1004 6.99810E-03-1.95098E-05-6.89249E-04
 -1      1005 7.55417E-03-1.96194E-05-6.89426E-04
 -1      1006 8.11155E-03-1.98228E-05-6.87771E-04
 -1      1007 8.67215E-03-2.04385E-05-6.82126E-04
 -1      1008 9.24098E-03-2.31308E-05-6.73145E-04
 -1      1009 9.83768E-03-2.56841E-05-6.68550E-04
 -1      1010 1.04330E-02-5.74203E-06-7.29626E-04
 -1      1011 4.81636E-04-5.78612E-05-5.29166E-04
 -1      1012 1.02252E-03-3.77328E-05-7.07041E-04
 -1      1013 1.52612E-03-3.66273E-05-7.31063E-04
 -1      1014 2.05548E-03-4.06930E-05-7.28214E-04
 -1      1015 2.59508E-03-4.27381E-05-7.22028E-04
 -1      1016 3.14005E-03-4.35248E-05-7.19215E-04
 -1      1017 3.68733E-03-4.38650E-05-7.18712E-04
 -1      1018 4.23597E-03-4.41118E-05-7.19185E-04
 -1      1019 4.78584E-03-4.43599E-05-7.19919E-04
 -1      1020 5.33699E-03-4.46203E-05-7.20686E-04
 -1      1021 5.88945E-03-4.48828E-05-7.21463E-04
 -1      1022 6.44320E-03-4.51329E-05-7.22264E-04
 -1      1023 6.99816E-03-4.53597E-05-7.23006E-04
 -1      1024 7.55426E-03-4.55905E-05-7.23212E-04
 -1      1025 8.11179E-03-4.59815E-05-7.21603E-04
 -1      1026 8.67281E-03-4.73662E-05-7.15643E-04
 -1      1027 9.24148E-03-5.14878E-05-7.05791E-04
 -1      1028 9.83261E-03-5.93999E-05-6.97524E-04
 -1      1029 1.04422E-02-2.27839E-05-7.56656E-04
 -1      1030 0.00000E+00 0.00000E+00 0.00000E+00
 -1      1031 0.00000E+00 0.00000E+00 0.00000E+00
 -1      1032 0.00000E+00 0.00000E+00 0.00000E+00
 -1      1033 0.00000E+00 0.00000E+00 0.00000E+00
 -1      1034 0.00000E+00 0.00000E+00 0.00000E+00
 -1      1035 0.00000E+00 0.00000E+00 0.00000E+00
 -1      1036 0.00000E+00 0.00000E+00 0.00000E+00
 -1      1037 0.00000E+00 0.00000E+00 0.00000E+00
 -1      1038 0.00000E+00 0.00000E+00 0.00000E+00
 -1      1039 0.00000E+00 0.00000E+00 0.00000E+00
 -1      1040 0.00000E+00 0.00000E+00 0.00000E+00
 -1      1041 0.00000E+00 0.00000E+00 0.00000E+00
 -1      1042 0.00000E+00 0.00000E+00 0.00000E+00
 -1      1043 0.00000E+00 0.00000E+00 0.00000E+00
 -1      1044 0.00000E+00 0.00000E+00 0.00000E+00
 -1      1045 0.00000E+00 0.00000E+00 0.00000E+00
 -1      1046 0.00000E+00 0.00000E+00 0.00000E+00
 -1      1047 0.00000E+00 0.00000E+00 0.00000E+00
 -1      1048 0.00000E+00 0.00000E+00 0.00000E+00
 -1      1049 0.00000E+00 0.00000E+00 0.00000E+00
 -1      1050 0.00000E+00 0.00000E+00 0.00000E+00
 -1      1051 0.00000E+00 0.00000E+00 0.00000E+00
 -1      1052 0.00000E+00 0.00000E+00 0.00000E+00
 -1      1053 0.00000E+00 0.00000E+00 0.00000E+00
 -1      1054 0.00000E+00 0.00000E+00 0.00000E+00
 -1      1055 0.00000E+00 0.00000E+00 0.00000E+00
 -1      1056-2.16909E-08-1.73888E-08-1.57207E-08
 -1      1057 3.67368E-09-8.25619E-10-1.79313E-09
 -1      1058-2.13506E-08-1.42199E-08-1.11842E-08
 -1      1059 3.66539E-09-2.26438E-10-1.73344E-09
 -1      1060-2.33204E-08-1.32964E-08-1.26162E-08
 -1      1061 3.47863E-09 5.69321E-11-1.69216E-09
 -1      1062-2.64192E-08-1.17333E-08-1.47916E-08
 -1      1063 3.25831E-09 1.60577E-10-1.61998E-09
 -1      1064-2.95666E-08-8.84543E-09-1.69402E-08
 -1      1065 3.06308E-09 1.58981E-10-1.55465E-09
 -1      1066-3.18460E-08-4.76391E-09-1.84501E-08
 -1      1067 2.93100E-09 9.45144E-11-1.50877E-09
 -1      1068-3.26719E-08 3.78732E-16-1.89902E-08
 -1      1069 2.88450E-09-2.78525E-18-1.49234E-09
 -1      1070-3.18460E-08 4.76391E-09-1.84501E-08
 -1      1071 2.93100E-09-9.45144E-11-1.50877E-09
 -1      1072-2.95666E-08 8.84543E-09-1.69402E-08
 -1      1073 3.06308E-09-1.58981E-10-1.55465E-09
 -1      1074-2.64192E-08 1.17333E-08-1.47916E-08
 -1      1075 3.25831E-09-1.60577E-10-1.61998E-09
 -1      1076-2.33204E-08 1.32964E-08-1.26162E-08
 -1      1077 3.47863E-09-5.69321E-11-1.69216E-09
 -1      1078-2.13506E-08 1.42199E-08-1.11842E-08
 -1      1079 3.66539E-09 2.26438E-10-1.73344E-09
 -1      1080-2.16909E-08 1.73888E-08-1.57207E-08
 -1      1081 3.67368E-09 8.25619E-10-1.79313E-09
 -1      1082-3.37935E-08-2.33316E-08-1.89886E-08
 -1      1083 7.18064E-09-3.27363E-10-2.48424E-09
 -1      1084-3.36579E-08-2.30295E-08-1.78644E-08
 -1      1085 6.98047E-09-3.01219E-11-2.65650E-09
 -1      1086-3.67550E-08-2.14125E-08-2.05133E-08
 -1      1087 6.63131E-09 2.15624E-10-2.56022E-09
 -1      1088-4.16059E-08-1.85869E-08-2.49538E-08
 -1      1089 6.24602E-09 3.11798E-10-2.44634E-09
 -1      1090-4.64918E-08-1.38633E-08-2.92163E-08
 -1      1091 5.90712E-09 2.81398E-10-2.34091E-09
 -1      1092-5.00108E-08-7.42083E-09-3.21997E-08
 -1      1093 5.67785E-09 1.63174E-10-2.26725E-09
 -1      1094-5.12801E-08 5.38664E-16-3.32590E-08
 -1      1095 5.59704E-09-4.67485E-18-2.24061E-09
 -1      1096-5.00108E-08 7.42083E-09-3.21997E-08
 -1      1097 5.67785E-09-1.63174E-10-2.26725E-09
 -1      1098-4.64918E-08 1.38633E-08-2.92163E-08
 -1      1099 5.90712E-09-2.81398E-10-2.34091E-09
 -1      1100-4.16059E-08 1.85869E-08-2.49538E-08
 -1      1101 6.24602E-09-3.11798E-10-2.44634E-09
 -1      1102-3.67550E-08 2.14125E-08-2.05133E-08
 -1      1103 6.63131E-09-2.15624E-10-2.56022E-09
 -1      1104-3.36579E-08 2.30295E-08-1.78644E-08
 -1      1105 6.98047E-09 3.01219E-11-2.65650E-09
 -1      1106-3.37935E-08 2.33316E-08-1.89886E-08
 -1      1107 7.18064E-09 3.27363E-10-2.48424E-09
 -1      1108-3.91690E-08-2.34591E-08-1.59936E-08
 -1      1109 1.03396E-08 2.24345E-10-2.59990E-09
 -1      1110-3.87443E-08-2.42529E-08-1.95298E-08
 -1      1111 9.94957E-09 3.80314E-10-2.85499E-09
 -1      1112-4.24274E-08-2.32909E-08-2.48663E-08
 -1      1113 9.48104E-09 4.81738E-10-2.82944E-09
 -1      1114-4.81533E-08-2.02700E-08-3.14062E-08
 -1      1115 9.00326E-09 5.01644E-10-2.72669E-09
 -1      1116-5.39129E-08-1.50616E-08-3.75481E-08
 -1      1117 8.59223E-09 4.11741E-10-2.62089E-09
 -1      1118-5.79834E-08-8.02001E-09-4.17495E-08
 -1      1119 8.31385E-09 2.30956E-10-2.54139E-09
 -1      1120-5.94258E-08 6.02976E-16-4.32187E-08
 -1      1121 8.21456E-09-5.99372E-18-2.51192E-09
 -1      1122-5.79834E-08 8.02001E-09-4.17495E-08
 -1      1123 8.31385E-09-2.30956E-10-2.54139E-09
 -1      1124-5.39129E-08 1.50616E-08-3.75481E-08
 -1      1125 8.59223E-09-4.11741E-10-2.62089E-09
 -1      1126-4.81533E-08 2.02700E-08-3.14062E-08
 -1      1127 9.00326E-09-5.01644E-10-2.72669E-09
 -1      1128-4.24274E-08 2.32909E-08-2.48663E-08
 -1      1129 9.48104E-09-4.81738E-10-2.82944E-09
 -1      1130-3.87443E-08 2.42529E-08-1.95298E-08
 -1      1131 9.94957E-09-3.80314E-10-2.85499E-09
 -1      1132-3.91690E-08 2.34591E-08-1.59936E-08
 -1      1133 1.03396E-08-2.24345E-10-2.59990E-09
 -1      1134-3.79883E-08-1.77848E-08-1.10799E-08
 -1      1135 1.30086E-08 6.86600E-10-2.50790E-09
 -1      1136-3.74870E-08-1.89222E-08-1.86587E-08
 -1      1137 1.25284E-08 7.48033E-10-2.75690E-09
 -1      1138-4.07380E-08-1.86294E-08-2.64517E-08
 -1      1139 1.19941E-08 7.51773E-10-2.79022E-09
 -1      1140-4.61744E-08-1.64515E-08-3.48532E-08
 -1      1141 1.14848E-08 6.84890E-10-2.71628E-09
 -1      1142-5.16563E-08-1.21972E-08-4.23861E-08
 -1      1143 1.10609E-08 5.27442E-10-2.61168E-09
 -1      1144-5.52988E-08-6.42659E-09-4.73170E-08
 -1      1145 1.07709E-08 2.88960E-10-2.52602E-09
 -1      1146-5.65116E-08 5.19849E-16-4.89866E-08
 -1      1147 1.06679E-08-6.86617E-18-2.49620E-09
 -1      1148-5.52988E-08 6.42659E-09-4.73170E-08
 -1      1149 1.07709E-08-2.88960E-10-2.52602E-09
 -1      1150-5.16563E-08 1.21972E-08-4.23861E-08
 -1      1151 1.10609E-08-5.27442E-10-2.61168E-09
 -1      1152-4.61744E-08 1.64515E-08-3.48532E-08
 -1      1153 1.14848E-08-6.84890E-10-2.71628E-09
 -1      1154-4.07380E-08 1.86294E-08-2.64517E-08
 -1      1155 1.19941E-08-7.51773E-10-2.79022E-09
 -1      1156-3.74870E-08 1.89222E-08-1.86587E-08
 -1      1157 1.25284E-08-7.48033E-10-2.75690E-09
 -1      1158-3.79883E-08 1.77848E-08-1.10799E-08
 -1      1159 1.30086E-08-6.86600E-10-2.50790E-09
 -1      1160-3.21883E-08-7.79189E-09-7.49898E-09
 -1      1161 1.53183E-08 9.99362E-10-2.42021E-09
 -1      1162-3.16091E-08-8.43715E-09-1.74263E-08
 -1      1163 1.48148E-08 1.01398E-09-2.62318E-09
 -1      1164-3.25549E-08-8.49823E-09-2.66169E-08
 -1      1165 1.42145E-08 9.25436E-10-2.64801E-09
 -1      1166-3.55838E-08-7.62148E-09-3.60507E-08
 -1      1167 1.35173E-08 7.49044E-10-2.51881E-09
 -1      1168-3.87999E-08-5.54825E-09-4.42147E-08
 -1      1169 1.28995E-08 5.61831E-10-2.33646E-09
 -1      1170-4.03477E-08-2.82027E-09-4.92572E-08
 -1      1171 1.25509E-08 3.17762E-10-2.19581E-09
 -1      1172-4.08081E-08-4.90588E-17-5.08861E-08
 -1      1173 1.24247E-08-7.26336E-18-2.14796E-09
 -1      1174-4.03477E-08 2.82027E-09-4.92572E-08
 -1      1175 1.25509E-08-3.17762E-10-2.19581E-09
 -1      1176-3.87999E-08 5.54825E-09-4.42147E-08
 -1      1177 1.28995E-08-5.61831E-10-2.33646E-09
 -1      1178-3.55837E-08 7.62148E-09-3.60506E-08
 -1      1179 1.35173E-08-7.49044E-10-2.51881E-09
 -1      1180-3.25549E-08 8.49822E-09-2.66169E-08
 -1      1181 1.42145E-08-9.25436E-10-2.64801E-09
 -1      1182-3.16091E-08 8.43714E-09-1.74263E-08
 -1      1183 1.48148E-08-1.01398E-09-2.62318E-09
 -1      1184-3.21883E-08 7.79188E-09-7.49897E-09
 -1      1185 1.53183E-08-9.99362E-10-2.42021E-09
 -1      1186-2.63122E-08 3.62356E-09-6.41206E-09
 -1      1187 1.74964E-08 1.20496E-09-2.36678E-09
 -1      1188-2.46938E-08 3.35782E-09-1.70940E-08
 -1      1189 1.69618E-08 1.17495E-09-2.54234E-09
 -1      1190-2.13037E-08 3.39096E-09-2.68672E-08
 -1      1191 1.62334E-08 1.04132E-09-2.49983E-09
 -1      1192-1.78402E-08 3.31373E-09-3.66722E-08
 -1      1193 1.55714E-08 8.32499E-10-2.52350E-09
 -1      1194-1.51081E-08 2.57376E-09-4.49150E-08
 -1      1195 1.50200E-08 5.76895E-10-2.52299E-09
 -1      1196-1.35853E-08 1.33224E-09-4.99020E-08
 -1      1197 1.45811E-08 2.94803E-10-2.33212E-09
 -1      1198-1.31361E-08-2.01694E-15-5.14778E-08
 -1      1199 1.44141E-08-6.62131E-18-2.27739E-09
 -1      1200-1.35853E-08-1.33224E-09-4.99020E-08
 -1      1201 1.45811E-08-2.94803E-10-2.33212E-09
 -1      1202-1.51081E-08-2.57377E-09-4.49150E-08
 -1      1203 1.50200E-08-5.76895E-10-2.52299E-09
 -1      1204-1.78402E-08-3.31374E-09-3.66722E-08
 -1      1205 1.55714E-08-8.32499E-10-2.52350E-09
 -1      1206-2.13037E-08-3.39097E-09-2.68672E-08
 -1      1207 1.62334E-08-1.04132E-09-2.49983E-09
 -1      1208-2.46938E-08-3.35783E-09-1.70940E-08
 -1      1209 1.69618E-08-1.17495E-09-2.54234E-09
 -1      1210-2.63122E-08-3.62357E-09-6.41205E-09
 -1      1211 1.74964E-08-1.20496E-09-2.36678E-09
 -1      1212 0.00000E+00 0.00000E+00 0.00000E+00
 -1      1213 0.00000E+00 0.00000E+00 0.00000E+00
 -1      1214 0.00000E+00 0.00000E+00 0.00000E+00
 -1      1215 0.00000E+00 0.00000E+00 0.00000E+00
 -1      1216 0.00000E+00 0.00000E+00 0.00000E+00
 -1      1217 0.00000E+00 0.00000E+00 0.00000E+00
 -1      1218 0.00000E+00 0.00000E+00 0.00000E+00
 -1      1219 0.00000E+00 0.00000E+00 0.00000E+00
 -1      1220 0.00000E+00 0.00000E+00 0.00000E+00
 -1      1221 0.00000E+00 0.00000E+00 0.00000E+00
 -1      1222 0.00000E+00 0.00000E+00 0.00000E+00
 -1      1223 0.00000E+00 0.00000E+00 0.00000E+00
 -1      1224 0.00000E+00 0.00000E+00 0.00000E+00
 -1      1225 0.00000E+00 0.00000E+00 0.00000E+00
 -1      1226 0.00000E+00 0.00000E+00 0.00000E+00
 -1      1227 0.00000E+00 0.00000E+00 0.00000E+00
 -1      1228 0.00000E+00 0.00000E+00 0.00000E+00
 -1      1229 0.00000E+00 0.00000E+00 0.00000E+00
 -1      1230 0.00000E+00 0.00000E+00 0.00000E+00
 -1      1231 0.00000E+00 0.00000E+00 0.00000E+00
 -1      1232 0.00000E+00 0.00000E+00 0.00000E+00
 -1      1233 0.00000E+00 0.00000E+00 0.00000E+00
 -1      1234 0.00000E+00 0.00000E+00 0.00000E+00
 -1      1235 0.00000E+00 0.00000E+00 0.00000E+00
 -1      1236 0.00000E+00 0.00000E+00 0.00000E+00
 -1      1237 0.00000E+00 0.00000E+00 0.00000E+00
 -1      1238 0.00000E+00 0.00000E+00 0.00000E+00
 -1      1239 0.00000E+00 0.00000E+00 0.00000E+00
 -1      1240 0.00000E+00 0.00000E+00 0.00000E+00
 -1      1241 0.00000E+00 0.00000E+00 0.00000E+00
 -1      1242 0.00000E+00 0.00000E+00 0.00000E+00
 -1      1243 0.00000E+00 0.00000E+00 0.00000E+00
 -1      1244 0.00000E+00 0.00000E+00 0.00000E+00
 -1      1245 0.00000E+00 0.00000E+00 0.00000E+00
 -1      1246 0.00000E+00 0.00000E+00 0.00000E+00
 -1      1247 0.00000E+00 0.00000E+00 0.00000E+00
 -1      1248 0.00000E+00 0.00000E+00 0.00000E+00
 -1      1249 0.00000E+00 0.00000E+00 0.00000E+00
 -1      1250 0.00000E+00 0.00000E+00 0.00000E+00
 -1      1251 0.00000E+00 0.00000E+00 0.00000E+00
 -1      1252 0.00000E+00 0.00000E+00 0.00000E+00
 -1      1253 0.00000E+00 0.00000E+00 0.00000E+00
 -1      1254 0.00000E+00 0.00000E+00 0.00000E+00
 -1      1255 0.00000E+00 0.00000E+00 0.00000E+00
 -1      1256 0.00000E+00 0.00000E+00 0.00000E+00
 -1      1257 0.00000E+00 0.00000E+00 0.00000E+00
 -1      1258-1.92379E-08-2.30550E-08-1.50076E-08
 -1      1259-1.92379E-08 2.30550E-08-1.50076E-08
 -1      1260-1.78656E-08-3.85924E-08-2.59471E-08
 -1      1261-1.78656E-08 3.85924E-08-2.59471E-08
 -1      1262-1.08930E-08-4.90459E-08-3.27506E-08
 -1      1263-1.08930E-08 4.90459E-08-3.27506E-08
 -1      1264-4.75614E-09-5.34010E-08-3.54763E-08
 -1      1265-4.75614E-09 5.34010E-08-3.54763E-08
 -1      1266-1.35977E-09-5.43325E-08-3.58835E-08
 -1      1267-1.35977E-09 5.43325E-08-3.58835E-08
 -1      1268-1.23951E-11-5.42272E-08-3.57110E-08
 -1      1269-1.23950E-11 5.42272E-08-3.57110E-08
 -1      1270 4.43449E-10-5.40591E-08-3.55930E-08
 -1      1271 4.43449E-10 5.40591E-08-3.55930E-08
 -1      1272 6.45016E-10-5.40155E-08-3.55908E-08
 -1      1273 6.45016E-10 5.40155E-08-3.55908E-08
 -1      1274 7.91751E-10-5.40423E-08-3.56327E-08
 -1      1275 7.91751E-10 5.40423E-08-3.56327E-08
 -1      1276 9.17000E-10-5.40823E-08-3.56735E-08
 -1      1277 9.17000E-10 5.40823E-08-3.56735E-08
 -1      1278 1.03310E-09-5.41105E-08-3.57009E-08
 -1      1279 1.03310E-09 5.41105E-08-3.57009E-08
 -1      1280 1.17669E-09-5.41074E-08-3.57079E-08
 -1      1281 1.17669E-09 5.41074E-08-3.57079E-08
 -1      1282 1.40785E-09-5.40209E-08-3.56588E-08
 -1      1283 1.40785E-09 5.40209E-08-3.56588E-08
 -1      1284 1.73995E-09-5.37506E-08-3.54661E-08
 -1      1285 1.73995E-09 5.37506E-08-3.54661E-08
 -1      1286 1.95195E-09-5.32448E-08-3.50529E-08
 -1      1287 1.95195E-09 5.32448E-08-3.50529E-08
 -1      1288 1.52816E-09-5.28105E-08-3.46566E-08
 -1      1289 1.52816E-09 5.28105E-08-3.46566E-08
 -1      1290 6.56377E-10-5.34204E-08-3.51935E-08
 -1      1291 6.56377E-10 5.34204E-08-3.51935E-08
 -1      1292 2.55877E-09-5.56380E-08-3.72307E-08
 -1      1293 2.55877E-09 5.56380E-08-3.72307E-08
 -1      1294 1.18261E-08-5.46937E-08-3.70900E-08
 -1      1295 1.18261E-08 5.46937E-08-3.70900E-08
 -1      1296 2.23286E-08-3.95851E-08-2.65373E-08
 -1      1297 2.23286E-08 3.95851E-08-2.65373E-08
 -1      1298 2.13063E-08-1.68948E-08-1.04896E-08
 -1      1299 2.13063E-08 1.68948E-08-1.04896E-08
 -1      1300 1.21036E-08-4.55787E-09-2.08444E-09
 -1      1301 1.21036E-08 4.55787E-09-2.08444E-09
 -1      1302 5.33501E-09-7.73336E-10 1.10112E-10
 -1      1303 5.33501E-09 7.73336E-10 1.10112E-10
 -1      1304-3.32349E-08-3.53281E-08-2.07525E-08
 -1      1305-3.32349E-08 3.53281E-08-2.07525E-08
 -1      1306-2.85920E-08-5.88360E-08-3.49590E-08
 -1      1307-2.85920E-08 5.88360E-08-3.49590E-08
 -1      1308-1.78495E-08-7.52076E-08-4.43426E-08
 -1      1309-1.78495E-08 7.52076E-08-4.43426E-08
 -1      1310-8.04630E-09-8.18418E-08-4.74595E-08
 -1      1311-8.04630E-09 8.18418E-08-4.74595E-08
 -1      1312-2.48944E-09-8.33187E-08-4.74905E-08
 -1      1313-2.48944E-09 8.33187E-08-4.74905E-08
 -1      1314-1.07752E-10-8.31922E-08-4.69897E-08
 -1      1315-1.07752E-10 8.31922E-08-4.69897E-08
 -1      1316 8.17138E-10-8.29608E-08-4.67694E-08
 -1      1317 8.17138E-10 8.29608E-08-4.67694E-08
 -1      1318 1.26741E-09-8.29066E-08-4.67784E-08
 -1      1319 1.26741E-09 8.29066E-08-4.67784E-08
 -1      1320 1.57617E-09-8.29537E-08-4.68535E-08
 -1      1321 1.57617E-09 8.29537E-08-4.68535E-08
 -1      1322 1.82095E-09-8.30176E-08-4.69188E-08
 -1      1323 1.82095E-09 8.30176E-08-4.69188E-08
 -1      1324 2.03738E-09-8.30617E-08-4.69641E-08
 -1      1325 2.03738E-09 8.30617E-08-4.69641E-08
 -1      1326 2.28964E-09-8.30565E-08-4.69887E-08
 -1      1327 2.28964E-09 8.30565E-08-4.69887E-08
 -1      1328 2.67165E-09-8.29243E-08-4.69456E-08
 -1      1329 2.67165E-09 8.29243E-08-4.69456E-08
 -1      1330 3.20904E-09-8.25148E-08-4.66840E-08
 -1      1331 3.20904E-09 8.25148E-08-4.66840E-08
 -1      1332 3.59716E-09-8.17446E-08-4.60212E-08
 -1      1333 3.59716E-09 8.17446E-08-4.60212E-08
 -1      1334 3.11654E-09-8.10490E-08-4.52915E-08
 -1      1335 3.11654E-09 8.10490E-08-4.52915E-08
 -1      1336 2.06233E-09-8.18541E-08-4.61944E-08
 -1      1337 2.06233E-09 8.18541E-08-4.61944E-08
 -1      1338 5.16663E-09-8.52463E-08-5.01207E-08
 -1      1339 5.16663E-09 8.52463E-08-5.01207E-08
 -1      1340 1.91502E-08-8.43104E-08-5.11888E-08
 -1      1341 1.91502E-08 8.43104E-08-5.11888E-08
 -1      1342 3.48495E-08-6.09953E-08-3.60066E-08
 -1      1343 3.48495E-08 6.09953E-08-3.60066E-08
 -1      1344 3.33755E-08-2.55925E-08-1.23432E-08
 -1      1345 3.33755E-08 2.55925E-08-1.23432E-08
 -1      1346 1.96405E-08-6.91970E-09-7.28536E-10
 -1      1347 1.96405E-08 6.91970E-09-7.28536E-10
 -1      1348 9.88377E-09-1.29063E-09 1.01952E-09
 -1      1349 9.88377E-09 1.29063E-09 1.01952E-09
 -1      1350-3.94997E-08-3.81152E-08-2.12133E-08
 -1      1351-3.94997E-08 3.81152E-08-2.12133E-08
 -1      1352-3.31510E-08-6.44650E-08-3.48272E-08
 -1      1353-3.31510E-08 6.44650E-08-3.48272E-08
 -1      1354-2.08583E-08-8.26681E-08-4.41424E-08
 -1      1355-2.08583E-08 8.26681E-08-4.41424E-08
 -1      1356-9.84028E-09-8.99700E-08-4.66238E-08
 -1      1357-9.84028E-09 8.99700E-08-4.66238E-08
 -1      1358-3.33173E-09-9.16136E-08-4.59372E-08
 -1      1359-3.33173E-09 9.16136E-08-4.59372E-08
 -1      1360-2.78497E-10-9.15313E-08-4.50656E-08
 -1      1361-2.78497E-10 9.15313E-08-4.50656E-08
 -1      1362 1.09641E-09-9.13367E-08-4.47474E-08
 -1      1363 1.09641E-09 9.13367E-08-4.47474E-08
 -1      1364 1.82699E-09-9.13226E-08-4.47637E-08
 -1      1365 1.82699E-09 9.13226E-08-4.47637E-08
 -1      1366 2.30730E-09-9.14025E-08-4.48591E-08
 -1      1367 2.30730E-09 9.14025E-08-4.48591E-08
 -1      1368 2.66325E-09-9.14880E-08-4.49365E-08
 -1      1369 2.66325E-09 9.14880E-08-4.49365E-08
 -1      1370 2.96193E-09-9.15436E-08-4.49920E-08
 -1      1371 2.96193E-09 9.15436E-08-4.49920E-08
 -1      1372 3.28592E-09-9.15410E-08-4.50372E-08
 -1      1373 3.28592E-09 9.15410E-08-4.50372E-08
 -1      1374 3.73996E-09-9.13973E-08-4.50244E-08
 -1      1375 3.73996E-09 9.13973E-08-4.50244E-08
 -1      1376 4.36677E-09-9.09442E-08-4.47599E-08
 -1      1377 4.36677E-09 9.09442E-08-4.47599E-08
 -1      1378 4.91434E-09-9.00695E-08-4.39617E-08
 -1      1379 4.91434E-09 9.00695E-08-4.39617E-08
 -1      1380 4.73190E-09-8.92124E-08-4.29906E-08
 -1      1381 4.73190E-09 8.92124E-08-4.29906E-08
 -1      1382 4.03393E-09-8.99218E-08-4.41949E-08
 -1      1383 4.03393E-09 8.99218E-08-4.41949E-08
 -1      1384 7.35798E-09-9.37526E-08-4.97046E-08
 -1      1385 7.35798E-09 9.37526E-08-4.97046E-08
 -1      1386 2.19789E-08-9.38664E-08-5.21308E-08
 -1      1387 2.19789E-08 9.38664E-08-5.21308E-08
 -1      1388 3.86065E-08-6.77879E-08-3.58801E-08
 -1      1389 3.86065E-08 6.77879E-08-3.58801E-08
 -1      1390 3.69674E-08-2.72975E-08-1.00748E-08
 -1      1391 3.69674E-08 2.72975E-08-1.00748E-08
 -1      1392 2.26712E-08-7.27902E-09 2.00781E-09
 -1      1393 2.26712E-08 7.27902E-09 2.00781E-09
 -1      1394 1.30412E-08-1.33881E-09 2.21481E-09
 -1      1395 1.30412E-08 1.33881E-09 2.21481E-09
 -1      1396-3.81395E-08-3.05910E-08-1.88004E-08
 -1      1397-3.81395E-08 3.05910E-08-1.88004E-08
 -1      1398-3.16498E-08-5.29550E-08-2.94589E-08
 -1      1399-3.16498E-08 5.29550E-08-2.94589E-08
 -1      1400-2.03741E-08-6.85157E-08-3.73618E-08
 -1      1401-2.03741E-08 6.85157E-08-3.73618E-08
 -1      1402-1.03311E-08-7.48792E-08-3.89146E-08
 -1      1403-1.03311E-08 7.48792E-08-3.89146E-08
 -1      1404-3.96569E-09-7.64096E-08-3.75725E-08
 -1      1405-3.96569E-09 7.64096E-08-3.75725E-08
 -1      1406-5.45804E-10-7.64720E-08-3.63985E-08
 -1      1407-5.45804E-10 7.64720E-08-3.63985E-08
 -1      1408 1.25220E-09-7.64258E-08-3.59957E-08
 -1      1409 1.25220E-09 7.64258E-08-3.59957E-08
 -1      1410 2.27521E-09-7.65029E-08-3.60029E-08
 -1      1411 2.27521E-09 7.65029E-08-3.60029E-08
 -1      1412 2.92258E-09-7.66274E-08-3.61002E-08
 -1      1413 2.92258E-09 7.66274E-08-3.61002E-08
 -1      1414 3.37419E-09-7.67315E-08-3.61771E-08
 -1      1415 3.37419E-09 7.67315E-08-3.61771E-08
 -1      1416 3.73458E-09-7.67939E-08-3.62353E-08
 -1      1417 3.73458E-09 7.67939E-08-3.62353E-08
 -1      1418 4.09560E-09-7.67976E-08-3.62962E-08
 -1      1419 4.09560E-09 7.67976E-08-3.62962E-08
 -1      1420 4.55014E-09-7.66743E-08-3.63164E-08
 -1      1421 4.55014E-09 7.66743E-08-3.63164E-08
 -1      1422 5.15164E-09-7.62742E-08-3.60812E-08
 -1      1423 5.15164E-09 7.62742E-08-3.60812E-08
 -1      1424 5.80126E-09-7.54792E-08-3.52532E-08
 -1      1425 5.80126E-09 7.54792E-08-3.52532E-08
 -1      1426 6.18456E-09-7.46452E-08-3.41971E-08
 -1      1427 6.18456E-09 7.46452E-08-3.41971E-08
 -1      1428 6.43781E-09-7.50922E-08-3.56702E-08
 -1      1429 6.43781E-09 7.50922E-08-3.56702E-08
 -1      1430 9.40065E-09-7.83704E-08-4.21706E-08
 -1      1431 9.40065E-09 7.83704E-08-4.21706E-08
 -1      1432 2.07633E-08-7.95084E-08-4.49915E-08
 -1      1433 2.07633E-08 7.95084E-08-4.49915E-08
 -1      1434 3.38396E-08-5.73984E-08-3.01827E-08
 -1      1435 3.38396E-08 5.73984E-08-3.01827E-08
 -1      1436 3.25368E-08-2.21778E-08-6.74934E-09
 -1      1437 3.25368E-08 2.21778E-08-6.74934E-09
 -1      1438 2.17271E-08-5.86022E-09 4.59081E-09
 -1      1439 2.17271E-08 5.86022E-09 4.59081E-09
 -1      1440 1.49135E-08-9.99110E-10 3.22588E-09
 -1      1441 1.49135E-08 9.99110E-10 3.22588E-09
 -1      1442-3.12105E-08-1.40533E-08-1.62034E-08
 -1      1443-3.12105E-08 1.40533E-08-1.62034E-08
 -1      1444-2.56482E-08-2.52823E-08-2.38964E-08
 -1      1445-2.56482E-08 2.52823E-08-2.38964E-08
 -1      1446-1.75879E-08-3.43253E-08-3.03638E-08
 -1      1447-1.75879E-08 3.43253E-08-3.03638E-08
 -1      1448-1.01057E-08-3.86336E-08-3.12644E-08
 -1      1449-1.01057E-08 3.86336E-08-3.12644E-08
 -1      1450-4.55528E-09-3.99888E-08-2.95265E-08
 -1      1451-4.55528E-09 3.99888E-08-2.95265E-08
 -1      1452-9.28205E-10-4.03413E-08-2.81545E-08
 -1      1453-9.28205E-10 4.03413E-08-2.81545E-08
 -1      1454 1.26516E-09-4.05441E-08-2.76658E-08
 -1      1455 1.26516E-09 4.05441E-08-2.76658E-08
 -1      1456 2.55800E-09-4.07515E-08-2.76358E-08
 -1      1457 2.55800E-09 4.07515E-08-2.76358E-08
 -1      1458 3.34372E-09-4.09280E-08-2.77134E-08
 -1      1459 3.34372E-09 4.09280E-08-2.77134E-08
 -1      1460 3.86455E-09-4.10471E-08-2.77786E-08
 -1      1461 3.86455E-09 4.10471E-08-2.77786E-08
 -1      1462 4.26480E-09-4.11114E-08-2.78331E-08
 -1      1463 4.26480E-09 4.11114E-08-2.78331E-08
 -1      1464 4.63741E-09-4.11216E-08-2.79011E-08
 -1      1465 4.63741E-09 4.11216E-08-2.79011E-08
 -1      1466 5.04291E-09-4.10390E-08-2.79420E-08
 -1      1467 5.04291E-09 4.10390E-08-2.79420E-08
 -1      1468 5.52125E-09-4.07651E-08-2.77378E-08
 -1      1469 5.52125E-09 4.07651E-08-2.77378E-08
 -1      1470 6.15180E-09-4.02242E-08-2.69485E-08
 -1      1471 6.15180E-09 4.02242E-08-2.69485E-08
 -1      1472 7.18869E-09-3.96704E-08-2.59537E-08
 -1      1473 7.18869E-09 3.96704E-08-2.59537E-08
 -1      1474 9.00475E-09-3.98995E-08-2.76725E-08
 -1      1475 9.00475E-09 3.98995E-08-2.76725E-08
 -1      1476 1.18408E-08-4.14593E-08-3.44694E-08
 -1      1477 1.18408E-08 4.14593E-08-3.44694E-08
 -1      1478 1.69691E-08-4.21653E-08-3.68197E-08
 -1      1479 1.69691E-08 4.21653E-08-3.68197E-08
 -1      1480 2.23047E-08-3.08222E-08-2.41068E-08
 -1      1481 2.23047E-08 3.08222E-08-2.41068E-08
 -1      1482 2.21186E-08-1.22427E-08-4.45210E-09
 -1      1483 2.21186E-08 1.22427E-08-4.45210E-09
 -1      1484 1.84249E-08-3.55064E-09 6.01716E-09
 -1      1485 1.84249E-08 3.55064E-09 6.01716E-09
 -1      1486 1.60962E-08-4.71605E-10 3.79113E-09
 -1      1487 1.60962E-08 4.71605E-10 3.79113E-09
 -1      1488-2.45563E-08 6.35233E-09-1.54785E-08
 -1      1489-2.45563E-08-6.35233E-09-1.54785E-08
 -1      1490-1.98742E-08 9.57442E-09-2.21991E-08
 -1      1491-1.98742E-08-9.57442E-09-2.21991E-08
 -1      1492-1.49139E-08 8.58115E-09-2.81510E-08
 -1      1493-1.49139E-08-8.58115E-09-2.81510E-08
 -1      1494-1.00477E-08 6.62134E-09-2.88687E-08
 -1      1495-1.00477E-08-6.62134E-09-2.88687E-08
 -1      1496-5.21016E-09 5.38978E-09-2.69825E-08
 -1      1497-5.21016E-09-5.38978E-09-2.69825E-08
 -1      1498-1.34745E-09 4.66974E-09-2.54655E-08
 -1      1499-1.34745E-09-4.66974E-09-2.54655E-08
 -1      1500 1.17242E-09 4.17865E-09-2.48654E-08
 -1      1501 1.17242E-09-4.17866E-09-2.48654E-08
 -1      1502 2.64561E-09 3.82896E-09-2.47670E-08
 -1      1503 2.64561E-09-3.82896E-09-2.47670E-08
 -1      1504 3.50126E-09 3.60005E-09-2.48075E-08
 -1      1505 3.50126E-09-3.60005E-09-2.48075E-08
 -1      1506 4.04897E-09 3.46848E-09-2.48545E-08
 -1      1507 4.04897E-09-3.46848E-09-2.48545E-08
 -1      1508 4.46604E-09 3.40501E-09-2.49023E-08
 -1      1509 4.46604E-09-3.40501E-09-2.49023E-08
 -1      1510 4.84105E-09 3.38939E-09-2.49706E-08
 -1      1511 4.84105E-09-3.38939E-09-2.49706E-08
 -1      1512 5.19168E-09 3.42587E-09-2.50156E-08
 -1      1513 5.19168E-09-3.42587E-09-2.50156E-08
 -1      1514 5.50760E-09 3.54898E-09-2.48223E-08
 -1      1515 5.50760E-09-3.54898E-09-2.48223E-08
 -1      1516 5.98240E-09 3.76294E-09-2.40797E-08
 -1      1517 5.98240E-09-3.76294E-09-2.40797E-08
 -1      1518 7.50021E-09 3.88992E-09-2.32379E-08
 -1      1519 7.50021E-09-3.88992E-09-2.32379E-08
 -1      1520 1.11641E-08 3.71731E-09-2.51460E-08
 -1      1521 1.11641E-08-3.71731E-09-2.51460E-08
 -1      1522 1.45066E-08 4.55951E-09-3.18507E-08
 -1      1523 1.45066E-08-4.55951E-09-3.18507E-08
 -1      1524 1.35141E-08 5.51222E-09-3.36024E-08
 -1      1525 1.35141E-08-5.51222E-09-3.36024E-08
 -1      1526 1.09323E-08 2.82922E-09-2.18128E-08
 -1      1527 1.09323E-08-2.82922E-09-2.18128E-08
 -1      1528 1.19985E-08-8.27113E-10-4.00502E-09
 -1      1529 1.19985E-08 8.27113E-10-4.00502E-09
 -1      1530 1.56121E-08-1.25352E-09 6.23828E-09
 -1      1531 1.56121E-08 1.25352E-09 6.23828E-09
 -1      1532 1.74847E-08 1.00090E-10 3.91209E-09
 -1      1533 1.74847E-08-1.00090E-10 3.91209E-09
 -1      1534 0.00000E+00 0.00000E+00 0.00000E+00
 -1      1535-2.18614E-08 7.19956E-09-3.52994E-08
 -1      1536 0.00000E+00 0.00000E+00 0.00000E+00
 -1      1537-1.65288E-08 1.16773E-08-5.58917E-08
 -1      1538 0.00000E+00 0.00000E+00 0.00000E+00
 -1      1539-1.26393E-08 1.12507E-08-6.96139E-08
 -1      1540 0.00000E+00 0.00000E+00 0.00000E+00
 -1      1541-8.99498E-09 9.33274E-09-7.24017E-08
 -1      1542 0.00000E+00 0.00000E+00 0.00000E+00
 -1      1543-4.75001E-09 8.06998E-09-7.05401E-08
 -1      1544 0.00000E+00 0.00000E+00 0.00000E+00
 -1      1545-1.05956E-09 7.42305E-09-6.86583E-08
 -1      1546 0.00000E+00 0.00000E+00 0.00000E+00
 -1      1547 1.43629E-09 7.03560E-09-6.77910E-08
 -1      1548 0.00000E+00 0.00000E+00 0.00000E+00
 -1      1549 2.90451E-09 6.76423E-09-6.75635E-08
 -1      1550 0.00000E+00 0.00000E+00 0.00000E+00
 -1      1551 3.74782E-09 6.58017E-09-6.75562E-08
 -1      1552 0.00000E+00 0.00000E+00 0.00000E+00
 -1      1553 4.27996E-09 6.47025E-09-6.75914E-08
 -1      1554 0.00000E+00 0.00000E+00 0.00000E+00
 -1      1555 4.68148E-09 6.41569E-09-6.76397E-08
 -1      1556 0.00000E+00 0.00000E+00 0.00000E+00
 -1      1557 5.03513E-09 6.40429E-09-6.77038E-08
 -1      1558 0.00000E+00 0.00000E+00 0.00000E+00
 -1      1559 5.34447E-09 6.44510E-09-6.77096E-08
 -1      1560 0.00000E+00 0.00000E+00 0.00000E+00
 -1      1561 5.59021E-09 6.56071E-09-6.73813E-08
 -1      1562 0.00000E+00 0.00000E+00 0.00000E+00
 -1      1563 6.01229E-09 6.69521E-09-6.63269E-08
 -1      1564 0.00000E+00 0.00000E+00 0.00000E+00
 -1      1565 7.60818E-09 6.57734E-09-6.50098E-08
 -1      1566 0.00000E+00 0.00000E+00 0.00000E+00
 -1      1567 1.16136E-08 6.17064E-09-6.67998E-08
 -1      1568 0.00000E+00 0.00000E+00 0.00000E+00
 -1      1569 1.52408E-08 7.55868E-09-7.61469E-08
 -1      1570 0.00000E+00 0.00000E+00 0.00000E+00
 -1      1571 1.20576E-08 9.91481E-09-8.00140E-08
 -1      1572 0.00000E+00 0.00000E+00 0.00000E+00
 -1      1573 5.86880E-09 5.72972E-09-5.43541E-08
 -1      1574 0.00000E+00 0.00000E+00 0.00000E+00
 -1      1575 7.44335E-09-1.09758E-09-1.45328E-08
 -1      1576 0.00000E+00 0.00000E+00 0.00000E+00
 -1      1577 1.38284E-08-1.75349E-09 4.52346E-09
 -1      1578 0.00000E+00 0.00000E+00 0.00000E+00
 -1      1579 1.67554E-08-1.21552E-11 3.40224E-09
 -1      1580 0.00000E+00 0.00000E+00 0.00000E+00
 -1      1581-1.63825E-08 1.05992E-08-5.87272E-08
 -1      1582 0.00000E+00 0.00000E+00 0.00000E+00
 -1      1583-1.04539E-08 1.96509E-08-9.82862E-08
 -1      1584 0.00000E+00 0.00000E+00 0.00000E+00
 -1      1585-9.17681E-09 2.10101E-08-1.21527E-07
 -1      1586 0.00000E+00 0.00000E+00 0.00000E+00
 -1      1587-7.37573E-09 1.93429E-08-1.25914E-07
 -1      1588 0.00000E+00 0.00000E+00 0.00000E+00
 -1      1589-3.88041E-09 1.79751E-08-1.23647E-07
 -1      1590 0.00000E+00 0.00000E+00 0.00000E+00
 -1      1591-3.88599E-10 1.73042E-08-1.21216E-07
 -1      1592 0.00000E+00 0.00000E+00 0.00000E+00
 -1      1593 2.09832E-09 1.69705E-08-1.20057E-07
 -1      1594 0.00000E+00 0.00000E+00 0.00000E+00
 -1      1595 3.58490E-09 1.67617E-08-1.19711E-07
 -1      1596 0.00000E+00 0.00000E+00 0.00000E+00
 -1      1597 4.43520E-09 1.66211E-08-1.19667E-07
 -1      1598 0.00000E+00 0.00000E+00 0.00000E+00
 -1      1599 4.96326E-09 1.65350E-08-1.19696E-07
 -1      1600 0.00000E+00 0.00000E+00 0.00000E+00
 -1      1601 5.35359E-09 1.64923E-08-1.19748E-07
 -1      1602 0.00000E+00 0.00000E+00 0.00000E+00
 -1      1603 5.68409E-09 1.64875E-08-1.19815E-07
 -1      1604 0.00000E+00 0.00000E+00 0.00000E+00
 -1      1605 5.94558E-09 1.65291E-08-1.19795E-07
 -1      1606 0.00000E+00 0.00000E+00 0.00000E+00
 -1      1607 6.10697E-09 1.66142E-08-1.19341E-07
 -1      1608 0.00000E+00 0.00000E+00 0.00000E+00
 -1      1609 6.43942E-09 1.66072E-08-1.17867E-07
 -1      1610 0.00000E+00 0.00000E+00 0.00000E+00
 -1      1611 8.03502E-09 1.61567E-08-1.15780E-07
 -1      1612 0.00000E+00 0.00000E+00 0.00000E+00
 -1      1613 1.25667E-08 1.54131E-08-1.16644E-07
 -1      1614 0.00000E+00 0.00000E+00 0.00000E+00
 -1      1615 1.74295E-08 1.76160E-08-1.30057E-07
 -1      1616 0.00000E+00 0.00000E+00 0.00000E+00
 -1      1617 1.00860E-08 2.35146E-08-1.41036E-07
 -1      1618 0.00000E+00 0.00000E+00 0.00000E+00
 -1      1619-4.07389E-09 1.50488E-08-9.63863E-08
 -1      1620 0.00000E+00 0.00000E+00 0.00000E+00
 -1      1621-9.23943E-10-1.14328E-09-2.35486E-08
 -1      1622 0.00000E+00 0.00000E+00 0.00000E+00
 -1      1623 1.13779E-08-2.22281E-09 4.53842E-09
 -1      1624 0.00000E+00 0.00000E+00 0.00000E+00
 -1      1625 1.57886E-08-1.38777E-10 2.94928E-09
 -1      1626 0.00000E+00 0.00000E+00 0.00000E+00
 -1      1627-1.00303E-08 1.28646E-08-1.06397E-07
 -1      1628 0.00000E+00 0.00000E+00 0.00000E+00
 -1      1629-3.15956E-09 2.54495E-08-2.02008E-07
 -1      1630 0.00000E+00 0.00000E+00 0.00000E+00
 -1      1631-4.83735E-09 2.85099E-08-2.41786E-07
 -1      1632 0.00000E+00 0.00000E+00 0.00000E+00
 -1      1633-4.77610E-09 2.72854E-08-2.47890E-07
 -1      1634 0.00000E+00 0.00000E+00 0.00000E+00
 -1      1635-1.92968E-09 2.59566E-08-2.43717E-07
 -1      1636 0.00000E+00 0.00000E+00 0.00000E+00
 -1      1637 1.40432E-09 2.52915E-08-2.39939E-07
 -1      1638 0.00000E+00 0.00000E+00 0.00000E+00
 -1      1639 3.88591E-09 2.50000E-08-2.38218E-07
 -1      1640 0.00000E+00 0.00000E+00 0.00000E+00
 -1      1641 5.39087E-09 2.48423E-08-2.37707E-07
 -1      1642 0.00000E+00 0.00000E+00 0.00000E+00
 -1      1643 6.25138E-09 2.47409E-08-2.37637E-07
 -1      1644 0.00000E+00 0.00000E+00 0.00000E+00
 -1      1645 6.77939E-09 2.46785E-08-2.37676E-07
 -1      1646 0.00000E+00 0.00000E+00 0.00000E+00
 -1      1647 7.16213E-09 2.46481E-08-2.37749E-07
 -1      1648 0.00000E+00 0.00000E+00 0.00000E+00
 -1      1649 7.47411E-09 2.46484E-08-2.37841E-07
 -1      1650 0.00000E+00 0.00000E+00 0.00000E+00
 -1      1651 7.69548E-09 2.46843E-08-2.37810E-07
 -1      1652 0.00000E+00 0.00000E+00 0.00000E+00
 -1      1653 7.78053E-09 2.47298E-08-2.37120E-07
 -1      1654 0.00000E+00 0.00000E+00 0.00000E+00
 -1      1655 7.98268E-09 2.46049E-08-2.34796E-07
 -1      1656 0.00000E+00 0.00000E+00 0.00000E+00
 -1      1657 9.50731E-09 2.39440E-08-2.30293E-07
 -1      1658 0.00000E+00 0.00000E+00 0.00000E+00
 -1      1659 1.43603E-08 2.30470E-08-2.29007E-07
 -1      1660 0.00000E+00 0.00000E+00 0.00000E+00
 -1      1661 2.14616E-08 2.58379E-08-2.43834E-07
 -1      1662 0.00000E+00 0.00000E+00 0.00000E+00
 -1      1663 1.03178E-08 3.42070E-08-2.97111E-07
 -1      1664 0.00000E+00 0.00000E+00 0.00000E+00
 -1      1665-1.49130E-08 2.29414E-08-2.02799E-07
 -1      1666 0.00000E+00 0.00000E+00 0.00000E+00
 -1      1667-1.01744E-08-7.23536E-10-2.03359E-08
 -1      1668 0.00000E+00 0.00000E+00 0.00000E+00
 -1      1669 9.71912E-09-2.32369E-09 3.27488E-09
 -1      1670 0.00000E+00 0.00000E+00 0.00000E+00
 -1      1671 1.47911E-08-2.33879E-10 3.15555E-09
 -1      1672 0.00000E+00 0.00000E+00 0.00000E+00
 -1      1673-4.50110E-09 1.02782E-08-1.50142E-07
 -1      1674 0.00000E+00 0.00000E+00 0.00000E+00
 -1      1675 3.35624E-09 2.06924E-08-3.02658E-07
 -1      1676 0.00000E+00 0.00000E+00 0.00000E+00
 -1      1677-1.03253E-09 2.37725E-08-3.60201E-07
 -1      1678 0.00000E+00 0.00000E+00 0.00000E+00
 -1      1679-2.40392E-09 2.30485E-08-3.67853E-07
 -1      1680 0.00000E+00 0.00000E+00 0.00000E+00
 -1      1681-2.70981E-11 2.20538E-08-3.61969E-07
 -1      1682 0.00000E+00 0.00000E+00 0.00000E+00
 -1      1683 3.20309E-09 2.15475E-08-3.56890E-07
 -1      1684 0.00000E+00 0.00000E+00 0.00000E+00
 -1      1685 5.68411E-09 2.13366E-08-3.54635E-07
 -1      1686 0.00000E+00 0.00000E+00 0.00000E+00
 -1      1687 7.20315E-09 2.12312E-08-3.53969E-07
 -1      1688 0.00000E+00 0.00000E+00 0.00000E+00
 -1      1689 8.07236E-09 2.11652E-08-3.53879E-07
 -1      1690 0.00000E+00 0.00000E+00 0.00000E+00
 -1      1691 8.60149E-09 2.11242E-08-3.53931E-07
 -1      1692 0.00000E+00 0.00000E+00 0.00000E+00
 -1      1693 8.97939E-09 2.11042E-08-3.54028E-07
 -1      1694 0.00000E+00 0.00000E+00 0.00000E+00
 -1      1695 9.27826E-09 2.11057E-08-3.54146E-07
 -1      1696 0.00000E+00 0.00000E+00 0.00000E+00
 -1      1697 9.47047E-09 2.11309E-08-3.54101E-07
 -1      1698 0.00000E+00 0.00000E+00 0.00000E+00
 -1      1699 9.49323E-09 2.11515E-08-3.53182E-07
 -1      1700 0.00000E+00 0.00000E+00 0.00000E+00
 -1      1701 9.57203E-09 2.10161E-08-3.50009E-07
 -1      1702 0.00000E+00 0.00000E+00 0.00000E+00
 -1      1703 1.09825E-08 2.04493E-08-3.43268E-07
 -1      1704 0.00000E+00 0.00000E+00 0.00000E+00
 -1      1705 1.61035E-08 1.97671E-08-3.39809E-07
 -1      1706 0.00000E+00 0.00000E+00 0.00000E+00
 -1      1707 2.55534E-08 2.24548E-08-3.56867E-07
 -1      1708 0.00000E+00 0.00000E+00 0.00000E+00
 -1      1709 1.13929E-08 2.89459E-08-4.53275E-07
 -1      1710 0.00000E+00 0.00000E+00 0.00000E+00
 -1      1711-2.44805E-08 2.01807E-08-3.16126E-07
 -1      1712 0.00000E+00 0.00000E+00 0.00000E+00
 -1      1713-1.84531E-08 2.05081E-10-1.46389E-08
 -1      1714 0.00000E+00 0.00000E+00 0.00000E+00
 -1      1715 8.76329E-09-1.96163E-09 2.09549E-09
 -1      1716 0.00000E+00 0.00000E+00 0.00000E+00
 -1      1717 1.40017E-08-2.42283E-10 3.53412E-09
 -1      1718 0.00000E+00 0.00000E+00 0.00000E+00
 -1      1719-1.35904E-09 5.01514E-09-1.63457E-07
 -1      1720 0.00000E+00 0.00000E+00 0.00000E+00
 -1      1721 7.06111E-09 1.00664E-08-3.34575E-07
 -1      1722 0.00000E+00 0.00000E+00 0.00000E+00
 -1      1723 8.73129E-10 1.17827E-08-4.00771E-07
 -1      1724 0.00000E+00 0.00000E+00 0.00000E+00
 -1      1725-1.43473E-09 1.14755E-08-4.09787E-07
 -1      1726 0.00000E+00 0.00000E+00 0.00000E+00
 -1      1727 6.75854E-10 1.09747E-08-4.03480E-07
 -1      1728 0.00000E+00 0.00000E+00 0.00000E+00
 -1      1729 3.84960E-09 1.07201E-08-3.97986E-07
 -1      1730 0.00000E+00 0.00000E+00 0.00000E+00
 -1      1731 6.33072E-09 1.06156E-08-3.95521E-07
 -1      1732 0.00000E+00 0.00000E+00 0.00000E+00
 -1      1733 7.85781E-09 1.05642E-08-3.94785E-07
 -1      1734 0.00000E+00 0.00000E+00 0.00000E+00
 -1      1735 8.73220E-09 1.05316E-08-3.94679E-07
 -1      1736 0.00000E+00 0.00000E+00 0.00000E+00
 -1      1737 9.26220E-09 1.05110E-08-3.94733E-07
 -1      1738 0.00000E+00 0.00000E+00 0.00000E+00
 -1      1739 9.63718E-09 1.05008E-08-3.94835E-07
 -1      1740 0.00000E+00 0.00000E+00 0.00000E+00
 -1      1741 9.92814E-09 1.05015E-08-3.94960E-07
 -1      1742 0.00000E+00 0.00000E+00 0.00000E+00
 -1      1743 1.01033E-08 1.05143E-08-3.94897E-07
 -1      1744 0.00000E+00 0.00000E+00 0.00000E+00
 -1      1745 1.00868E-08 1.05233E-08-3.93883E-07
 -1      1746 0.00000E+00 0.00000E+00 0.00000E+00
 -1      1747 1.00976E-08 1.04504E-08-3.90351E-07
 -1      1748 0.00000E+00 0.00000E+00 0.00000E+00
 -1      1749 1.14009E-08 1.01568E-08-3.83059E-07
 -1      1750 0.00000E+00 0.00000E+00 0.00000E+00
 -1      1751 1.68435E-08 9.84555E-09-3.78459E-07
 -1      1752 0.00000E+00 0.00000E+00 0.00000E+00
 -1      1753 2.76980E-08 1.15050E-08-4.00908E-07
 -1      1754 0.00000E+00 0.00000E+00 0.00000E+00
 -1      1755 1.14122E-08 1.43041E-08-5.04931E-07
 -1      1756 0.00000E+00 0.00000E+00 0.00000E+00
 -1      1757-3.07667E-08 1.03190E-08-3.60096E-07
 -1      1758 0.00000E+00 0.00000E+00 0.00000E+00
 -1      1759-2.37586E-08 5.93096E-10-1.86233E-08
 -1      1760 0.00000E+00 0.00000E+00 0.00000E+00
 -1      1761 8.09980E-09-1.13510E-09 3.17161E-09
 -1      1762 0.00000E+00 0.00000E+00 0.00000E+00
 -1      1763 1.35873E-08-1.53936E-10 3.43090E-09
 -1      1764 0.00000E+00 0.00000E+00 0.00000E+00
 -1      1765-4.04989E-10-3.18588E-15-1.67146E-07
 -1      1766 0.00000E+00 0.00000E+00 0.00000E+00
 -1      1767 8.24979E-09-1.08572E-15-3.43839E-07
 -1      1768 0.00000E+00 0.00000E+00 0.00000E+00
 -1      1769 1.50029E-09-7.10672E-16-4.12829E-07
 -1      1770 0.00000E+00 0.00000E+00 0.00000E+00
 -1      1771-1.13311E-09-7.10604E-16-4.22368E-07
 -1      1772 0.00000E+00 0.00000E+00 0.00000E+00
 -1      1773 8.90973E-10-7.62939E-16-4.15948E-07
 -1      1774 0.00000E+00 0.00000E+00 0.00000E+00
 -1      1775 4.04508E-09-8.17043E-16-4.10327E-07
 -1      1776 0.00000E+00 0.00000E+00 0.00000E+00
 -1      1777 6.52525E-09-8.81232E-16-4.07800E-07
 -1      1778 0.00000E+00 0.00000E+00 0.00000E+00
 -1      1779 8.05466E-09-9.51898E-16-4.07040E-07
 -1      1780 0.00000E+00 0.00000E+00 0.00000E+00
 -1      1781 8.93068E-09-1.01802E-15-4.06929E-07
 -1      1782 0.00000E+00 0.00000E+00 0.00000E+00
 -1      1783 9.46100E-09-1.06687E-15-4.06983E-07
 -1      1784 0.00000E+00 0.00000E+00 0.00000E+00
 -1      1785 9.83501E-09-1.09122E-15-4.07087E-07
 -1      1786 0.00000E+00 0.00000E+00 0.00000E+00
 -1      1787 1.01234E-08-1.02108E-15-4.07213E-07
 -1      1788 0.00000E+00 0.00000E+00 0.00000E+00
 -1      1789 1.02930E-08-8.46611E-16-4.07146E-07
 -1      1790 0.00000E+00 0.00000E+00 0.00000E+00
 -1      1791 1.02635E-08-5.73978E-18-4.06094E-07
 -1      1792 0.00000E+00 0.00000E+00 0.00000E+00
 -1      1793 1.02544E-08 1.55453E-16-4.02476E-07
 -1      1794 0.00000E+00 0.00000E+00 0.00000E+00
 -1      1795 1.15115E-08 2.47685E-16-3.94955E-07
 -1      1796 0.00000E+00 0.00000E+00 0.00000E+00
 -1      1797 1.71088E-08 2.86687E-16-3.90176E-07
 -1      1798 0.00000E+00 0.00000E+00 0.00000E+00
 -1      1799 2.83543E-08 3.70768E-16-4.14270E-07
 -1      1800 0.00000E+00 0.00000E+00 0.00000E+00
 -1      1801 1.13713E-08 4.07737E-16-5.20791E-07
 -1      1802 0.00000E+00 0.00000E+00 0.00000E+00
 -1      1803-3.27513E-08 1.64388E-16-3.73263E-07
 -1      1804 0.00000E+00 0.00000E+00 0.00000E+00
 -1      1805-2.55278E-08 3.48132E-17-2.03738E-08
 -1      1806 0.00000E+00 0.00000E+00 0.00000E+00
 -1      1807 7.83083E-09 1.72449E-17 3.56091E-09
 -1      1808 0.00000E+00 0.00000E+00 0.00000E+00
 -1      1809 1.34703E-08 1.95488E-18 3.42512E-09
 -1      1810 0.00000E+00 0.00000E+00 0.00000E+00
 -1      1811-1.35903E-09-5.01515E-09-1.63457E-07
 -1      1812 0.00000E+00 0.00000E+00 0.00000E+00
 -1      1813 7.06111E-09-1.00664E-08-3.34575E-07
 -1      1814 0.00000E+00 0.00000E+00 0.00000E+00
 -1      1815 8.73129E-10-1.17827E-08-4.00771E-07
 -1      1816 0.00000E+00 0.00000E+00 0.00000E+00
 -1      1817-1.43472E-09-1.14755E-08-4.09787E-07
 -1      1818 0.00000E+00 0.00000E+00 0.00000E+00
 -1      1819 6.75855E-10-1.09747E-08-4.03480E-07
 -1      1820 0.00000E+00 0.00000E+00 0.00000E+00
 -1      1821 3.84960E-09-1.07201E-08-3.97986E-07
 -1      1822 0.00000E+00 0.00000E+00 0.00000E+00
 -1      1823 6.33072E-09-1.06156E-08-3.95521E-07
 -1      1824 0.00000E+00 0.00000E+00 0.00000E+00
 -1      1825 7.85781E-09-1.05642E-08-3.94785E-07
 -1      1826 0.00000E+00 0.00000E+00 0.00000E+00
 -1      1827 8.73220E-09-1.05316E-08-3.94679E-07
 -1      1828 0.00000E+00 0.00000E+00 0.00000E+00
 -1      1829 9.26220E-09-1.05110E-08-3.94733E-07
 -1      1830 0.00000E+00 0.00000E+00 0.00000E+00
 -1      1831 9.63718E-09-1.05008E-08-3.94835E-07
 -1      1832 0.00000E+00 0.00000E+00 0.00000E+00
 -1      1833 9.92814E-09-1.05016E-08-3.94960E-07
 -1      1834 0.00000E+00 0.00000E+00 0.00000E+00
 -1      1835 1.01033E-08-1.05143E-08-3.94897E-07
 -1      1836 0.00000E+00 0.00000E+00 0.00000E+00
 -1      1837 1.00868E-08-1.05233E-08-3.93883E-07
 -1      1838 0.00000E+00 0.00000E+00 0.00000E+00
 -1      1839 1.00976E-08-1.04504E-08-3.90351E-07
 -1      1840 0.00000E+00 0.00000E+00 0.00000E+00
 -1      1841 1.14009E-08-1.01568E-08-3.83059E-07
 -1      1842 0.00000E+00 0.00000E+00 0.00000E+00
 -1      1843 1.68435E-08-9.84555E-09-3.78459E-07
 -1      1844 0.00000E+00 0.00000E+00 0.00000E+00
 -1      1845 2.76980E-08-1.15050E-08-4.00908E-07
 -1      1846 0.00000E+00 0.00000E+00 0.00000E+00
 -1      1847 1.14122E-08-1.43041E-08-5.04931E-07
 -1      1848 0.00000E+00 0.00000E+00 0.00000E+00
 -1      1849-3.07667E-08-1.03190E-08-3.60096E-07
 -1      1850 0.00000E+00 0.00000E+00 0.00000E+00
 -1      1851-2.37586E-08-5.93096E-10-1.86233E-08
 -1      1852 0.00000E+00 0.00000E+00 0.00000E+00
 -1      1853 8.09980E-09 1.13510E-09 3.17161E-09
 -1      1854 0.00000E+00 0.00000E+00 0.00000E+00
 -1      1855 1.35873E-08 1.53936E-10 3.43090E-09
 -1      1856 0.00000E+00 0.00000E+00 0.00000E+00
 -1      1857-4.50109E-09-1.02782E-08-1.50142E-07
 -1      1858 0.00000E+00 0.00000E+00 0.00000E+00
 -1      1859 3.35624E-09-2.06924E-08-3.02658E-07
 -1      1860 0.00000E+00 0.00000E+00 0.00000E+00
 -1      1861-1.03253E-09-2.37725E-08-3.60201E-07
 -1      1862 0.00000E+00 0.00000E+00 0.00000E+00
 -1      1863-2.40392E-09-2.30485E-08-3.67853E-07
 -1      1864 0.00000E+00 0.00000E+00 0.00000E+00
 -1      1865-2.70979E-11-2.20538E-08-3.61969E-07
 -1      1866 0.00000E+00 0.00000E+00 0.00000E+00
 -1      1867 3.20309E-09-2.15475E-08-3.56890E-07
 -1      1868 0.00000E+00 0.00000E+00 0.00000E+00
 -1      1869 5.68411E-09-2.13366E-08-3.54635E-07
 -1      1870 0.00000E+00 0.00000E+00 0.00000E+00
 -1      1871 7.20315E-09-2.12312E-08-3.53969E-07
 -1      1872 0.00000E+00 0.00000E+00 0.00000E+00
 -1      1873 8.07236E-09-2.11652E-08-3.53879E-07
 -1      1874 0.00000E+00 0.00000E+00 0.00000E+00
 -1      1875 8.60149E-09-2.11242E-08-3.53931E-07
 -1      1876 0.00000E+00 0.00000E+00 0.00000E+00
 -1      1877 8.97939E-09-2.11042E-08-3.54028E-07
 -1      1878 0.00000E+00 0.00000E+00 0.00000E+00
 -1      1879 9.27826E-09-2.11057E-08-3.54146E-07
 -1      1880 0.00000E+00 0.00000E+00 0.00000E+00
 -1      1881 9.47047E-09-2.11309E-08-3.54101E-07
 -1      1882 0.00000E+00 0.00000E+00 0.00000E+00
 -1      1883 9.49323E-09-2.11515E-08-3.53182E-07
 -1      1884 0.00000E+00 0.00000E+00 0.00000E+00
 -1      1885 9.57203E-09-2.10161E-08-3.50009E-07
 -1      1886 0.00000E+00 0.00000E+00 0.00000E+00
 -1      1887 1.09825E-08-2.04493E-08-3.43268E-07
 -1      1888 0.00000E+00 0.00000E+00 0.00000E+00
 -1      1889 1.61035E-08-1.97671E-08-3.39809E-07
 -1      1890 0.00000E+00 0.00000E+00 0.00000E+00
 -1      1891 2.55534E-08-2.24548E-08-3.56867E-07
 -1      1892 0.00000E+00 0.00000E+00 0.00000E+00
 -1      1893 1.13929E-08-2.89459E-08-4.53275E-07
 -1      1894 0.00000E+00 0.00000E+00 0.00000E+00
 -1      1895-2.44805E-08-2.01807E-08-3.16126E-07
 -1      1896 0.00000E+00 0.00000E+00 0.00000E+00
 -1      1897-1.84531E-08-2.05081E-10-1.46389E-08
 -1      1898 0.00000E+00 0.00000E+00 0.00000E+00
 -1      1899 8.76329E-09 1.96163E-09 2.09549E-09
 -1      1900 0.00000E+00 0.00000E+00 0.00000E+00
 -1      1901 1.40017E-08 2.42283E-10 3.53412E-09
 -1      1902 0.00000E+00 0.00000E+00 0.00000E+00
 -1      1903-1.00303E-08-1.28646E-08-1.06397E-07
 -1      1904 0.00000E+00 0.00000E+00 0.00000E+00
 -1      1905-3.15956E-09-2.54495E-08-2.02008E-07
 -1      1906 0.00000E+00 0.00000E+00 0.00000E+00
 -1      1907-4.83735E-09-2.85099E-08-2.41786E-07
 -1      1908 0.00000E+00 0.00000E+00 0.00000E+00
 -1      1909-4.77610E-09-2.72854E-08-2.47890E-07
 -1      1910 0.00000E+00 0.00000E+00 0.00000E+00
 -1      1911-1.92968E-09-2.59566E-08-2.43717E-07
 -1      1912 0.00000E+00 0.00000E+00 0.00000E+00
 -1      1913 1.40432E-09-2.52915E-08-2.39939E-07
 -1      1914 0.00000E+00 0.00000E+00 0.00000E+00
 -1      1915 3.88591E-09-2.50000E-08-2.38218E-07
 -1      1916 0.00000E+00 0.00000E+00 0.00000E+00
 -1      1917 5.39087E-09-2.48423E-08-2.37707E-07
 -1      1918 0.00000E+00 0.00000E+00 0.00000E+00
 -1      1919 6.25138E-09-2.47409E-08-2.37637E-07
 -1      1920 0.00000E+00 0.00000E+00 0.00000E+00
 -1      1921 6.77939E-09-2.46785E-08-2.37676E-07
 -1      1922 0.00000E+00 0.00000E+00 0.00000E+00
 -1      1923 7.16213E-09-2.46481E-08-2.37749E-07
 -1      1924 0.00000E+00 0.00000E+00 0.00000E+00
 -1      1925 7.47411E-09-2.46484E-08-2.37841E-07
 -1      1926 0.00000E+00 0.00000E+00 0.00000E+00
 -1      1927 7.69548E-09-2.46843E-08-2.37810E-07
 -1      1928 0.00000E+00 0.00000E+00 0.00000E+00
 -1      1929 7.78053E-09-2.47298E-08-2.37120E-07
 -1      1930 0.00000E+00 0.00000E+00 0.00000E+00
 -1      1931 7.98268E-09-2.46049E-08-2.34796E-07
 -1      1932 0.00000E+00 0.00000E+00 0.00000E+00
 -1      1933 9.50731E-09-2.39440E-08-2.30293E-07
 -1      1934 0.00000E+00 0.00000E+00 0.00000E+00
 -1      1935 1.43603E-08-2.30470E-08-2.29007E-07
 -1      1936 0.00000E+00 0.00000E+00 0.00000E+00
 -1      1937 2.14616E-08-2.58379E-08-2.43834E-07
 -1      1938 0.00000E+00 0.00000E+00 0.00000E+00
 -1      1939 1.03178E-08-3.42070E-08-2.97111E-07
 -1      1940 0.00000E+00 0.00000E+00 0.00000E+00
 -1      1941-1.49130E-08-2.29414E-08-2.02799E-07
 -1      1942 0.00000E+00 0.00000E+00 0.00000E+00
 -1      1943-1.01744E-08 7.23536E-10-2.03359E-08
 -1      1944 0.00000E+00 0.00000E+00 0.00000E+00
 -1      1945 9.71912E-09 2.32369E-09 3.27488E-09
 -1      1946 0.00000E+00 0.00000E+00 0.00000E+00
 -1      1947 1.47911E-08 2.33879E-10 3.15555E-09
 -1      1948 0.00000E+00 0.00000E+00 0.00000E+00
 -1      1949-1.63825E-08-1.05992E-08-5.87272E-08
 -1      1950 0.00000E+00 0.00000E+00 0.00000E+00
 -1      1951-1.04539E-08-1.96509E-08-9.82862E-08
 -1      1952 0.00000E+00 0.00000E+00 0.00000E+00
 -1      1953-9.17681E-09-2.10101E-08-1.21527E-07
 -1      1954 0.00000E+00 0.00000E+00 0.00000E+00
 -1      1955-7.37573E-09-1.93429E-08-1.25914E-07
 -1      1956 0.00000E+00 0.00000E+00 0.00000E+00
 -1      1957-3.88041E-09-1.79751E-08-1.23647E-07
 -1      1958 0.00000E+00 0.00000E+00 0.00000E+00
 -1      1959-3.88599E-10-1.73042E-08-1.21216E-07
 -1      1960 0.00000E+00 0.00000E+00 0.00000E+00
 -1      1961 2.09832E-09-1.69705E-08-1.20057E-07
 -1      1962 0.00000E+00 0.00000E+00 0.00000E+00
 -1      1963 3.58490E-09-1.67617E-08-1.19711E-07
 -1      1964 0.00000E+00 0.00000E+00 0.00000E+00
 -1      1965 4.43520E-09-1.66211E-08-1.19667E-07
 -1      1966 0.00000E+00 0.00000E+00 0.00000E+00
 -1      1967 4.96326E-09-1.65350E-08-1.19696E-07
 -1      1968 0.00000E+00 0.00000E+00 0.00000E+00
 -1      1969 5.35359E-09-1.64923E-08-1.19748E-07
 -1      1970 0.00000E+00 0.00000E+00 0.00000E+00
 -1      1971 5.68409E-09-1.64875E-08-1.19815E-07
 -1      1972 0.00000E+00 0.00000E+00 0.00000E+00
 -1      1973 5.94558E-09-1.65291E-08-1.19795E-07
 -1      1974 0.00000E+00 0.00000E+00 0.00000E+00
 -1      1975 6.10697E-09-1.66142E-08-1.19341E-07
 -1      1976 0.00000E+00 0.00000E+00 0.00000E+00
 -1      1977 6.43942E-09-1.66072E-08-1.17867E-07
 -1      1978 0.00000E+00 0.00000E+00 0.00000E+00
 -1      1979 8.03502E-09-1.61567E-08-1.15780E-07
 -1      1980 0.00000E+00 0.00000E+00 0.00000E+00
 -1      1981 1.25667E-08-1.54131E-08-1.16644E-07
 -1      1982 0.00000E+00 0.00000E+00 0.00000E+00
 -1      1983 1.74295E-08-1.76160E-08-1.30057E-07
 -1      1984 0.00000E+00 0.00000E+00 0.00000E+00
 -1      1985 1.00860E-08-2.35146E-08-1.41036E-07
 -1      1986 0.00000E+00 0.00000E+00 0.00000E+00
 -1      1987-4.07389E-09-1.50488E-08-9.63863E-08
 -1      1988 0.00000E+00 0.00000E+00 0.00000E+00
 -1      1989-9.23943E-10 1.14328E-09-2.35486E-08
 -1      1990 0.00000E+00 0.00000E+00 0.00000E+00
 -1      1991 1.13779E-08 2.22281E-09 4.53842E-09
 -1      1992 0.00000E+00 0.00000E+00 0.00000E+00
 -1      1993 1.57886E-08 1.38777E-10 2.94928E-09
 -1      1994 0.00000E+00 0.00000E+00 0.00000E+00
 -1      1995-2.18614E-08-7.19956E-09-3.52994E-08
 -1      1996 0.00000E+00 0.00000E+00 0.00000E+00
 -1      1997-1.65288E-08-1.16773E-08-5.58917E-08
 -1      1998 0.00000E+00 0.00000E+00 0.00000E+00
 -1      1999-1.26393E-08-1.12507E-08-6.96139E-08
 -1      2000 0.00000E+00 0.00000E+00 0.00000E+00
 -1      2001-8.99498E-09-9.33274E-09-7.24017E-08
 -1      2002 0.00000E+00 0.00000E+00 0.00000E+00
 -1      2003-4.75001E-09-8.06999E-09-7.05401E-08
 -1      2004 0.00000E+00 0.00000E+00 0.00000E+00
 -1      2005-1.05956E-09-7.42305E-09-6.86583E-08
 -1      2006 0.00000E+00 0.00000E+00 0.00000E+00
 -1      2007 1.43629E-09-7.03560E-09-6.77910E-08
 -1      2008 0.00000E+00 0.00000E+00 0.00000E+00
 -1      2009 2.90451E-09-6.76423E-09-6.75635E-08
 -1      2010 0.00000E+00 0.00000E+00 0.00000E+00
 -1      2011 3.74782E-09-6.58017E-09-6.75562E-08
 -1      2012 0.00000E+00 0.00000E+00 0.00000E+00
 -1      2013 4.27996E-09-6.47025E-09-6.75914E-08
 -1      2014 0.00000E+00 0.00000E+00 0.00000E+00
 -1      2015 4.68148E-09-6.41570E-09-6.76397E-08
 -1      2016 0.00000E+00 0.00000E+00 0.00000E+00
 -1      2017 5.03513E-09-6.40429E-09-6.77038E-08
 -1      2018 0.00000E+00 0.00000E+00 0.00000E+00
 -1      2019 5.34447E-09-6.44510E-09-6.77096E-08
 -1      2020 0.00000E+00 0.00000E+00 0.00000E+00
 -1      2021 5.59021E-09-6.56071E-09-6.73813E-08
 -1      2022 0.00000E+00 0.00000E+00 0.00000E+00
 -1      2023 6.01229E-09-6.69521E-09-6.63269E-08
 -1      2024 0.00000E+00 0.00000E+00 0.00000E+00
 -1      2025 7.60818E-09-6.57734E-09-6.50098E-08
 -1      2026 0.00000E+00 0.00000E+00 0.00000E+00
 -1      2027 1.16136E-08-6.17064E-09-6.67998E-08
 -1      2028 0.00000E+00 0.00000E+00 0.00000E+00
 -1      2029 1.52408E-08-7.55868E-09-7.61469E-08
 -1      2030 0.00000E+00 0.00000E+00 0.00000E+00
 -1      2031 1.20576E-08-9.91481E-09-8.00140E-08
 -1      2032 0.00000E+00 0.00000E+00 0.00000E+00
 -1      2033 5.86880E-09-5.72972E-09-5.43541E-08
 -1      2034 0.00000E+00 0.00000E+00 0.00000E+00
 -1      2035 7.44335E-09 1.09758E-09-1.45328E-08
 -1      2036 0.00000E+00 0.00000E+00 0.00000E+00
 -1      2037 1.38284E-08 1.75349E-09 4.52346E-09
 -1      2038 0.00000E+00 0.00000E+00 0.00000E+00
 -1      2039 1.67554E-08 1.21552E-11 3.40224E-09
 -1      2040-1.73188E-08-1.94873E-08-8.34680E-09
 -1      2041-1.51976E-08-3.30027E-08-1.52310E-08
 -1      2042-9.37969E-09-4.21184E-08-1.89714E-08
 -1      2043-4.18282E-09-4.56538E-08-2.02978E-08
 -1      2044-1.23438E-09-4.63041E-08-2.03178E-08
 -1      2045-4.77383E-12-4.61290E-08-2.01176E-08
 -1      2046 4.51425E-10-4.59438E-08-2.00234E-08
 -1      2047 6.68540E-10-4.58827E-08-2.00222E-08
 -1      2048 8.20700E-10-4.58904E-08-2.00494E-08
 -1      2049 9.43963E-10-4.59154E-08-2.00744E-08
 -1      2050 1.05423E-09-4.59352E-08-2.00918E-08
 -1      2051 1.18507E-09-4.59334E-08-2.01007E-08
 -1      2052 1.38791E-09-4.58669E-08-2.00811E-08
 -1      2053 1.67656E-09-4.56493E-08-1.99723E-08
 -1      2054 1.87117E-09-4.52244E-08-1.97028E-08
 -1      2055 1.54759E-09-4.48323E-08-1.94100E-08
 -1      2056 9.31422E-10-4.53422E-08-1.97700E-08
 -1      2057 2.74428E-09-4.74652E-08-2.13284E-08
 -1      2058 1.02784E-08-4.70706E-08-2.17472E-08
 -1      2059 1.84842E-08-3.39654E-08-1.53391E-08
 -1      2060 1.77824E-08-1.39921E-08-5.30828E-09
 -1      2061 1.05234E-08-3.47760E-09-4.85222E-10
 -1      2062 4.90051E-09-5.44870E-10 4.28647E-10
 -1      2063-1.82798E-08-1.80545E-08-1.08510E-08
 -1      2064-1.56217E-08-3.11044E-08-2.01559E-08
 -1      2065-9.20855E-09-3.96837E-08-2.50701E-08
 -1      2066-3.89994E-09-4.29382E-08-2.66106E-08
 -1      2067-1.02666E-09-4.34728E-08-2.65333E-08
 -1      2068 1.12702E-10-4.32646E-08-2.62331E-08
 -1      2069 5.26240E-10-4.30657E-08-2.60875E-08
 -1      2070 7.29500E-10-4.29928E-08-2.60652E-08
 -1      2071 8.76987E-10-4.29899E-08-2.60844E-08
 -1      2072 9.96842E-10-4.30072E-08-2.61063E-08
 -1      2073 1.10281E-09-4.30229E-08-2.61234E-08
 -1      2074 1.22767E-09-4.30213E-08-2.61334E-08
 -1      2075 1.42503E-09-4.29629E-08-2.61130E-08
 -1      2076 1.72104E-09-4.27669E-08-2.59896E-08
 -1      2077 1.95122E-09-4.23748E-08-2.56645E-08
 -1      2078 1.63829E-09-4.20013E-08-2.52644E-08
 -1      2079 8.28350E-10-4.24761E-08-2.56293E-08
 -1      2080 2.27093E-09-4.45522E-08-2.77233E-08
 -1      2081 1.01767E-08-4.44762E-08-2.88186E-08
 -1      2082 1.93100E-08-3.20767E-08-2.02843E-08
 -1      2083 1.83206E-08-1.28724E-08-6.45794E-09
 -1      2084 1.02692E-08-3.09099E-09-4.41395E-10
 -1      2085 4.56156E-09-4.45940E-10 4.80007E-10
 -1      2086-2.06441E-08-1.56032E-08-1.44594E-08
 -1      2087-1.72824E-08-2.72928E-08-2.71575E-08
 -1      2088-9.71359E-09-3.48005E-08-3.38045E-08
 -1      2089-3.77860E-09-3.76129E-08-3.57468E-08
 -1      2090-7.99833E-10-3.80491E-08-3.55923E-08
 -1      2091 2.77171E-10-3.78470E-08-3.51785E-08
 -1      2092 6.33392E-10-3.76614E-08-3.49730E-08
 -1      2093 8.10793E-10-3.75897E-08-3.49283E-08
 -1      2094 9.49082E-10-3.75819E-08-3.49410E-08
 -1      2095 1.06500E-09-3.75939E-08-3.49620E-08
 -1      2096 1.16775E-09-3.76062E-08-3.49800E-08
 -1      2097 1.29042E-09-3.76047E-08-3.49913E-08
 -1      2098 1.49320E-09-3.75555E-08-3.49671E-08
 -1      2099 1.81828E-09-3.73885E-08-3.48180E-08
 -1      2100 2.10358E-09-3.70499E-08-3.44097E-08
 -1      2101 1.75227E-09-3.67231E-08-3.38614E-08
 -1      2102 5.51040E-10-3.71305E-08-3.42390E-08
 -1      2103 1.61945E-09-3.89847E-08-3.70579E-08
 -1      2104 1.07992E-08-3.91276E-08-3.89919E-08
 -1      2105 2.20272E-08-2.82363E-08-2.74595E-08
 -1      2106 2.05979E-08-1.11082E-08-8.32722E-09
 -1      2107 1.07068E-08-2.62259E-09-5.12244E-10
 -1      2108 4.33456E-09-3.57549E-10 5.27066E-10
 -1      2109-2.32230E-08-1.15757E-08-1.79350E-08
 -1      2110-1.91800E-08-2.04722E-08-3.39350E-08
 -1      2111-1.04107E-08-2.61001E-08-4.22841E-08
 -1      2112-3.75000E-09-2.81887E-08-4.46386E-08
 -1      2113-5.99556E-10-2.85029E-08-4.44224E-08
 -1      2114 4.37047E-10-2.83440E-08-4.39054E-08
 -1      2115 7.40001E-10-2.82003E-08-4.36454E-08
 -1      2116 8.90748E-10-2.81434E-08-4.35812E-08
 -1      2117 1.01943E-09-2.81353E-08-4.35891E-08
 -1      2118 1.13180E-09-2.81429E-08-4.36100E-08
 -1      2119 1.23232E-09-2.81514E-08-4.36294E-08
 -1      2120 1.35479E-09-2.81503E-08-4.36419E-08
 -1      2121 1.56660E-09-2.81143E-08-4.36136E-08
 -1      2122 1.92488E-09-2.79912E-08-4.34383E-08
 -1      2123 2.26397E-09-2.77402E-08-4.29482E-08
 -1      2124 1.85614E-09-2.74959E-08-4.22561E-08
 -1      2125 2.48514E-10-2.77945E-08-4.26476E-08
 -1      2126 1.01568E-09-2.92054E-08-4.61762E-08
 -1      2127 1.16188E-08-2.94326E-08-4.89258E-08
 -1      2128 2.50584E-08-2.12612E-08-3.44994E-08
 -1      2129 2.32123E-08-8.24405E-09-1.01866E-08
 -1      2130 1.13710E-08-1.92420E-09-5.97376E-10
 -1      2131 4.19866E-09-2.54100E-10 5.72621E-10
 -1      2132-2.51357E-08-6.17801E-09-2.03625E-08
 -1      2133-2.06073E-08-1.09973E-08-3.87015E-08
 -1      2134-1.09640E-08-1.40221E-08-4.82599E-08
 -1      2135-3.75680E-09-1.51380E-08-5.09090E-08
 -1      2136-4.63505E-10-1.53033E-08-5.06514E-08
 -1      2137 5.51211E-10-1.52162E-08-5.00630E-08
 -1      2138 8.17196E-10-1.51379E-08-4.97655E-08
 -1      2139 9.48686E-10-1.51064E-08-4.96881E-08
 -1      2140 1.07034E-09-1.51015E-08-4.96930E-08
 -1      2141 1.18027E-09-1.51052E-08-4.97140E-08
 -1      2142 1.27949E-09-1.51096E-08-4.97345E-08
 -1      2143 1.40241E-09-1.51089E-08-4.97479E-08
 -1      2144 1.62172E-09-1.50898E-08-4.97166E-08
 -1      2145 2.00495E-09-1.50244E-08-4.95228E-08
 -1      2146 2.38178E-09-1.48904E-08-4.89747E-08
 -1      2147 1.92744E-09-1.47595E-08-4.81807E-08
 -1      2148 2.55406E-11-1.49175E-08-4.85824E-08
 -1      2149 5.98624E-10-1.56834E-08-5.26211E-08
 -1      2150 1.22589E-08-1.58456E-08-5.59641E-08
 -1      2151 2.73150E-08-1.14564E-08-3.95057E-08
 -1      2152 2.51809E-08-4.40383E-09-1.15025E-08
 -1      2153 1.19133E-08-1.02041E-09-6.52861E-10
 -1      2154 4.12906E-09-1.32684E-10 6.07042E-10
 -1      2155-2.58348E-08-2.62761E-16-2.12292E-08
 -1      2156-2.11315E-08-3.28597E-16-4.04095E-08
 -1      2157-1.11711E-08-2.06511E-16-5.04037E-08
 -1      2158-3.76315E-09-1.23946E-16-5.31594E-08
 -1      2159-4.15465E-10-8.65980E-17-5.28873E-08
 -1      2160 5.92432E-10-7.16442E-17-5.22735E-08
 -1      2161 8.45262E-10-6.73401E-17-5.19626E-08
 -1      2162 9.69785E-10-6.81388E-17-5.18806E-08
 -1      2163 1.08888E-09-7.09051E-17-5.18844E-08
 -1      2164 1.19795E-09-7.31428E-17-5.19055E-08
 -1      2165 1.29674E-09-7.16735E-17-5.19264E-08
 -1      2166 1.41990E-09-6.15665E-17-5.19401E-08
 -1      2167 1.64207E-09-3.99444E-17-5.19077E-08
 -1      2168 2.03446E-09-1.50283E-17-5.17072E-08
 -1      2169 2.42472E-09 5.87391E-18-5.11384E-08
 -1      2170 1.95269E-09 1.71645E-17-5.03079E-08
 -1      2171-5.56779E-11 2.26945E-17-5.07133E-08
 -1      2172 4.50495E-10 2.40607E-17-5.49371E-08
 -1      2173 1.24967E-08 2.01924E-17-5.84968E-08
 -1      2174 2.81402E-08 1.33978E-17-4.13112E-08
 -1      2175 2.59043E-08 6.81132E-18-1.19760E-08
 -1      2176 1.21184E-08 2.30843E-18-6.71861E-10
 -1      2177 4.10798E-09-1.39448E-19 6.19783E-10
 -1      2178-2.51357E-08 6.17801E-09-2.03625E-08
 -1      2179-2.06073E-08 1.09973E-08-3.87015E-08
 -1      2180-1.09640E-08 1.40221E-08-4.82599E-08
 -1      2181-3.75680E-09 1.51380E-08-5.09090E-08
 -1      2182-4.63505E-10 1.53033E-08-5.06514E-08
 -1      2183 5.51211E-10 1.52162E-08-5.00630E-08
 -1      2184 8.17196E-10 1.51379E-08-4.97655E-08
 -1      2185 9.48686E-10 1.51064E-08-4.96881E-08
 -1      2186 1.07034E-09 1.51015E-08-4.96930E-08
 -1      2187 1.18027E-09 1.51052E-08-4.97140E-08
 -1      2188 1.27949E-09 1.51096E-08-4.97345E-08
 -1      2189 1.40241E-09 1.51089E-08-4.97479E-08
 -1      2190 1.62172E-09 1.50898E-08-4.97166E-08
 -1      2191 2.00495E-09 1.50244E-08-4.95228E-08
 -1      2192 2.38178E-09 1.48904E-08-4.89747E-08
 -1      2193 1.92744E-09 1.47595E-08-4.81807E-08
 -1      2194 2.55405E-11 1.49175E-08-4.85824E-08
 -1      2195 5.98624E-10 1.56834E-08-5.26211E-08
 -1      2196 1.22589E-08 1.58456E-08-5.59641E-08
 -1      2197 2.73150E-08 1.14564E-08-3.95057E-08
 -1      2198 2.51809E-08 4.40383E-09-1.15025E-08
 -1      2199 1.19133E-08 1.02041E-09-6.52861E-10
 -1      2200 4.12906E-09 1.32684E-10 6.07042E-10
 -1      2201-2.32230E-08 1.15757E-08-1.79350E-08
 -1      2202-1.91800E-08 2.04722E-08-3.39350E-08
 -1      2203-1.04107E-08 2.61001E-08-4.22841E-08
 -1      2204-3.75000E-09 2.81887E-08-4.46386E-08
 -1      2205-5.99556E-10 2.85029E-08-4.44224E-08
 -1      2206 4.37047E-10 2.83440E-08-4.39054E-08
 -1      2207 7.40001E-10 2.82003E-08-4.36454E-08
 -1      2208 8.90748E-10 2.81434E-08-4.35812E-08
 -1      2209 1.01943E-09 2.81353E-08-4.35891E-08
 -1      2210 1.13180E-09 2.81429E-08-4.36100E-08
 -1      2211 1.23232E-09 2.81514E-08-4.36294E-08
 -1      2212 1.35479E-09 2.81503E-08-4.36419E-08
 -1      2213 1.56660E-09 2.81143E-08-4.36136E-08
 -1      2214 1.92488E-09 2.79912E-08-4.34383E-08
 -1      2215 2.26397E-09 2.77402E-08-4.29482E-08
 -1      2216 1.85614E-09 2.74959E-08-4.22561E-08
 -1      2217 2.48514E-10 2.77945E-08-4.26476E-08
 -1      2218 1.01568E-09 2.92054E-08-4.61762E-08
 -1      2219 1.16188E-08 2.94326E-08-4.89258E-08
 -1      2220 2.50584E-08 2.12612E-08-3.44994E-08
 -1      2221 2.32123E-08 8.24405E-09-1.01866E-08
 -1      2222 1.13710E-08 1.92420E-09-5.97377E-10
 -1      2223 4.19866E-09 2.54100E-10 5.72621E-10
 -1      2224-2.06441E-08 1.56032E-08-1.44594E-08
 -1      2225-1.72824E-08 2.72928E-08-2.71575E-08
 -1      2226-9.71359E-09 3.48005E-08-3.38045E-08
 -1      2227-3.77860E-09 3.76129E-08-3.57468E-08
 -1      2228-7.99832E-10 3.80491E-08-3.55923E-08
 -1      2229 2.77171E-10 3.78470E-08-3.51785E-08
 -1      2230 6.33392E-10 3.76614E-08-3.49730E-08
 -1      2231 8.10793E-10 3.75897E-08-3.49283E-08
 -1      2232 9.49082E-10 3.75819E-08-3.49410E-08
 -1      2233 1.06500E-09 3.75939E-08-3.49620E-08
 -1      2234 1.16775E-09 3.76062E-08-3.49800E-08
 -1      2235 1.29042E-09 3.76047E-08-3.49913E-08
 -1      2236 1.49320E-09 3.75555E-08-3.49671E-08
 -1      2237 1.81828E-09 3.73885E-08-3.48180E-08
 -1      2238 2.10358E-09 3.70499E-08-3.44097E-08
 -1      2239 1.75227E-09 3.67231E-08-3.38614E-08
 -1      2240 5.51040E-10 3.71305E-08-3.42390E-08
 -1      2241 1.61945E-09 3.89847E-08-3.70579E-08
 -1      2242 1.07992E-08 3.91276E-08-3.89919E-08
 -1      2243 2.20272E-08 2.82363E-08-2.74595E-08
 -1      2244 2.05979E-08 1.11082E-08-8.32722E-09
 -1      2245 1.07068E-08 2.62259E-09-5.12244E-10
 -1      2246 4.33456E-09 3.57549E-10 5.27066E-10
 -1      2247-1.82798E-08 1.80545E-08-1.08510E-08
 -1      2248-1.56217E-08 3.11044E-08-2.01559E-08
 -1      2249-9.20855E-09 3.96837E-08-2.50701E-08
 -1      2250-3.89994E-09 4.29382E-08-2.66106E-08
 -1      2251-1.02666E-09 4.34728E-08-2.65333E-08
 -1      2252 1.12702E-10 4.32646E-08-2.62331E-08
 -1      2253 5.26240E-10 4.30657E-08-2.60875E-08
 -1      2254 7.29501E-10 4.29928E-08-2.60652E-08
 -1      2255 8.76987E-10 4.29899E-08-2.60844E-08
 -1      2256 9.96842E-10 4.30072E-08-2.61063E-08
 -1      2257 1.10281E-09 4.30229E-08-2.61234E-08
 -1      2258 1.22767E-09 4.30213E-08-2.61334E-08
 -1      2259 1.42503E-09 4.29629E-08-2.61130E-08
 -1      2260 1.72104E-09 4.27669E-08-2.59896E-08
 -1      2261 1.95122E-09 4.23748E-08-2.56645E-08
 -1      2262 1.63829E-09 4.20013E-08-2.52644E-08
 -1      2263 8.28350E-10 4.24761E-08-2.56293E-08
 -1      2264 2.27093E-09 4.45522E-08-2.77233E-08
 -1      2265 1.01767E-08 4.44762E-08-2.88186E-08
 -1      2266 1.93100E-08 3.20767E-08-2.02843E-08
 -1      2267 1.83206E-08 1.28724E-08-6.45794E-09
 -1      2268 1.02692E-08 3.09099E-09-4.41395E-10
 -1      2269 4.56156E-09 4.45940E-10 4.80007E-10
 -1      2270-1.73188E-08 1.94873E-08-8.34680E-09
 -1      2271-1.51976E-08 3.30027E-08-1.52310E-08
 -1      2272-9.37969E-09 4.21184E-08-1.89714E-08
 -1      2273-4.18281E-09 4.56538E-08-2.02978E-08
 -1      2274-1.23438E-09 4.63041E-08-2.03178E-08
 -1      2275-4.77377E-12 4.61290E-08-2.01176E-08
 -1      2276 4.51425E-10 4.59438E-08-2.00234E-08
 -1      2277 6.68540E-10 4.58827E-08-2.00222E-08
 -1      2278 8.20700E-10 4.58904E-08-2.00494E-08
 -1      2279 9.43963E-10 4.59154E-08-2.00744E-08
 -1      2280 1.05423E-09 4.59352E-08-2.00918E-08
 -1      2281 1.18507E-09 4.59334E-08-2.01007E-08
 -1      2282 1.38791E-09 4.58669E-08-2.00811E-08
 -1      2283 1.67656E-09 4.56493E-08-1.99723E-08
 -1      2284 1.87117E-09 4.52244E-08-1.97028E-08
 -1      2285 1.54759E-09 4.48323E-08-1.94100E-08
 -1      2286 9.31422E-10 4.53422E-08-1.97700E-08
 -1      2287 2.74428E-09 4.74652E-08-2.13284E-08
 -1      2288 1.02784E-08 4.70706E-08-2.17472E-08
 -1      2289 1.84842E-08 3.39654E-08-1.53391E-08
 -1      2290 1.77824E-08 1.39921E-08-5.30828E-09
 -1      2291 1.05234E-08 3.47760E-09-4.85222E-10
 -1      2292 4.90051E-09 5.44870E-10 4.28647E-10
 -1      2293-3.03183E-08-3.35370E-08-1.86266E-08
 -1      2294-2.47650E-08-5.69002E-08-3.17075E-08
 -1      2295-1.55854E-08-7.27504E-08-3.98492E-08
 -1      2296-7.17130E-09-7.88968E-08-4.22049E-08
 -1      2297-2.26896E-09-8.00848E-08-4.19137E-08
 -1      2298-7.01326E-11-7.98345E-08-4.13132E-08
 -1      2299 8.50419E-10-7.95481E-08-4.10556E-08
 -1      2300 1.32037E-09-7.94622E-08-4.10367E-08
 -1      2301 1.63539E-09-7.94870E-08-4.10878E-08
 -1      2302 1.87618E-09-7.95365E-08-4.11361E-08
 -1      2303 2.08326E-09-7.95737E-08-4.11722E-08
 -1      2304 2.31617E-09-7.95706E-08-4.11976E-08
 -1      2305 2.65632E-09-7.94540E-08-4.11720E-08
 -1      2306 3.12990E-09-7.90770E-08-4.09558E-08
 -1      2307 3.49342E-09-7.83411E-08-4.03578E-08
 -1      2308 3.15526E-09-7.76407E-08-3.96475E-08
 -1      2309 2.45516E-09-7.84109E-08-4.04707E-08
 -1      2310 5.44149E-09-8.20170E-08-4.44069E-08
 -1      2311 1.69284E-08-8.17818E-08-4.60210E-08
 -1      2312 2.92732E-08-5.90022E-08-3.21000E-08
 -1      2313 2.82623E-08-2.39106E-08-1.00344E-08
 -1      2314 1.73475E-08-6.02832E-09 2.09613E-10
 -1      2315 9.17749E-09-1.00278E-09 1.20653E-09
 -1      2316-3.20834E-08-3.01777E-08-2.42512E-08
 -1      2317-2.53101E-08-5.22060E-08-4.24812E-08
 -1      2318-1.52106E-08-6.66737E-08-5.31213E-08
 -1      2319-6.62065E-09-7.21463E-08-5.58261E-08
 -1      2320-1.88404E-09-7.30944E-08-5.52874E-08
 -1      2321 1.56628E-10-7.27873E-08-5.44694E-08
 -1      2322 1.00546E-09-7.24839E-08-5.41052E-08
 -1      2323 1.45303E-09-7.23807E-08-5.40419E-08
 -1      2324 1.76029E-09-7.23878E-08-5.40749E-08
 -1      2325 1.99517E-09-7.24238E-08-5.41159E-08
 -1      2326 2.19471E-09-7.24536E-08-5.41505E-08
 -1      2327 2.41697E-09-7.24515E-08-5.41781E-08
 -1      2328 2.74633E-09-7.23517E-08-5.41526E-08
 -1      2329 3.22817E-09-7.20204E-08-5.39115E-08
 -1      2330 3.65092E-09-7.13580E-08-5.32011E-08
 -1      2331 3.35246E-09-7.07082E-08-5.22341E-08
 -1      2332 2.33817E-09-7.14013E-08-5.29823E-08
 -1      2333 4.62676E-09-7.48322E-08-5.81247E-08
 -1      2334 1.66867E-08-7.52409E-08-6.15813E-08
 -1      2335 3.06096E-08-5.42541E-08-4.29105E-08
 -1      2336 2.90600E-08-2.12490E-08-1.21654E-08
 -1      2337 1.67896E-08-5.16918E-09 4.59006E-10
 -1      2338 8.57743E-09-7.79561E-10 1.31596E-09
 -1      2339-3.61384E-08-2.55688E-08-3.28802E-08
 -1      2340-2.78596E-08-4.50039E-08-5.89618E-08
 -1      2341-1.58726E-08-5.74238E-08-7.36215E-08
 -1      2342-6.30195E-09-6.20300E-08-7.71336E-08
 -1      2343-1.44726E-09-6.27741E-08-7.63699E-08
 -1      2344 4.70559E-10-6.24694E-08-7.52877E-08
 -1      2345 1.22324E-09-6.21862E-08-7.47922E-08
 -1      2346 1.62920E-09-6.20832E-08-7.46813E-08
 -1      2347 1.92211E-09-6.20799E-08-7.47011E-08
 -1      2348 2.15064E-09-6.21053E-08-7.47402E-08
 -1      2349 2.34446E-09-6.21283E-08-7.47772E-08
 -1      2350 2.56195E-09-6.21266E-08-7.48082E-08
 -1      2351 2.89781E-09-6.20446E-08-7.47758E-08
 -1      2352 3.42275E-09-6.17684E-08-7.44806E-08
 -1      2353 3.93891E-09-6.12078E-08-7.35821E-08
 -1      2354 3.61088E-09-6.06488E-08-7.22359E-08
 -1      2355 1.95206E-09-6.12221E-08-7.29118E-08
 -1      2356 3.47509E-09-6.42397E-08-7.98208E-08
 -1      2357 1.75676E-08-6.50868E-08-8.57487E-08
 -1      2358 3.50401E-08-4.69758E-08-5.98896E-08
 -1      2359 3.26666E-08-1.78481E-08-1.60689E-08
 -1      2360 1.72875E-08-4.25160E-09 5.03408E-10
 -1      2361 8.10699E-09-6.05106E-10 1.43990E-09
 -1      2362-4.05329E-08-1.87795E-08-4.11258E-08
 -1      2363-3.08035E-08-3.34746E-08-7.48950E-08
 -1      2364-1.68526E-08-4.27060E-08-9.35140E-08
 -1      2365-6.13686E-09-4.60794E-08-9.78423E-08
 -1      2366-1.05507E-09-4.66025E-08-9.68766E-08
 -1      2367 7.76577E-10-4.63599E-08-9.55479E-08
 -1      2368 1.43952E-09-4.61402E-08-9.49318E-08
 -1      2369 1.80272E-09-4.60572E-08-9.47796E-08
 -1      2370 2.08072E-09-4.60505E-08-9.47897E-08
 -1      2371 2.30368E-09-4.60668E-08-9.48289E-08
 -1      2372 2.49349E-09-4.60826E-08-9.48692E-08
 -1      2373 2.70956E-09-4.60813E-08-9.49037E-08
 -1      2374 3.05806E-09-4.60222E-08-9.48640E-08
 -1      2375 3.63311E-09-4.58211E-08-9.45144E-08
 -1      2376 4.24061E-09-4.54099E-08-9.34304E-08
 -1      2377 3.85185E-09-4.49960E-08-9.17125E-08
 -1      2378 1.52121E-09-4.54060E-08-9.23204E-08
 -1      2379 2.39897E-09-4.76899E-08-1.00988E-07
 -1      2380 1.87645E-08-4.85958E-08-1.09397E-07
 -1      2381 3.99832E-08-3.51324E-08-7.66071E-08
 -1      2382 3.68342E-08-1.30559E-08-1.98911E-08
 -1      2383 1.81600E-08-3.06496E-09 5.62365E-10
 -1      2384 7.78068E-09-4.24065E-10 1.57541E-09
 -1      2385-4.37756E-08-9.96457E-09-4.68992E-08
 -1      2386-3.30202E-08-1.78922E-08-8.61405E-08
 -1      2387-1.76447E-08-2.28331E-08-1.07600E-07
 -1      2388-6.06499E-09-2.46236E-08-1.12520E-07
 -1      2389-7.86669E-10-2.48960E-08-1.11417E-07
 -1      2390 9.95406E-10-2.47625E-08-1.09916E-07
 -1      2391 1.59620E-09-2.46425E-08-1.09216E-07
 -1      2392 1.92853E-09-2.45964E-08-1.09036E-07
 -1      2393 2.19565E-09-2.45916E-08-1.09040E-07
 -1      2394 2.41483E-09-2.45995E-08-1.09080E-07
 -1      2395 2.60228E-09-2.46077E-08-1.09123E-07
 -1      2396 2.81834E-09-2.46069E-08-1.09160E-07
 -1      2397 3.17765E-09-2.45757E-08-1.09115E-07
 -1      2398 3.79056E-09-2.44694E-08-1.08726E-07
 -1      2399 4.46186E-09-2.42515E-08-1.07510E-07
 -1      2400 4.01818E-09-2.40313E-08-1.05528E-07
 -1      2401 1.20135E-09-2.42457E-08-1.06092E-07
 -1      2402 1.65881E-09-2.54833E-08-1.16039E-07
 -1      2403 1.97051E-08-2.60504E-08-1.26249E-07
 -1      2404 4.36487E-08-1.88633E-08-8.85908E-08
 -1      2405 3.99737E-08-6.92607E-09-2.26237E-08
 -1      2406 1.88986E-08-1.61114E-09 6.19128E-10
 -1      2407 7.59248E-09-2.20484E-10 1.67869E-09
 -1      2408-4.49559E-08-6.17827E-16-4.89506E-08
 -1      2409-3.38329E-08-6.33476E-16-9.01519E-08
 -1      2410-1.79427E-08-3.84428E-16-1.12635E-07
 -1      2411-6.04587E-09-2.46780E-16-1.17770E-07
 -1      2412-6.91706E-10-1.87902E-16-1.16618E-07
 -1      2413 1.07443E-09-1.66040E-16-1.15057E-07
 -1      2414 1.65318E-09-1.62213E-16-1.14327E-07
 -1      2415 1.97436E-09-1.67222E-16-1.14137E-07
 -1      2416 2.23753E-09-1.75232E-16-1.14139E-07
 -1      2417 2.45537E-09-1.81207E-16-1.14179E-07
 -1      2418 2.64204E-09-1.78356E-16-1.14223E-07
 -1      2419 2.85825E-09-1.55140E-16-1.14261E-07
 -1      2420 3.22168E-09-1.01455E-16-1.14214E-07
 -1      2421 3.84851E-09-3.59241E-17-1.13811E-07
 -1      2422 4.54240E-09 1.55521E-17-1.12547E-07
 -1      2423 4.07697E-09 4.18377E-17-1.10472E-07
 -1      2424 1.08460E-09 5.53339E-17-1.11021E-07
 -1      2425 1.39785E-09 6.04765E-17-1.21434E-07
 -1      2426 2.00547E-08 5.17650E-17-1.32295E-07
 -1      2427 4.49827E-08 3.28852E-17-9.29062E-08
 -1      2428 4.11250E-08 1.57770E-17-2.36091E-08
 -1      2429 1.91816E-08 5.32594E-18 6.42693E-10
 -1      2430 7.53149E-09 6.08159E-20 1.71695E-09
 -1      2431-4.37756E-08 9.96456E-09-4.68992E-08
 -1      2432-3.30202E-08 1.78921E-08-8.61405E-08
 -1      2433-1.76447E-08 2.28331E-08-1.07600E-07
 -1      2434-6.06499E-09 2.46236E-08-1.12520E-07
 -1      2435-7.86669E-10 2.48960E-08-1.11417E-07
 -1      2436 9.95406E-10 2.47625E-08-1.09916E-07
 -1      2437 1.59620E-09 2.46425E-08-1.09216E-07
 -1      2438 1.92853E-09 2.45964E-08-1.09036E-07
 -1      2439 2.19565E-09 2.45916E-08-1.09040E-07
 -1      2440 2.41483E-09 2.45995E-08-1.09080E-07
 -1      2441 2.60228E-09 2.46077E-08-1.09123E-07
 -1      2442 2.81834E-09 2.46069E-08-1.09160E-07
 -1      2443 3.17765E-09 2.45757E-08-1.09115E-07
 -1      2444 3.79056E-09 2.44694E-08-1.08726E-07
 -1      2445 4.46186E-09 2.42515E-08-1.07510E-07
 -1      2446 4.01818E-09 2.40313E-08-1.05528E-07
 -1      2447 1.20135E-09 2.42457E-08-1.06092E-07
 -1      2448 1.65881E-09 2.54833E-08-1.16039E-07
 -1      2449 1.97051E-08 2.60504E-08-1.26249E-07
 -1      2450 4.36487E-08 1.88633E-08-8.85908E-08
 -1      2451 3.99737E-08 6.92607E-09-2.26237E-08
 -1      2452 1.88986E-08 1.61114E-09 6.19128E-10
 -1      2453 7.59248E-09 2.20484E-10 1.67869E-09
 -1      2454-4.05329E-08 1.87795E-08-4.11258E-08
 -1      2455-3.08035E-08 3.34746E-08-7.48950E-08
 -1      2456-1.68526E-08 4.27060E-08-9.35140E-08
 -1      2457-6.13686E-09 4.60794E-08-9.78423E-08
 -1      2458-1.05507E-09 4.66025E-08-9.68766E-08
 -1      2459 7.76577E-10 4.63599E-08-9.55479E-08
 -1      2460 1.43952E-09 4.61402E-08-9.49318E-08
 -1      2461 1.80272E-09 4.60572E-08-9.47796E-08
 -1      2462 2.08072E-09 4.60505E-08-9.47897E-08
 -1      2463 2.30368E-09 4.60668E-08-9.48289E-08
 -1      2464 2.49349E-09 4.60826E-08-9.48692E-08
 -1      2465 2.70956E-09 4.60813E-08-9.49037E-08
 -1      2466 3.05806E-09 4.60222E-08-9.48640E-08
 -1      2467 3.63311E-09 4.58211E-08-9.45144E-08
 -1      2468 4.24061E-09 4.54099E-08-9.34304E-08
 -1      2469 3.85185E-09 4.49960E-08-9.17125E-08
 -1      2470 1.52121E-09 4.54060E-08-9.23204E-08
 -1      2471 2.39897E-09 4.76899E-08-1.00988E-07
 -1      2472 1.87645E-08 4.85958E-08-1.09397E-07
 -1      2473 3.99832E-08 3.51324E-08-7.66071E-08
 -1      2474 3.68342E-08 1.30559E-08-1.98911E-08
 -1      2475 1.81600E-08 3.06496E-09 5.62365E-10
 -1      2476 7.78068E-09 4.24065E-10 1.57541E-09
 -1      2477-3.61384E-08 2.55688E-08-3.28802E-08
 -1      2478-2.78596E-08 4.50039E-08-5.89618E-08
 -1      2479-1.58726E-08 5.74238E-08-7.36215E-08
 -1      2480-6.30195E-09 6.20300E-08-7.71336E-08
 -1      2481-1.44726E-09 6.27741E-08-7.63699E-08
 -1      2482 4.70559E-10 6.24694E-08-7.52877E-08
 -1      2483 1.22324E-09 6.21862E-08-7.47922E-08
 -1      2484 1.62920E-09 6.20832E-08-7.46813E-08
 -1      2485 1.92211E-09 6.20799E-08-7.47011E-08
 -1      2486 2.15064E-09 6.21053E-08-7.47402E-08
 -1      2487 2.34446E-09 6.21283E-08-7.47772E-08
 -1      2488 2.56195E-09 6.21266E-08-7.48082E-08
 -1      2489 2.89781E-09 6.20446E-08-7.47758E-08
 -1      2490 3.42275E-09 6.17684E-08-7.44806E-08
 -1      2491 3.93891E-09 6.12078E-08-7.35821E-08
 -1      2492 3.61088E-09 6.06488E-08-7.22359E-08
 -1      2493 1.95206E-09 6.12221E-08-7.29118E-08
 -1      2494 3.47509E-09 6.42397E-08-7.98208E-08
 -1      2495 1.75676E-08 6.50868E-08-8.57487E-08
 -1      2496 3.50401E-08 4.69758E-08-5.98896E-08
 -1      2497 3.26666E-08 1.78481E-08-1.60689E-08
 -1      2498 1.72875E-08 4.25160E-09 5.03408E-10
 -1      2499 8.10699E-09 6.05106E-10 1.43990E-09
 -1      2500-3.20834E-08 3.01777E-08-2.42512E-08
 -1      2501-2.53101E-08 5.22060E-08-4.24812E-08
 -1      2502-1.52106E-08 6.66737E-08-5.31213E-08
 -1      2503-6.62065E-09 7.21463E-08-5.58261E-08
 -1      2504-1.88404E-09 7.30944E-08-5.52874E-08
 -1      2505 1.56628E-10 7.27873E-08-5.44694E-08
 -1      2506 1.00546E-09 7.24839E-08-5.41052E-08
 -1      2507 1.45303E-09 7.23807E-08-5.40419E-08
 -1      2508 1.76029E-09 7.23878E-08-5.40749E-08
 -1      2509 1.99517E-09 7.24238E-08-5.41159E-08
 -1      2510 2.19471E-09 7.24536E-08-5.41505E-08
 -1      2511 2.41697E-09 7.24515E-08-5.41781E-08
 -1      2512 2.74633E-09 7.23517E-08-5.41526E-08
 -1      2513 3.22817E-09 7.20204E-08-5.39115E-08
 -1      2514 3.65092E-09 7.13580E-08-5.32011E-08
 -1      2515 3.35246E-09 7.07082E-08-5.22341E-08
 -1      2516 2.33817E-09 7.14013E-08-5.29823E-08
 -1      2517 4.62676E-09 7.48322E-08-5.81247E-08
 -1      2518 1.66867E-08 7.52409E-08-6.15813E-08
 -1      2519 3.06096E-08 5.42541E-08-4.29105E-08
 -1      2520 2.90600E-08 2.12490E-08-1.21654E-08
 -1      2521 1.67896E-08 5.16918E-09 4.59006E-10
 -1      2522 8.57743E-09 7.79561E-10 1.31596E-09
 -1      2523-3.03183E-08 3.35370E-08-1.86266E-08
 -1      2524-2.47650E-08 5.69002E-08-3.17075E-08
 -1      2525-1.55854E-08 7.27504E-08-3.98492E-08
 -1      2526-7.17130E-09 7.88968E-08-4.22049E-08
 -1      2527-2.26896E-09 8.00848E-08-4.19137E-08
 -1      2528-7.01325E-11 7.98345E-08-4.13132E-08
 -1      2529 8.50420E-10 7.95481E-08-4.10556E-08
 -1      2530 1.32037E-09 7.94622E-08-4.10367E-08
 -1      2531 1.63539E-09 7.94870E-08-4.10878E-08
 -1      2532 1.87618E-09 7.95365E-08-4.11361E-08
 -1      2533 2.08326E-09 7.95737E-08-4.11722E-08
 -1      2534 2.31617E-09 7.95706E-08-4.11976E-08
 -1      2535 2.65632E-09 7.94540E-08-4.11720E-08
 -1      2536 3.12990E-09 7.90770E-08-4.09558E-08
 -1      2537 3.49342E-09 7.83411E-08-4.03578E-08
 -1      2538 3.15526E-09 7.76407E-08-3.96475E-08
 -1      2539 2.45516E-09 7.84109E-08-4.04707E-08
 -1      2540 5.44149E-09 8.20170E-08-4.44069E-08
 -1      2541 1.69284E-08 8.17818E-08-4.60210E-08
 -1      2542 2.92732E-08 5.90022E-08-3.21000E-08
 -1      2543 2.82623E-08 2.39106E-08-1.00344E-08
 -1      2544 1.73475E-08 6.02832E-09 2.09613E-10
 -1      2545 9.17749E-09 1.00278E-09 1.20653E-09
 -1      2546-3.63500E-08-3.76266E-08-2.68201E-08
 -1      2547-2.89538E-08-6.50254E-08-4.43645E-08
 -1      2548-1.82777E-08-8.32314E-08-5.56598E-08
 -1      2549-8.78784E-09-9.01920E-08-5.84852E-08
 -1      2550-3.02261E-09-9.15395E-08-5.76316E-08
 -1      2551-1.84850E-10-9.12930E-08-5.65686E-08
 -1      2552 1.17770E-09-9.10152E-08-5.61281E-08
 -1      2553 1.92482E-09-9.09552E-08-5.60777E-08
 -1      2554 2.40828E-09-9.10075E-08-5.61391E-08
 -1      2555 2.75718E-09-9.10772E-08-5.62005E-08
 -1      2556 3.04367E-09-9.11260E-08-5.62500E-08
 -1      2557 3.34479E-09-9.11256E-08-5.62937E-08
 -1      2558 3.75098E-09-9.09945E-08-5.62772E-08
 -1      2559 4.30428E-09-9.05639E-08-5.59911E-08
 -1      2560 4.82287E-09-8.97028E-08-5.51233E-08
 -1      2561 4.80170E-09-8.88172E-08-5.40147E-08
 -1      2562 4.47577E-09-8.94950E-08-5.52283E-08
 -1      2563 7.66803E-09-9.36702E-08-6.15448E-08
 -1      2564 1.95888E-08-9.48325E-08-6.47702E-08
 -1      2565 3.25414E-08-6.82751E-08-4.46978E-08
 -1      2566 3.13827E-08-2.61924E-08-1.25493E-08
 -1      2567 2.01315E-08-6.52052E-09 1.78911E-09
 -1      2568 1.21774E-08-1.07239E-09 2.14428E-09
 -1      2569-3.87492E-08-3.48680E-08-3.82180E-08
 -1      2570-2.97083E-08-6.17615E-08-6.56998E-08
 -1      2571-1.76877E-08-7.87967E-08-8.18449E-08
 -1      2572-7.96649E-09-8.50972E-08-8.54751E-08
 -1      2573-2.45236E-09-8.61691E-08-8.42587E-08
 -1      2574 1.71538E-10-8.58313E-08-8.28418E-08
 -1      2575 1.44113E-09-8.55150E-08-8.22236E-08
 -1      2576 2.15920E-09-8.54260E-08-8.21019E-08
 -1      2577 2.63248E-09-8.54551E-08-8.21379E-08
 -1      2578 2.97353E-09-8.55091E-08-8.21914E-08
 -1      2579 3.25013E-09-8.55499E-08-8.22409E-08
 -1      2580 3.53718E-09-8.55505E-08-8.22881E-08
 -1      2581 3.92865E-09-8.54357E-08-8.22656E-08
 -1      2582 4.48928E-09-8.50485E-08-8.19214E-08
 -1      2583 5.08349E-09-8.42541E-08-8.08378E-08
 -1      2584 5.15612E-09-8.34056E-08-7.92462E-08
 -1      2585 4.44502E-09-8.39996E-08-8.02346E-08
 -1      2586 6.48498E-09-8.80415E-08-8.86961E-08
 -1      2587 1.92192E-08-9.03212E-08-9.56168E-08
 -1      2588 3.47157E-08-6.50061E-08-6.61398E-08
 -1      2589 3.25966E-08-2.35454E-08-1.68351E-08
 -1      2590 1.92152E-08-5.67730E-09 1.96808E-09
 -1      2591 1.13583E-08-8.43827E-10 2.22358E-09
 -1      2592-4.39057E-08-2.97989E-08-5.30373E-08
 -1      2593-3.27600E-08-5.40252E-08-9.43160E-08
 -1      2594-1.81899E-08-6.87717E-08-1.17142E-07
 -1      2595-7.33553E-09-7.40512E-08-1.21909E-07
 -1      2596-1.78121E-09-7.48611E-08-1.20236E-07
 -1      2597 6.55757E-10-7.45063E-08-1.18375E-07
 -1      2598 1.80231E-09-7.42003E-08-1.17546E-07
 -1      2599 2.47043E-09-7.41033E-08-1.17351E-07
 -1      2600 2.92742E-09-7.41158E-08-1.17368E-07
 -1      2601 3.26094E-09-7.41552E-08-1.17420E-07
 -1      2602 3.52994E-09-7.41873E-08-1.17474E-07
 -1      2603 3.80915E-09-7.41882E-08-1.17527E-07
 -1      2604 4.20497E-09-7.40940E-08-1.17496E-07
 -1      2605 4.81224E-09-7.37709E-08-1.17067E-07
 -1      2606 5.52422E-09-7.30948E-08-1.15678E-07
 -1      2607 5.64075E-09-7.23506E-08-1.13402E-07
 -1      2608 4.16151E-09-7.28072E-08-1.14045E-07
 -1      2609 4.77203E-09-7.63920E-08-1.25490E-07
 -1      2610 2.00000E-08-7.94024E-08-1.37953E-07
 -1      2611 4.06421E-08-5.72654E-08-9.57659E-08
 -1      2612 3.70913E-08-1.95752E-08-2.23304E-08
 -1      2613 1.93198E-08-4.61616E-09 2.34435E-09
 -1      2614 1.06311E-08-6.47351E-10 2.39875E-09
 -1      2615-4.94335E-08-2.18621E-08-6.72128E-08
 -1      2616-3.62890E-08-4.02907E-08-1.22204E-07
 -1      2617-1.90752E-08-5.12817E-08-1.51704E-07
 -1      2618-6.89317E-09-5.51319E-08-1.57627E-07
 -1      2619-1.16736E-09-5.56882E-08-1.55524E-07
 -1      2620 1.12810E-09-5.54004E-08-1.53239E-07
 -1      2621 2.15997E-09-5.51592E-08-1.52214E-07
 -1      2622 2.77726E-09-5.50779E-08-1.51955E-07
 -1      2623 3.21774E-09-5.50812E-08-1.51958E-07
 -1      2624 3.54499E-09-5.51069E-08-1.52011E-07
 -1      2625 3.80867E-09-5.51291E-08-1.52070E-07
 -1      2626 4.08421E-09-5.51297E-08-1.52131E-07
 -1      2627 4.49202E-09-5.50619E-08-1.52090E-07
 -1      2628 5.15450E-09-5.48274E-08-1.51576E-07
 -1      2629 5.98136E-09-5.43324E-08-1.49883E-07
 -1      2630 6.10327E-09-5.37812E-08-1.46931E-07
 -1      2631 3.82136E-09-5.40920E-08-1.47236E-07
 -1      2632 3.14374E-09-5.68301E-08-1.61712E-07
 -1      2633 2.11224E-08-5.95482E-08-1.79853E-07
 -1      2634 4.71649E-08-4.31222E-08-1.25389E-07
 -1      2635 4.22703E-08-1.42071E-08-2.76869E-08
 -1      2636 1.98675E-08-3.28873E-09 2.78739E-09
 -1      2637 1.00723E-08-4.51123E-10 2.60327E-09
 -1      2638-5.34325E-08-1.15218E-08-7.69332E-08
 -1      2639-3.89078E-08-2.14226E-08-1.41518E-07
 -1      2640-1.98154E-08-2.72956E-08-1.75782E-07
 -1      2641-6.63657E-09-2.93338E-08-1.82551E-07
 -1      2642-7.45681E-10-2.96225E-08-1.80159E-07
 -1      2643 1.46488E-09-2.94647E-08-1.77583E-07
 -1      2644 2.41824E-09-2.93327E-08-1.76422E-07
 -1      2645 2.99924E-09-2.92868E-08-1.76120E-07
 -1      2646 3.42778E-09-2.92867E-08-1.76115E-07
 -1      2647 3.75088E-09-2.92994E-08-1.76169E-07
 -1      2648 4.01140E-09-2.93107E-08-1.76233E-07
 -1      2649 4.28567E-09-2.93110E-08-1.76298E-07
 -1      2650 4.70412E-09-2.92753E-08-1.76250E-07
 -1      2651 5.40800E-09-2.91518E-08-1.75675E-07
 -1      2652 6.31410E-09-2.88911E-08-1.73768E-07
 -1      2653 6.42150E-09-2.86013E-08-1.70347E-07
 -1      2654 3.55832E-09-2.87627E-08-1.70433E-07
 -1      2655 2.04798E-09-3.02528E-08-1.87128E-07
 -1      2656 2.20093E-08-3.18031E-08-2.09249E-07
 -1      2657 5.18747E-08-2.31241E-08-1.46408E-07
 -1      2658 4.61167E-08-7.50506E-09-3.15431E-08
 -1      2659 2.04094E-08-1.71666E-09 3.13686E-09
 -1      2660 9.72642E-09-2.34414E-10 2.76226E-09
 -1      2661-5.48612E-08-1.15945E-15-8.03186E-08
 -1      2662-3.98532E-08-9.31776E-16-1.48272E-07
 -1      2663-2.00958E-08-5.32112E-16-1.84239E-07
 -1      2664-6.55395E-09-3.63235E-16-1.91318E-07
 -1      2665-5.96895E-10-2.98392E-16-1.88827E-07
 -1      2666 1.58590E-09-2.77151E-16-1.86149E-07
 -1      2667 2.51175E-09-2.78137E-16-1.84941E-07
 -1      2668 3.07975E-09-2.90373E-16-1.84623E-07
 -1      2669 3.50397E-09-3.05785E-16-1.84615E-07
 -1      2670 3.82563E-09-3.16918E-16-1.84670E-07
 -1      2671 4.08511E-09-3.13512E-16-1.84735E-07
 -1      2672 4.35911E-09-2.76783E-16-1.84802E-07
 -1      2673 4.78169E-09-1.82239E-16-1.84752E-07
 -1      2674 5.50051E-09-5.86161E-17-1.84155E-07
 -1      2675 6.43459E-09 3.04962E-17-1.82172E-07
 -1      2676 6.53239E-09 7.25474E-17-1.78586E-07
 -1      2677 3.45978E-09 9.54373E-17-1.78602E-07
 -1      2678 1.67330E-09 1.07576E-16-1.96104E-07
 -1      2679 2.23378E-08 9.37324E-17-2.19613E-07
 -1      2680 5.35465E-08 5.62850E-17-1.53876E-07
 -1      2681 4.75058E-08 2.56625E-17-3.29436E-08
 -1      2682 2.06301E-08 8.67806E-18 3.26635E-09
 -1      2683 9.61060E-09 6.10993E-19 2.82188E-09
 -1      2684-5.34325E-08 1.15218E-08-7.69332E-08
 -1      2685-3.89077E-08 2.14226E-08-1.41518E-07
 -1      2686-1.98154E-08 2.72956E-08-1.75782E-07
 -1      2687-6.63657E-09 2.93338E-08-1.82551E-07
 -1      2688-7.45681E-10 2.96225E-08-1.80159E-07
 -1      2689 1.46488E-09 2.94647E-08-1.77583E-07
 -1      2690 2.41824E-09 2.93327E-08-1.76422E-07
 -1      2691 2.99924E-09 2.92868E-08-1.76120E-07
 -1      2692 3.42778E-09 2.92867E-08-1.76115E-07
 -1      2693 3.75088E-09 2.92994E-08-1.76169E-07
 -1      2694 4.01140E-09 2.93107E-08-1.76233E-07
 -1      2695 4.28567E-09 2.93110E-08-1.76298E-07
 -1      2696 4.70412E-09 2.92753E-08-1.76250E-07
 -1      2697 5.40800E-09 2.91518E-08-1.75675E-07
 -1      2698 6.31410E-09 2.88911E-08-1.73768E-07
 -1      2699 6.42150E-09 2.86013E-08-1.70347E-07
 -1      2700 3.55832E-09 2.87627E-08-1.70433E-07
 -1      2701 2.04798E-09 3.02528E-08-1.87128E-07
 -1      2702 2.20093E-08 3.18031E-08-2.09249E-07
 -1      2703 5.18747E-08 2.31241E-08-1.46408E-07
 -1      2704 4.61167E-08 7.50506E-09-3.15431E-08
 -1      2705 2.04094E-08 1.71666E-09 3.13686E-09
 -1      2706 9.72642E-09 2.34414E-10 2.76226E-09
 -1      2707-4.94335E-08 2.18621E-08-6.72128E-08
 -1      2708-3.62890E-08 4.02907E-08-1.22204E-07
 -1      2709-1.90752E-08 5.12817E-08-1.51704E-07
 -1      2710-6.89317E-09 5.51319E-08-1.57627E-07
 -1      2711-1.16736E-09 5.56882E-08-1.55524E-07
 -1      2712 1.12810E-09 5.54004E-08-1.53239E-07
 -1      2713 2.15997E-09 5.51592E-08-1.52214E-07
 -1      2714 2.77726E-09 5.50779E-08-1.51955E-07
 -1      2715 3.21774E-09 5.50812E-08-1.51958E-07
 -1      2716 3.54499E-09 5.51069E-08-1.52011E-07
 -1      2717 3.80867E-09 5.51291E-08-1.52070E-07
 -1      2718 4.08421E-09 5.51297E-08-1.52131E-07
 -1      2719 4.49202E-09 5.50619E-08-1.52090E-07
 -1      2720 5.15450E-09 5.48274E-08-1.51576E-07
 -1      2721 5.98136E-09 5.43324E-08-1.49883E-07
 -1      2722 6.10327E-09 5.37812E-08-1.46931E-07
 -1      2723 3.82136E-09 5.40920E-08-1.47236E-07
 -1      2724 3.14374E-09 5.68301E-08-1.61712E-07
 -1      2725 2.11224E-08 5.95482E-08-1.79853E-07
 -1      2726 4.71649E-08 4.31222E-08-1.25389E-07
 -1      2727 4.22703E-08 1.42071E-08-2.76869E-08
 -1      2728 1.98675E-08 3.28873E-09 2.78739E-09
 -1      2729 1.00723E-08 4.51123E-10 2.60327E-09
 -1      2730-4.39057E-08 2.97989E-08-5.30373E-08
 -1      2731-3.27600E-08 5.40252E-08-9.43160E-08
 -1      2732-1.81899E-08 6.87717E-08-1.17142E-07
 -1      2733-7.33553E-09 7.40512E-08-1.21909E-07
 -1      2734-1.78121E-09 7.48611E-08-1.20236E-07
 -1      2735 6.55757E-10 7.45063E-08-1.18375E-07
 -1      2736 1.80231E-09 7.42003E-08-1.17546E-07
 -1      2737 2.47043E-09 7.41033E-08-1.17351E-07
 -1      2738 2.92742E-09 7.41158E-08-1.17368E-07
 -1      2739 3.26094E-09 7.41552E-08-1.17420E-07
 -1      2740 3.52994E-09 7.41873E-08-1.17474E-07
 -1      2741 3.80915E-09 7.41882E-08-1.17527E-07
 -1      2742 4.20497E-09 7.40940E-08-1.17496E-07
 -1      2743 4.81224E-09 7.37709E-08-1.17067E-07
 -1      2744 5.52422E-09 7.30948E-08-1.15678E-07
 -1      2745 5.64075E-09 7.23506E-08-1.13402E-07
 -1      2746 4.16151E-09 7.28072E-08-1.14045E-07
 -1      2747 4.77203E-09 7.63920E-08-1.25490E-07
 -1      2748 2.00000E-08 7.94024E-08-1.37953E-07
 -1      2749 4.06421E-08 5.72654E-08-9.57659E-08
 -1      2750 3.70913E-08 1.95752E-08-2.23304E-08
 -1      2751 1.93198E-08 4.61616E-09 2.34435E-09
 -1      2752 1.06311E-08 6.47351E-10 2.39875E-09
 -1      2753-3.87492E-08 3.48680E-08-3.82180E-08
 -1      2754-2.97083E-08 6.17615E-08-6.56998E-08
 -1      2755-1.76877E-08 7.87967E-08-8.18449E-08
 -1      2756-7.96649E-09 8.50972E-08-8.54751E-08
 -1      2757-2.45236E-09 8.61691E-08-8.42587E-08
 -1      2758 1.71538E-10 8.58313E-08-8.28418E-08
 -1      2759 1.44113E-09 8.55150E-08-8.22236E-08
 -1      2760 2.15920E-09 8.54260E-08-8.21019E-08
 -1      2761 2.63248E-09 8.54551E-08-8.21379E-08
 -1      2762 2.97353E-09 8.55091E-08-8.21914E-08
 -1      2763 3.25013E-09 8.55499E-08-8.22409E-08
 -1      2764 3.53718E-09 8.55505E-08-8.22881E-08
 -1      2765 3.92865E-09 8.54357E-08-8.22656E-08
 -1      2766 4.48928E-09 8.50485E-08-8.19214E-08
 -1      2767 5.08349E-09 8.42541E-08-8.08378E-08
 -1      2768 5.15612E-09 8.34056E-08-7.92462E-08
 -1      2769 4.44502E-09 8.39996E-08-8.02346E-08
 -1      2770 6.48498E-09 8.80415E-08-8.86961E-08
 -1      2771 1.92192E-08 9.03212E-08-9.56168E-08
 -1      2772 3.47157E-08 6.50061E-08-6.61398E-08
 -1      2773 3.25966E-08 2.35454E-08-1.68351E-08
 -1      2774 1.92152E-08 5.67730E-09 1.96808E-09
 -1      2775 1.13583E-08 8.43827E-10 2.22358E-09
 -1      2776-3.63500E-08 3.76266E-08-2.68201E-08
 -1      2777-2.89538E-08 6.50254E-08-4.43645E-08
 -1      2778-1.82777E-08 8.32314E-08-5.56598E-08
 -1      2779-8.78784E-09 9.01920E-08-5.84852E-08
 -1      2780-3.02260E-09 9.15395E-08-5.76316E-08
 -1      2781-1.84850E-10 9.12930E-08-5.65686E-08
 -1      2782 1.17770E-09 9.10152E-08-5.61281E-08
 -1      2783 1.92482E-09 9.09552E-08-5.60777E-08
 -1      2784 2.40828E-09 9.10075E-08-5.61391E-08
 -1      2785 2.75718E-09 9.10772E-08-5.62005E-08
 -1      2786 3.04367E-09 9.11260E-08-5.62500E-08
 -1      2787 3.34479E-09 9.11256E-08-5.62937E-08
 -1      2788 3.75098E-09 9.09945E-08-5.62772E-08
 -1      2789 4.30428E-09 9.05639E-08-5.59911E-08
 -1      2790 4.82287E-09 8.97028E-08-5.51233E-08
 -1      2791 4.80170E-09 8.88172E-08-5.40147E-08
 -1      2792 4.47577E-09 8.94950E-08-5.52283E-08
 -1      2793 7.66803E-09 9.36702E-08-6.15448E-08
 -1      2794 1.95888E-08 9.48325E-08-6.47702E-08
 -1      2795 3.25414E-08 6.82751E-08-4.46978E-08
 -1      2796 3.13827E-08 2.61924E-08-1.25493E-08
 -1      2797 2.01315E-08 6.52052E-09 1.78911E-09
 -1      2798 1.21774E-08 1.07239E-09 2.14428E-09
 -1      2799-3.55077E-08-3.14903E-08-3.19869E-08
 -1      2800-2.79975E-08-5.61035E-08-5.19427E-08
 -1      2801-1.79274E-08-7.21075E-08-6.49669E-08
 -1      2802-9.22600E-09-7.82577E-08-6.78410E-08
 -1      2803-3.56607E-09-7.95016E-08-6.64290E-08
 -1      2804-3.61471E-10-7.93742E-08-6.49646E-08
 -1      2805 1.41225E-09-7.92205E-08-6.43585E-08
 -1      2806 2.44088E-09-7.92377E-08-6.42644E-08
 -1      2807 3.08433E-09-7.93293E-08-6.43197E-08
 -1      2808 3.52483E-09-7.94163E-08-6.43824E-08
 -1      2809 3.87101E-09-7.94719E-08-6.44378E-08
 -1      2810 4.20885E-09-7.94771E-08-6.44958E-08
 -1      2811 4.61740E-09-7.93622E-08-6.44936E-08
 -1      2812 5.14823E-09-7.89748E-08-6.41753E-08
 -1      2813 5.76814E-09-7.81816E-08-6.31455E-08
 -1      2814 6.30925E-09-7.73040E-08-6.17658E-08
 -1      2815 6.87084E-09-7.76989E-08-6.32336E-08
 -1      2816 9.65363E-09-8.12740E-08-7.14245E-08
 -1      2817 1.87308E-08-8.40599E-08-7.58195E-08
 -1      2818 2.87224E-08-6.04077E-08-5.18367E-08
 -1      2819 2.77246E-08-2.14270E-08-1.35024E-08
 -1      2820 1.94083E-08-5.35871E-09 3.47022E-09
 -1      2821 1.40306E-08-8.12455E-10 2.93575E-09
 -1      2822-3.78809E-08-3.08257E-08-4.99676E-08
 -1      2823-2.85546E-08-5.70549E-08-8.55841E-08
 -1      2824-1.69083E-08-7.26371E-08-1.06009E-07
 -1      2825-8.08656E-09-7.82770E-08-1.10100E-07
 -1      2826-2.79292E-09-7.92185E-08-1.08203E-07
 -1      2827 1.60362E-10-7.89489E-08-1.06246E-07
 -1      2828 1.83201E-09-7.87221E-08-1.05391E-07
 -1      2829 2.83037E-09-7.86931E-08-1.05201E-07
 -1      2830 3.46290E-09-7.87553E-08-1.05226E-07
 -1      2831 3.89437E-09-7.88250E-08-1.05281E-07
 -1      2832 4.22900E-09-7.88729E-08-1.05339E-07
 -1      2833 4.55002E-09-7.88790E-08-1.05402E-07
 -1      2834 4.93855E-09-7.87762E-08-1.05387E-07
 -1      2835 5.46976E-09-7.84190E-08-1.04973E-07
 -1      2836 6.16038E-09-7.76655E-08-1.03617E-07
 -1      2837 6.85235E-09-7.67680E-08-1.01510E-07
 -1      2838 7.12244E-09-7.70456E-08-1.02449E-07
 -1      2839 8.29378E-09-8.04962E-08-1.13667E-07
 -1      2840 1.80789E-08-8.56196E-08-1.24653E-07
 -1      2841 3.12864E-08-6.14758E-08-8.56262E-08
 -1      2842 2.88218E-08-1.90950E-08-1.95894E-08
 -1      2843 1.79260E-08-4.78343E-09 3.57528E-09
 -1      2844 1.30794E-08-6.40042E-10 2.89431E-09
 -1      2845-4.31693E-08-2.73702E-08-7.29222E-08
 -1      2846-3.14034E-08-5.24849E-08-1.31174E-07
 -1      2847-1.67550E-08-6.64217E-08-1.61514E-07
 -1      2848-6.99199E-09-7.11875E-08-1.66964E-07
 -1      2849-1.83958E-09-7.18517E-08-1.64289E-07
 -1      2850 8.72065E-10-7.15240E-08-1.61665E-07
 -1      2851 2.40786E-09-7.12768E-08-1.60507E-07
 -1      2852 3.35800E-09-7.12232E-08-1.60218E-07
 -1      2853 3.97606E-09-7.12615E-08-1.60220E-07
 -1      2854 4.40036E-09-7.13140E-08-1.60275E-07
 -1      2855 4.72608E-09-7.13524E-08-1.60341E-07
 -1      2856 5.03604E-09-7.13584E-08-1.60415E-07
 -1      2857 5.42108E-09-7.12728E-08-1.60389E-07
 -1      2858 5.99330E-09-7.09694E-08-1.59852E-07
 -1      2859 6.79463E-09-7.03128E-08-1.58045E-07
 -1      2860 7.63081E-09-6.94865E-08-1.54871E-07
 -1      2861 7.31703E-09-6.96219E-08-1.54879E-07
 -1      2862 6.12337E-09-7.27234E-08-1.70207E-07
 -1      2863 1.82303E-08-7.92191E-08-1.92738E-07
 -1      2864 3.81626E-08-5.71732E-08-1.33044E-07
 -1      2865 3.32983E-08-1.56178E-08-2.55674E-08
 -1      2866 1.69950E-08-3.93883E-09 4.34605E-09
 -1      2867 1.21804E-08-4.89838E-10 2.99712E-09
 -1      2868-4.88504E-08-2.00052E-08-9.45685E-08
 -1      2869-3.47902E-08-3.92313E-08-1.75454E-07
 -1      2870-1.70200E-08-4.96951E-08-2.15741E-07
 -1      2871-6.10204E-09-5.31807E-08-2.22541E-07
 -1      2872-9.52162E-10-5.36329E-08-2.19109E-07
 -1      2873 1.56828E-09-5.33646E-08-2.15842E-07
 -1      2874 2.97808E-09-5.31635E-08-2.14398E-07
 -1      2875 3.87952E-09-5.31114E-08-2.14020E-07
 -1      2876 4.48337E-09-5.31321E-08-2.14005E-07
 -1      2877 4.90220E-09-5.31669E-08-2.14064E-07
 -1      2878 5.22168E-09-5.31936E-08-2.14139E-07
 -1      2879 5.52520E-09-5.31977E-08-2.14224E-07
 -1      2880 5.91538E-09-5.31357E-08-2.14188E-07
 -1      2881 6.53777E-09-5.29154E-08-2.13529E-07
 -1      2882 7.44622E-09-5.24371E-08-2.11277E-07
 -1      2883 8.38635E-09-5.18334E-08-2.07052E-07
 -1      2884 7.44515E-09-5.19034E-08-2.06136E-07
 -1      2885 4.02574E-09-5.43270E-08-2.25723E-07
 -1      2886 1.86614E-08-5.96998E-08-2.60187E-07
 -1      2887 4.57038E-08-4.35697E-08-1.80885E-07
 -1      2888 3.85849E-08-1.12387E-08-3.10963E-08
 -1      2889 1.65063E-08-2.80663E-09 5.31940E-09
 -1      2890 1.14590E-08-3.44856E-10 3.15642E-09
 -1      2891-5.26910E-08-1.01767E-08-1.08359E-07
 -1      2892-3.71647E-08-2.01395E-08-2.03990E-07
 -1      2893-1.73244E-08-2.56608E-08-2.51144E-07
 -1      2894-5.55013E-09-2.75065E-08-2.58954E-07
 -1      2895-3.51200E-10-2.77562E-08-2.55054E-07
 -1      2896 2.05480E-09-2.76182E-08-2.51371E-07
 -1      2897 3.38214E-09-2.75102E-08-2.49740E-07
 -1      2898 4.24969E-09-2.74798E-08-2.49304E-07
 -1      2899 4.84352E-09-2.74885E-08-2.49278E-07
 -1      2900 5.25887E-09-2.75056E-08-2.49340E-07
 -1      2901 5.57475E-09-2.75191E-08-2.49422E-07
 -1      2902 5.87499E-09-2.75208E-08-2.49513E-07
 -1      2903 6.27165E-09-2.74880E-08-2.49469E-07
 -1      2904 6.92836E-09-2.73734E-08-2.48727E-07
 -1      2905 7.90882E-09-2.71280E-08-2.46180E-07
 -1      2906 8.89264E-09-2.68316E-08-2.41273E-07
 -1      2907 7.46712E-09-2.68769E-08-2.39803E-07
 -1      2908 2.75239E-09-2.82382E-08-2.62579E-07
 -1      2909 1.90571E-08-3.08842E-08-3.04471E-07
 -1      2910 5.06676E-08-2.28388E-08-2.13086E-07
 -1      2911 4.23116E-08-5.98226E-09-3.53065E-08
 -1      2912 1.63994E-08-1.45007E-09 6.08639E-09
 -1      2913 1.09924E-08-1.84997E-10 3.29391E-09
 -1      2914-5.39683E-08-1.94766E-15-1.12807E-07
 -1      2915-3.79658E-08-1.18365E-15-2.13222E-07
 -1      2916-1.74466E-08-6.39704E-16-2.62740E-07
 -1      2917-5.36743E-09-4.72014E-16-2.70928E-07
 -1      2918-1.42019E-10-4.18794E-16-2.66882E-07
 -1      2919 2.22717E-09-4.06584E-16-2.63064E-07
 -1      2920 3.52681E-09-4.17761E-16-2.61371E-07
 -1      2921 4.38256E-09-4.40957E-16-2.60915E-07
 -1      2922 4.97284E-09-4.66568E-16-2.60885E-07
 -1      2923 5.38700E-09-4.85038E-16-2.60947E-07
 -1      2924 5.70170E-09-4.83152E-16-2.61032E-07
 -1      2925 6.00098E-09-4.36400E-16-2.61125E-07
 -1      2926 6.40028E-09-2.91259E-16-2.61078E-07
 -1      2927 7.06857E-09-7.60624E-17-2.60308E-07
 -1      2928 8.07296E-09 5.54121E-17-2.57662E-07
 -1      2929 9.06635E-09 1.10921E-16-2.52531E-07
 -1      2930 7.45401E-09 1.43075E-16-2.50902E-07
 -1      2931 2.36915E-09 1.69894E-16-2.74856E-07
 -1      2932 1.92237E-08 1.52030E-16-3.18996E-07
 -1      2933 5.22553E-08 8.19991E-17-2.23860E-07
 -1      2934 4.35757E-08 3.48163E-17-3.69335E-08
 -1      2935 1.64213E-08 1.18205E-17 6.37293E-09
 -1      2936 1.08281E-08 1.37762E-18 3.35049E-09
 -1      2937-5.26910E-08 1.01767E-08-1.08359E-07
 -1      2938-3.71647E-08 2.01395E-08-2.03990E-07
 -1      2939-1.73244E-08 2.56608E-08-2.51144E-07
 -1      2940-5.55013E-09 2.75065E-08-2.58954E-07
 -1      2941-3.51200E-10 2.77562E-08-2.55054E-07
 -1      2942 2.05480E-09 2.76182E-08-2.51371E-07
 -1      2943 3.38214E-09 2.75102E-08-2.49740E-07
 -1      2944 4.24969E-09 2.74798E-08-2.49304E-07
 -1      2945 4.84352E-09 2.74885E-08-2.49278E-07
 -1      2946 5.25887E-09 2.75056E-08-2.49340E-07
 -1      2947 5.57475E-09 2.75191E-08-2.49422E-07
 -1      2948 5.87499E-09 2.75208E-08-2.49513E-07
 -1      2949 6.27165E-09 2.74880E-08-2.49469E-07
 -1      2950 6.92836E-09 2.73734E-08-2.48727E-07
 -1      2951 7.90882E-09 2.71280E-08-2.46180E-07
 -1      2952 8.89264E-09 2.68316E-08-2.41273E-07
 -1      2953 7.46712E-09 2.68769E-08-2.39803E-07
 -1      2954 2.75239E-09 2.82382E-08-2.62579E-07
 -1      2955 1.90571E-08 3.08842E-08-3.04471E-07
 -1      2956 5.06676E-08 2.28388E-08-2.13086E-07
 -1      2957 4.23116E-08 5.98226E-09-3.53065E-08
 -1      2958 1.63994E-08 1.45007E-09 6.08639E-09
 -1      2959 1.09924E-08 1.84997E-10 3.29391E-09
 -1      2960-4.88504E-08 2.00052E-08-9.45685E-08
 -1      2961-3.47902E-08 3.92313E-08-1.75454E-07
 -1      2962-1.70200E-08 4.96951E-08-2.15741E-07
 -1      2963-6.10204E-09 5.31807E-08-2.22541E-07
 -1      2964-9.52162E-10 5.36329E-08-2.19109E-07
 -1      2965 1.56828E-09 5.33646E-08-2.15842E-07
 -1      2966 2.97808E-09 5.31635E-08-2.14398E-07
 -1      2967 3.87952E-09 5.31114E-08-2.14020E-07
 -1      2968 4.48337E-09 5.31321E-08-2.14005E-07
 -1      2969 4.90220E-09 5.31669E-08-2.14064E-07
 -1      2970 5.22168E-09 5.31936E-08-2.14139E-07
 -1      2971 5.52520E-09 5.31977E-08-2.14224E-07
 -1      2972 5.91538E-09 5.31357E-08-2.14188E-07
 -1      2973 6.53777E-09 5.29154E-08-2.13529E-07
 -1      2974 7.44622E-09 5.24371E-08-2.11277E-07
 -1      2975 8.38635E-09 5.18334E-08-2.07052E-07
 -1      2976 7.44515E-09 5.19034E-08-2.06136E-07
 -1      2977 4.02574E-09 5.43270E-08-2.25723E-07
 -1      2978 1.86614E-08 5.96998E-08-2.60187E-07
 -1      2979 4.57038E-08 4.35697E-08-1.80885E-07
 -1      2980 3.85849E-08 1.12387E-08-3.10963E-08
 -1      2981 1.65063E-08 2.80663E-09 5.31940E-09
 -1      2982 1.14590E-08 3.44856E-10 3.15642E-09
 -1      2983-4.31693E-08 2.73702E-08-7.29222E-08
 -1      2984-3.14034E-08 5.24849E-08-1.31174E-07
 -1      2985-1.67550E-08 6.64217E-08-1.61514E-07
 -1      2986-6.99199E-09 7.11875E-08-1.66964E-07
 -1      2987-1.83958E-09 7.18517E-08-1.64289E-07
 -1      2988 8.72066E-10 7.15240E-08-1.61665E-07
 -1      2989 2.40786E-09 7.12768E-08-1.60507E-07
 -1      2990 3.35800E-09 7.12232E-08-1.60218E-07
 -1      2991 3.97606E-09 7.12615E-08-1.60220E-07
 -1      2992 4.40036E-09 7.13139E-08-1.60275E-07
 -1      2993 4.72608E-09 7.13524E-08-1.60341E-07
 -1      2994 5.03604E-09 7.13584E-08-1.60415E-07
 -1      2995 5.42108E-09 7.12728E-08-1.60389E-07
 -1      2996 5.99330E-09 7.09694E-08-1.59852E-07
 -1      2997 6.79463E-09 7.03128E-08-1.58045E-07
 -1      2998 7.63081E-09 6.94865E-08-1.54871E-07
 -1      2999 7.31703E-09 6.96219E-08-1.54879E-07
 -1      3000 6.12337E-09 7.27234E-08-1.70207E-07
 -1      3001 1.82303E-08 7.92191E-08-1.92738E-07
 -1      3002 3.81626E-08 5.71732E-08-1.33044E-07
 -1      3003 3.32983E-08 1.56178E-08-2.55674E-08
 -1      3004 1.69950E-08 3.93883E-09 4.34605E-09
 -1      3005 1.21804E-08 4.89838E-10 2.99712E-09
 -1      3006-3.78809E-08 3.08257E-08-4.99676E-08
 -1      3007-2.85546E-08 5.70549E-08-8.55841E-08
 -1      3008-1.69083E-08 7.26371E-08-1.06009E-07
 -1      3009-8.08655E-09 7.82770E-08-1.10100E-07
 -1      3010-2.79292E-09 7.92185E-08-1.08203E-07
 -1      3011 1.60363E-10 7.89489E-08-1.06246E-07
 -1      3012 1.83201E-09 7.87221E-08-1.05391E-07
 -1      3013 2.83037E-09 7.86931E-08-1.05201E-07
 -1      3014 3.46290E-09 7.87553E-08-1.05226E-07
 -1      3015 3.89437E-09 7.88250E-08-1.05281E-07
 -1      3016 4.22900E-09 7.88729E-08-1.05339E-07
 -1      3017 4.55002E-09 7.88790E-08-1.05402E-07
 -1      3018 4.93855E-09 7.87762E-08-1.05387E-07
 -1      3019 5.46976E-09 7.84190E-08-1.04973E-07
 -1      3020 6.16038E-09 7.76655E-08-1.03617E-07
 -1      3021 6.85235E-09 7.67680E-08-1.01510E-07
 -1      3022 7.12244E-09 7.70456E-08-1.02449E-07
 -1      3023 8.29378E-09 8.04962E-08-1.13667E-07
 -1      3024 1.80789E-08 8.56196E-08-1.24653E-07
 -1      3025 3.12864E-08 6.14758E-08-8.56262E-08
 -1      3026 2.88218E-08 1.90950E-08-1.95894E-08
 -1      3027 1.79260E-08 4.78343E-09 3.57528E-09
 -1      3028 1.30794E-08 6.40042E-10 2.89431E-09
 -1      3029-3.55077E-08 3.14903E-08-3.19869E-08
 -1      3030-2.79975E-08 5.61035E-08-5.19427E-08
 -1      3031-1.79274E-08 7.21075E-08-6.49669E-08
 -1      3032-9.22600E-09 7.82577E-08-6.78410E-08
 -1      3033-3.56607E-09 7.95016E-08-6.64290E-08
 -1      3034-3.61471E-10 7.93742E-08-6.49646E-08
 -1      3035 1.41225E-09 7.92205E-08-6.43585E-08
 -1      3036 2.44088E-09 7.92377E-08-6.42644E-08
 -1      3037 3.08433E-09 7.93293E-08-6.43197E-08
 -1      3038 3.52483E-09 7.94162E-08-6.43824E-08
 -1      3039 3.87101E-09 7.94719E-08-6.44378E-08
 -1      3040 4.20885E-09 7.94771E-08-6.44958E-08
 -1      3041 4.61740E-09 7.93622E-08-6.44936E-08
 -1      3042 5.14823E-09 7.89748E-08-6.41753E-08
 -1      3043 5.76814E-09 7.81816E-08-6.31455E-08
 -1      3044 6.30925E-09 7.73040E-08-6.17658E-08
 -1      3045 6.87084E-09 7.76989E-08-6.32336E-08
 -1      3046 9.65363E-09 8.12740E-08-7.14245E-08
 -1      3047 1.87308E-08 8.40599E-08-7.58195E-08
 -1      3048 2.87224E-08 6.04077E-08-5.18367E-08
 -1      3049 2.77246E-08 2.14270E-08-1.35024E-08
 -1      3050 1.94083E-08 5.35871E-09 3.47022E-09
 -1      3051 1.40306E-08 8.12455E-10 2.93575E-09
 -1      3052-2.94669E-08-1.50069E-08-3.39796E-08
 -1      3053-2.30360E-08-2.78835E-08-5.39917E-08
 -1      3054-1.55204E-08-3.72230E-08-6.75220E-08
 -1      3055-9.04977E-09-4.13818E-08-7.02851E-08
 -1      3056-4.08464E-09-4.25346E-08-6.85381E-08
 -1      3057-6.50653E-10-4.27221E-08-6.68192E-08
 -1      3058 1.50628E-09-4.28105E-08-6.60811E-08
 -1      3059 2.79033E-09-4.29480E-08-6.59302E-08
 -1      3060 3.56325E-09-4.30861E-08-6.59616E-08
 -1      3061 4.06867E-09-4.31862E-08-6.60140E-08
 -1      3062 4.45344E-09-4.32430E-08-6.60678E-08
 -1      3063 4.80467E-09-4.32529E-08-6.61321E-08
 -1      3064 5.17072E-09-4.31738E-08-6.61395E-08
 -1      3065 5.58803E-09-4.29090E-08-6.58162E-08
 -1      3066 6.19085E-09-4.23911E-08-6.47450E-08
 -1      3067 7.35374E-09-4.18685E-08-6.33224E-08
 -1      3068 9.40456E-09-4.20863E-08-6.49571E-08
 -1      3069 1.20131E-08-4.36820E-08-7.42148E-08
 -1      3070 1.55483E-08-4.55029E-08-7.82670E-08
 -1      3071 1.88607E-08-3.30497E-08-5.32045E-08
 -1      3072 1.86904E-08-1.17941E-08-1.40384E-08
 -1      3073 1.65832E-08-3.38859E-09 4.54126E-09
 -1      3074 1.53152E-08-4.15795E-10 3.34744E-09
 -1      3075-2.96225E-08-1.67386E-08-5.69388E-08
 -1      3076-2.17171E-08-3.34553E-08-9.69098E-08
 -1      3077-1.35193E-08-4.29685E-08-1.19625E-07
 -1      3078-7.55295E-09-4.67938E-08-1.23816E-07
 -1      3079-3.11413E-09-4.76256E-08-1.21510E-07
 -1      3080 6.86000E-11-4.76313E-08-1.19206E-07
 -1      3081 2.14527E-09-4.76119E-08-1.18173E-07
 -1      3082 3.41197E-09-4.76860E-08-1.17910E-07
 -1      3083 4.17822E-09-4.77884E-08-1.17907E-07
 -1      3084 4.67531E-09-4.78701E-08-1.17953E-07
 -1      3085 5.04789E-09-4.79197E-08-1.18012E-07
 -1      3086 5.37964E-09-4.79298E-08-1.18081E-07
 -1      3087 5.71538E-09-4.78584E-08-1.18070E-07
 -1      3088 6.10667E-09-4.76056E-08-1.17626E-07
 -1      3089 6.73041E-09-4.71119E-08-1.16147E-07
 -1      3090 8.02408E-09-4.64985E-08-1.13850E-07
 -1      3091 1.01378E-08-4.66116E-08-1.14604E-07
 -1      3092 1.15373E-08-4.77188E-08-1.27444E-07
 -1      3093 1.43965E-08-5.34856E-08-1.40636E-07
 -1      3094 1.85775E-08-3.84871E-08-9.60210E-08
 -1      3095 1.72299E-08-9.47702E-09-2.11594E-08
 -1      3096 1.44448E-08-3.35686E-09 4.62098E-09
 -1      3097 1.43561E-08-3.06494E-10 3.10450E-09
 -1      3098-3.27255E-08-1.65155E-08-9.09189E-08
 -1      3099-2.24406E-08-3.52799E-08-1.67453E-07
 -1      3100-1.18046E-08-4.42377E-08-2.03704E-07
 -1      3101-5.86108E-09-4.74762E-08-2.09293E-07
 -1      3102-1.78590E-09-4.80084E-08-2.05750E-07
 -1      3103 1.12068E-09-4.78931E-08-2.02469E-07
 -1      3104 3.08544E-09-4.78071E-08-2.01019E-07
 -1      3105 4.32150E-09-4.78345E-08-2.00626E-07
 -1      3106 5.08111E-09-4.79050E-08-2.00599E-07
 -1      3107 5.57344E-09-4.79677E-08-2.00650E-07
 -1      3108 5.93686E-09-4.80082E-08-2.00722E-07
 -1      3109 6.25325E-09-4.80175E-08-2.00809E-07
 -1      3110 6.57319E-09-4.79579E-08-2.00785E-07
 -1      3111 6.96659E-09-4.77353E-08-2.00175E-07
 -1      3112 7.67592E-09-4.72983E-08-1.98043E-07
 -1      3113 9.03799E-09-4.66544E-08-1.94179E-07
 -1      3114 1.13665E-08-4.66462E-08-1.93126E-07
 -1      3115 9.99497E-09-4.72589E-08-2.10067E-07
 -1      3116 1.33046E-08-5.61614E-08-2.46843E-07
 -1      3117 2.35942E-08-4.08328E-08-1.69294E-07
 -1      3118 1.88489E-08-6.40127E-09-2.45401E-08
 -1      3119 1.18868E-08-3.14086E-09 5.31734E-09
 -1      3120 1.36375E-08-1.90874E-10 3.03168E-09
 -1      3121-3.63715E-08-1.07968E-08-1.22559E-07
 -1      3122-2.39007E-08-2.39035E-08-2.36014E-07
 -1      3123-1.05879E-08-3.03816E-08-2.86134E-07
 -1      3124-4.38524E-09-3.27333E-08-2.93094E-07
 -1      3125-5.32073E-10-3.31626E-08-2.88359E-07
 -1      3126 2.15920E-09-3.30906E-08-2.84134E-07
 -1      3127 4.01957E-09-3.30196E-08-2.82287E-07
 -1      3128 5.22391E-09-3.30277E-08-2.81775E-07
 -1      3129 5.97667E-09-3.30707E-08-2.81730E-07
 -1      3130 6.46600E-09-3.31120E-08-2.81788E-07
 -1      3131 6.82308E-09-3.31393E-08-2.81875E-07
 -1      3132 7.12935E-09-3.31449E-08-2.81980E-07
 -1      3133 7.44290E-09-3.31001E-08-2.81944E-07
 -1      3134 7.85135E-09-3.29457E-08-2.81170E-07
 -1      3135 8.63913E-09-3.26481E-08-2.78393E-07
 -1      3136 1.00375E-08-3.22767E-08-2.73015E-07
 -1      3137 1.24951E-08-3.22501E-08-2.70156E-07
 -1      3138 8.51201E-09-3.29493E-08-2.91592E-07
 -1      3139 1.23970E-08-3.86778E-08-3.52606E-07
 -1      3140 2.96081E-08-2.93244E-08-2.44939E-07
 -1      3141 2.16488E-08-4.64227E-09-2.68913E-08
 -1      3142 9.72762E-09-2.24860E-09 6.30322E-09
 -1      3143 1.31407E-08-1.76618E-10 3.03821E-09
 -1      3144-3.80323E-08-4.26028E-09-1.38591E-07
 -1      3145-2.44685E-08-9.63080E-09-2.71220E-07
 -1      3146-9.89603E-09-1.27306E-08-3.29911E-07
 -1      3147-3.48664E-09-1.39693E-08-3.37978E-07
 -1      3148 2.59447E-10-1.42569E-08-3.32682E-07
 -1      3149 2.83541E-09-1.42540E-08-3.27966E-07
 -1      3150 4.63712E-09-1.42257E-08-3.25897E-07
 -1      3151 5.82170E-09-1.42291E-08-3.25317E-07
 -1      3152 6.57024E-09-1.42492E-08-3.25258E-07
 -1      3153 7.05784E-09-1.42691E-08-3.25320E-07
 -1      3154 7.41133E-09-1.42822E-08-3.25415E-07
 -1      3155 7.71218E-09-1.42839E-08-3.25528E-07
 -1      3156 8.02199E-09-1.42596E-08-3.25482E-07
 -1      3157 8.44188E-09-1.41853E-08-3.24608E-07
 -1      3158 9.24582E-09-1.40516E-08-3.21476E-07
 -1      3159 1.06948E-08-1.39465E-08-3.15322E-07
 -1      3160 1.29753E-08-1.39568E-08-3.11525E-07
 -1      3161 8.12751E-09-1.45381E-08-3.37067E-07
 -1      3162 1.21056E-08-1.60861E-08-4.08499E-07
 -1      3163 3.18470E-08-1.28818E-08-2.87450E-07
 -1      3164 2.29993E-08-2.85275E-09-3.06677E-08
 -1      3165 8.81426E-09-1.07777E-09 7.41691E-09
 -1      3166 1.27040E-08-1.36688E-10 3.04303E-09
 -1      3167-3.85332E-08-2.84857E-15-1.42783E-07
 -1      3168-2.46462E-08-1.28979E-15-2.80487E-07
 -1      3169-9.69509E-09-6.93382E-16-3.41871E-07
 -1      3170-3.21608E-09-5.82097E-16-3.50372E-07
 -1      3171 5.02694E-10-5.62376E-16-3.44940E-07
 -1      3172 3.04182E-09-5.73037E-16-3.40092E-07
 -1      3173 4.82450E-09-6.03262E-16-3.37960E-07
 -1      3174 6.00243E-09-6.44147E-16-3.37358E-07
 -1      3175 6.74945E-09-6.85240E-16-3.37295E-07
 -1      3176 7.23648E-09-7.15200E-16-3.37357E-07
 -1      3177 7.58885E-09-7.19685E-16-3.37454E-07
 -1      3178 7.88778E-09-6.67698E-16-3.37569E-07
 -1      3179 8.19718E-09-4.72742E-16-3.37519E-07
 -1      3180 8.61886E-09-7.17716E-17-3.36613E-07
 -1      3181 9.43072E-09 9.81953E-17-3.33384E-07
 -1      3182 1.08849E-08 1.64758E-16-3.27012E-07
 -1      3183 1.31035E-08 2.04163E-16-3.22993E-07
 -1      3184 8.02310E-09 2.57704E-16-3.50139E-07
 -1      3185 1.19975E-08 2.43291E-16-4.23707E-07
 -1      3186 3.24342E-08 1.12725E-16-2.99568E-07
 -1      3187 2.33824E-08 4.03175E-17-3.25636E-08
 -1      3188 8.55829E-09 1.43553E-17 7.89132E-09
 -1      3189 1.25509E-08 2.10614E-18 3.05000E-09
 -1      3190-3.80322E-08 4.26027E-09-1.38591E-07
 -1      3191-2.44685E-08 9.63079E-09-2.71220E-07
 -1      3192-9.89603E-09 1.27306E-08-3.29911E-07
 -1      3193-3.48664E-09 1.39693E-08-3.37978E-07
 -1      3194 2.59447E-10 1.42569E-08-3.32682E-07
 -1      3195 2.83541E-09 1.42540E-08-3.27966E-07
 -1      3196 4.63712E-09 1.42257E-08-3.25897E-07
 -1      3197 5.82170E-09 1.42291E-08-3.25317E-07
 -1      3198 6.57024E-09 1.42492E-08-3.25258E-07
 -1      3199 7.05784E-09 1.42691E-08-3.25320E-07
 -1      3200 7.41133E-09 1.42821E-08-3.25415E-07
 -1      3201 7.71218E-09 1.42839E-08-3.25528E-07
 -1      3202 8.02199E-09 1.42596E-08-3.25482E-07
 -1      3203 8.44188E-09 1.41853E-08-3.24608E-07
 -1      3204 9.24582E-09 1.40516E-08-3.21476E-07
 -1      3205 1.06948E-08 1.39465E-08-3.15322E-07
 -1      3206 1.29753E-08 1.39568E-08-3.11525E-07
 -1      3207 8.12751E-09 1.45381E-08-3.37067E-07
 -1      3208 1.21056E-08 1.60861E-08-4.08499E-07
 -1      3209 3.18470E-08 1.28818E-08-2.87450E-07
 -1      3210 2.29993E-08 2.85275E-09-3.06677E-08
 -1      3211 8.81426E-09 1.07777E-09 7.41691E-09
 -1      3212 1.27040E-08 1.36688E-10 3.04303E-09
 -1      3213-3.63715E-08 1.07968E-08-1.22559E-07
 -1      3214-2.39007E-08 2.39035E-08-2.36014E-07
 -1      3215-1.05879E-08 3.03816E-08-2.86134E-07
 -1      3216-4.38524E-09 3.27333E-08-2.93094E-07
 -1      3217-5.32073E-10 3.31626E-08-2.88359E-07
 -1      3218 2.15920E-09 3.30906E-08-2.84134E-07
 -1      3219 4.01957E-09 3.30196E-08-2.82287E-07
 -1      3220 5.22391E-09 3.30277E-08-2.81775E-07
 -1      3221 5.97667E-09 3.30707E-08-2.81730E-07
 -1      3222 6.46600E-09 3.31120E-08-2.81788E-07
 -1      3223 6.82308E-09 3.31393E-08-2.81875E-07
 -1      3224 7.12935E-09 3.31449E-08-2.81980E-07
 -1      3225 7.44290E-09 3.31001E-08-2.81944E-07
 -1      3226 7.85135E-09 3.29457E-08-2.81170E-07
 -1      3227 8.63913E-09 3.26481E-08-2.78393E-07
 -1      3228 1.00375E-08 3.22767E-08-2.73015E-07
 -1      3229 1.24951E-08 3.22501E-08-2.70156E-07
 -1      3230 8.51201E-09 3.29493E-08-2.91592E-07
 -1      3231 1.23970E-08 3.86778E-08-3.52606E-07
 -1      3232 2.96081E-08 2.93244E-08-2.44939E-07
 -1      3233 2.16488E-08 4.64227E-09-2.68913E-08
 -1      3234 9.72762E-09 2.24860E-09 6.30322E-09
 -1      3235 1.31407E-08 1.76618E-10 3.03821E-09
 -1      3236-3.27255E-08 1.65155E-08-9.09189E-08
 -1      3237-2.24406E-08 3.52799E-08-1.67453E-07
 -1      3238-1.18046E-08 4.42377E-08-2.03704E-07
 -1      3239-5.86108E-09 4.74762E-08-2.09293E-07
 -1      3240-1.78590E-09 4.80084E-08-2.05750E-07
 -1      3241 1.12068E-09 4.78931E-08-2.02469E-07
 -1      3242 3.08544E-09 4.78071E-08-2.01019E-07
 -1      3243 4.32150E-09 4.78345E-08-2.00626E-07
 -1      3244 5.08111E-09 4.79050E-08-2.00599E-07
 -1      3245 5.57344E-09 4.79677E-08-2.00650E-07
 -1      3246 5.93686E-09 4.80082E-08-2.00722E-07
 -1      3247 6.25325E-09 4.80175E-08-2.00809E-07
 -1      3248 6.57319E-09 4.79579E-08-2.00785E-07
 -1      3249 6.96659E-09 4.77353E-08-2.00175E-07
 -1      3250 7.67592E-09 4.72983E-08-1.98043E-07
 -1      3251 9.03799E-09 4.66544E-08-1.94179E-07
 -1      3252 1.13665E-08 4.66462E-08-1.93126E-07
 -1      3253 9.99497E-09 4.72589E-08-2.10067E-07
 -1      3254 1.33046E-08 5.61614E-08-2.46843E-07
 -1      3255 2.35942E-08 4.08328E-08-1.69294E-07
 -1      3256 1.88489E-08 6.40127E-09-2.45401E-08
 -1      3257 1.18868E-08 3.14086E-09 5.31734E-09
 -1      3258 1.36375E-08 1.90874E-10 3.03168E-09
 -1      3259-2.96225E-08 1.67386E-08-5.69388E-08
 -1      3260-2.17171E-08 3.34553E-08-9.69098E-08
 -1      3261-1.35193E-08 4.29685E-08-1.19625E-07
 -1      3262-7.55295E-09 4.67938E-08-1.23816E-07
 -1      3263-3.11413E-09 4.76256E-08-1.21510E-07
 -1      3264 6.86002E-11 4.76313E-08-1.19206E-07
 -1      3265 2.14527E-09 4.76119E-08-1.18173E-07
 -1      3266 3.41197E-09 4.76860E-08-1.17910E-07
 -1      3267 4.17822E-09 4.77884E-08-1.17907E-07
 -1      3268 4.67531E-09 4.78701E-08-1.17953E-07
 -1      3269 5.04789E-09 4.79197E-08-1.18012E-07
 -1      3270 5.37964E-09 4.79298E-08-1.18081E-07
 -1      3271 5.71538E-09 4.78584E-08-1.18070E-07
 -1      3272 6.10667E-09 4.76056E-08-1.17626E-07
 -1      3273 6.73041E-09 4.71119E-08-1.16147E-07
 -1      3274 8.02408E-09 4.64985E-08-1.13850E-07
 -1      3275 1.01378E-08 4.66116E-08-1.14604E-07
 -1      3276 1.15373E-08 4.77188E-08-1.27444E-07
 -1      3277 1.43965E-08 5.34856E-08-1.40636E-07
 -1      3278 1.85775E-08 3.84871E-08-9.60210E-08
 -1      3279 1.72299E-08 9.47702E-09-2.11594E-08
 -1      3280 1.44448E-08 3.35686E-09 4.62098E-09
 -1      3281 1.43561E-08 3.06494E-10 3.10450E-09
 -1      3282-2.94669E-08 1.50069E-08-3.39796E-08
 -1      3283-2.30360E-08 2.78835E-08-5.39917E-08
 -1      3284-1.55204E-08 3.72229E-08-6.75220E-08
 -1      3285-9.04977E-09 4.13818E-08-7.02851E-08
 -1      3286-4.08463E-09 4.25346E-08-6.85381E-08
 -1      3287-6.50653E-10 4.27221E-08-6.68192E-08
 -1      3288 1.50628E-09 4.28105E-08-6.60811E-08
 -1      3289 2.79033E-09 4.29480E-08-6.59302E-08
 -1      3290 3.56325E-09 4.30861E-08-6.59616E-08
 -1      3291 4.06867E-09 4.31862E-08-6.60140E-08
 -1      3292 4.45344E-09 4.32430E-08-6.60678E-08
 -1      3293 4.80467E-09 4.32529E-08-6.61321E-08
 -1      3294 5.17072E-09 4.31738E-08-6.61395E-08
 -1      3295 5.58803E-09 4.29090E-08-6.58162E-08
 -1      3296 6.19085E-09 4.23911E-08-6.47450E-08
 -1      3297 7.35374E-09 4.18685E-08-6.33224E-08
 -1      3298 9.40456E-09 4.20863E-08-6.49571E-08
 -1      3299 1.20131E-08 4.36820E-08-7.42148E-08
 -1      3300 1.55483E-08 4.55029E-08-7.82670E-08
 -1      3301 1.88607E-08 3.30497E-08-5.32045E-08
 -1      3302 1.86904E-08 1.17941E-08-1.40384E-08
 -1      3303 1.65832E-08 3.38859E-09 4.54126E-09
 -1      3304 1.53152E-08 4.15795E-10 3.34744E-09
 -3
    1PSTEP                         5           2           1          
  100CL  102 2.00000E-01        3304                     0    2           1
 -4  STRESS      6    1
 -5  SXX         1    4    1    1
 -5  SYY         1    4    2    2
 -5  SZZ         1    4    3    3
 -5  SXY         1    4    1    2
 -5  SYZ         1    4    2    3
 -5  SZX         1    4    3    1
 -1         1 1.06375E+04 4.49155E+03 4.47876E+03 8.31770E+02-7.10697E-02-2.50705E+01
 -1         2 1.70177E+04-1.44538E+01-8.20817E+03-4.50367E+03-7.89371E+02-4.62646E+03
 -1         3 1.03043E+04 4.35114E+03 4.34045E+03 5.34685E+02-2.30384E-03-2.35275E+01
 -1         4 1.07291E+04-1.83975E+03-9.80150E+03-2.65727E+03-2.44029E+02-2.09475E+03
 -1         5 1.02166E+04 4.31370E+03 4.30433E+03 2.62983E+02 1.76139E-02-2.13237E+01
 -1         6 1.01761E+04-1.49082E+03-9.85505E+03-4.63254E+02-6.20783E+01-2.14957E+03
 -1         7 1.01971E+04 4.30528E+03 4.29641E+03 5.01763E-05-1.57721E-08-2.05852E+01
 -1         8 1.00380E+04-1.44377E+03-9.87925E+03 2.12991E-06-2.96711E-07-2.12057E+03
 -1         9 1.02166E+04 4.31370E+03 4.30433E+03-2.62982E+02-1.76139E-02-2.13237E+01
 -1        10 1.01761E+04-1.49082E+03-9.85505E+03 4.63254E+02 6.20783E+01-2.14957E+03
 -1        11 1.03043E+04 4.35114E+03 4.34045E+03-5.34685E+02 2.30377E-03-2.35275E+01
 -1        12 1.07291E+04-1.83975E+03-9.80150E+03 2.65727E+03 2.44029E+02-2.09475E+03
 -1        13 1.06375E+04 4.49155E+03 4.47876E+03-8.31770E+02 7.10695E-02-2.50705E+01
 -1        14 1.70177E+04-1.44538E+01-8.20817E+03 4.50367E+03 7.89371E+02-4.62646E+03
 -1        15 1.07430E+04 4.53550E+03 4.52464E+03 8.32611E+02-2.91548E+00-7.33308E+02
 -1        16 1.11679E+04-7.52464E+02-1.01287E+04-2.21509E+03-4.02326E+02-3.06328E+03
 -1        17 1.04114E+04 4.39576E+03 4.38711E+03 5.37773E+02-1.70699E+00-7.22877E+02
 -1        18 8.08674E+03-1.99875E+03-1.10429E+04-1.50868E+03-1.32667E+02-1.66659E+03
 -1        19 1.03261E+04 4.35929E+03 4.35207E+03 2.65598E+02-7.36752E-01-7.05779E+02
 -1        20 7.17122E+03-2.48084E+03-1.12355E+04-5.01362E+02-7.27166E+01-1.58598E+03
 -1        21 1.03076E+04 4.35126E+03 4.34459E+03 4.91531E-05-1.76822E-07-6.97910E+02
 -1        22 7.01972E+03-2.59542E+03-1.12377E+04 9.84315E-07-3.90919E-07-1.57332E+03
 -1        23 1.03261E+04 4.35929E+03 4.35207E+03-2.65598E+02 7.36752E-01-7.05779E+02
 -1        24 7.17122E+03-2.48084E+03-1.12355E+04 5.01362E+02 7.27166E+01-1.58598E+03
 -1        25 1.04114E+04 4.39576E+03 4.38711E+03-5.37772E+02 1.70699E+00-7.22877E+02
 -1        26 8.08674E+03-1.99875E+03-1.10429E+04 1.50868E+03 1.32667E+02-1.66659E+03
 -1        27 1.07430E+04 4.53550E+03 4.52464E+03-8.32611E+02 2.91547E+00-7.33308E+02
 -1        28 1.11679E+04-7.52464E+02-1.01287E+04 2.21509E+03 4.02326E+02-3.06328E+03
 -1        29 1.09466E+04 4.62042E+03 4.61529E+03 8.31394E+02-5.85522E+00-1.48379E+03
 -1        30 1.03434E+04-4.70579E+02-1.09017E+04-2.37911E+03-1.06225E+02-1.17207E+03
 -1        31 1.06238E+04 4.48436E+03 4.48182E+03 5.47289E+02-3.41116E+00-1.45443E+03
 -1        32 7.03015E+03-2.03539E+03-1.23023E+04-1.47447E+03 6.84360E+01-9.50256E+02
 -1        33 1.05493E+04 4.45221E+03 4.45143E+03 2.74527E+02-1.46682E+00-1.41101E+03
 -1        34 6.48093E+03-2.53625E+03-1.19920E+04-4.16088E+02 9.95801E+01-8.00171E+02
 -1        35 1.05353E+04 4.44596E+03 4.44580E+03 4.74851E-05-3.27688E-07-1.39161E+03
 -1        36 6.32688E+03-2.80487E+03-1.18540E+04 3.44578E-07 1.87245E-07-7.83249E+02
 -1        37 1.05493E+04 4.45221E+03 4.45143E+03-2.74527E+02 1.46682E+00-1.41101E+03
 -1        38 6.48093E+03-2.53625E+03-1.19920E+04 4.16088E+02-9.95801E+01-8.00171E+02
 -1        39 1.06238E+04 4.48436E+03 4.48182E+03-5.47289E+02 3.41116E+00-1.45443E+03
 -1        40 7.03015E+03-2.03539E+03-1.23023E+04 1.47447E+03-6.84360E+01-9.50256E+02
 -1        41 1.09466E+04 4.62042E+03 4.61529E+03-8.31394E+02 5.85522E+00-1.48379E+03
 -1        42 1.03434E+04-4.70579E+02-1.09017E+04 2.37911E+03 1.06225E+02-1.17207E+03
 -1        43 1.13075E+04 4.77092E+03 4.77605E+03 8.21812E+02-8.93841E+00-2.32825E+03
 -1        44 9.51656E+03-8.59890E+02-1.29156E+04-2.40775E+03 2.48821E+02-7.90387E+02
 -1        45 1.10101E+04 4.64537E+03 4.65404E+03 5.59777E+02-5.20592E+00-2.25320E+03
 -1        46 6.55320E+03-2.27338E+03-1.35556E+04-1.47758E+03 5.25478E+02-6.53537E+02
 -1        47 1.09595E+04 4.62285E+03 4.63337E+03 2.86799E+02-2.28244E+00-2.15785E+03
 -1        48 6.12749E+03-2.88223E+03-1.26697E+04-4.21226E+02 4.47036E+02-5.91732E+02
 -1        49 1.09542E+04 4.62012E+03 4.63107E+03 4.54092E-05-4.65242E-07-2.11833E+03
 -1        50 6.01455E+03-3.21815E+03-1.23488E+04-2.37296E-08 5.16184E-07-5.70040E+02
 -1        51 1.09595E+04 4.62285E+03 4.63337E+03-2.86799E+02 2.28244E+00-2.15785E+03
 -1        52 6.12749E+03-2.88223E+03-1.26697E+04 4.21226E+02-4.47036E+02-5.91732E+02
 -1        53 1.10101E+04 4.64537E+03 4.65404E+03-5.59777E+02 5.20591E+00-2.25320E+03
 -1        54 6.55320E+03-2.27338E+03-1.35556E+04 1.47758E+03-5.25478E+02-6.53537E+02
 -1        55 1.13075E+04 4.77092E+03 4.77605E+03-8.21812E+02 8.93841E+00-2.32825E+03
 -1        56 9.51656E+03-8.59890E+02-1.29156E+04 2.40775E+03-2.48821E+02-7.90387E+02
 -1        57 1.19597E+04 5.04238E+03 5.06321E+03 7.82004E+02-1.20517E+01-3.35167E+03
 -1        58 8.42131E+03-1.90801E+03-1.68897E+04-2.54761E+03 8.17850E+02-4.46104E+02
 -1        59 1.17264E+04 4.94318E+03 4.97087E+03 5.57074E+02-7.18138E+00-3.15973E+03
 -1        60 6.59170E+03-2.44413E+03-1.44428E+04-1.51362E+03 1.11103E+03-2.63245E+02
 -1        61 1.17182E+04 4.93806E+03 4.96535E+03 2.83343E+02-3.43738E+00-2.97471E+03
 -1        62 6.16968E+03-3.35999E+03-1.29769E+04-4.48525E+02 7.19854E+02-2.54068E+02
 -1        63 1.17204E+04 4.93860E+03 4.96471E+03 4.27481E-05-5.92287E-07-2.91099E+03
 -1        64 5.87389E+03-3.88758E+03-1.29245E+04-2.44981E-07 5.77498E-07-2.37295E+02
 -1        65 1.17182E+04 4.93806E+03 4.96535E+03-2.83343E+02 3.43738E+00-2.97471E+03
 -1        66 6.16968E+03-3.35999E+03-1.29769E+04 4.48525E+02-7.19854E+02-2.54068E+02
 -1        67 1.17264E+04 4.94318E+03 4.97087E+03-5.57074E+02 7.18138E+00-3.15973E+03
 -1        68 6.59170E+03-2.44413E+03-1.44428E+04 1.51362E+03-1.11103E+03-2.63245E+02
 -1        69 1.19597E+04 5.04238E+03 5.06321E+03-7.82004E+02 1.20517E+01-3.35167E+03
 -1        70 8.42131E+03-1.90801E+03-1.68897E+04 2.54761E+03-8.17850E+02-4.46104E+02
 -1        71 1.32677E+04 5.58457E+03 5.62722E+03 6.36377E+02-1.66469E+01-4.71328E+03
 -1        72 6.37490E+03-4.96663E+03-2.49407E+04-2.58201E+03 1.20077E+03 1.84525E+03
 -1        73 1.32277E+04 5.56482E+03 5.62272E+03 4.61500E+02-9.08970E+00-4.19703E+03
 -1        74 8.09028E+03-2.25471E+03-1.40708E+04-1.67205E+03 1.15574E+03 1.09833E+03
 -1        75 1.32217E+04 5.56200E+03 5.60951E+03 1.92217E+02-3.81761E+00-3.91714E+03
 -1        76 6.76837E+03-3.61550E+03-1.38922E+04-7.41056E+02 5.67839E+02 1.11340E+03
 -1        77 1.32139E+04 5.55893E+03 5.60448E+03 3.89514E-05-7.07727E-07-3.86467E+03
 -1        78 6.76633E+03-3.22545E+03-1.35738E+04-3.94010E-07 4.01268E-07 1.10815E+03
 -1        79 1.32217E+04 5.56200E+03 5.60951E+03-1.92217E+02 3.81761E+00-3.91714E+03
 -1        80 6.76837E+03-3.61550E+03-1.38922E+04 7.41056E+02-5.67839E+02 1.11340E+03
 -1        81 1.32277E+04 5.56482E+03 5.62272E+03-4.61500E+02 9.08969E+00-4.19703E+03
 -1        82 8.09028E+03-2.25471E+03-1.40708E+04 1.67205E+03-1.15574E+03 1.09833E+03
 -1        83 1.32677E+04 5.58457E+03 5.62722E+03-6.36377E+02 1.66469E+01-4.71328E+03
 -1        84 6.37490E+03-4.96663E+03-2.49407E+04 2.58201E+03-1.20077E+03 1.84525E+03
 -1        85 1.71482E+04 7.17277E+03 7.29956E+03-7.98185E+01 7.74770E+00-6.75040E+03
 -1        86 1.52787E+04-4.34309E+02-2.52224E+04-6.91631E+03 5.25475E+03 2.17337E+03
 -1        87 1.69754E+04 7.10073E+03 7.20641E+03-6.39835E+00 1.07052E+00-5.40502E+03
 -1        88 1.55133E+04 4.31462E+03-9.70673E+03-4.26044E+03 2.73261E+03 1.56365E+03
 -1        89 1.67708E+04 7.02100E+03 7.11406E+03 1.74523E+01-1.69312E+00-5.18657E+03
 -1        90 1.32598E+04 2.47976E+03-1.11928E+04-1.30409E+03 2.13625E+02 1.60911E+03
 -1        91 1.67080E+04 6.99536E+03 7.08598E+03 3.28747E-05-7.63868E-07-5.12125E+03
 -1        92 1.29043E+04 2.05373E+03-1.10741E+04-5.36463E-07 2.42117E-07 1.64038E+03
 -1        93 1.67708E+04 7.02100E+03 7.11406E+03-1.74522E+01 1.69312E+00-5.18657E+03
 -1        94 1.32598E+04 2.47976E+03-1.11928E+04 1.30409E+03-2.13625E+02 1.60911E+03
 -1        95 1.69754E+04 7.10073E+03 7.20641E+03 6.39843E+00-1.07052E+00-5.40502E+03
 -1        96 1.55133E+04 4.31462E+03-9.70673E+03 4.26044E+03-2.73261E+03 1.56365E+03
 -1        97 1.71482E+04 7.17277E+03 7.29956E+03 7.98186E+01-7.74771E+00-6.75040E+03
 -1        98 1.52787E+04-4.34309E+02-2.52224E+04 6.91631E+03-5.25475E+03 2.17337E+03
 -1        99 7.92542E+03-8.95664E+02-3.26201E+03 9.26675E+00 6.15076E+00 5.53926E+01
 -1       100 7.92542E+03-8.95664E+02-3.26201E+03-9.26692E+00-6.15080E+00 5.53928E+01
 -1       101 9.37150E+03-1.34469E+02-5.34081E+03-1.38252E+01 1.33392E+00 1.22277E+02
 -1       102 9.37150E+03-1.34469E+02-5.34081E+03 1.38252E+01-1.33392E+00 1.22277E+02
 -1       103 9.78616E+03-8.76036E+01-5.84964E+03-2.04134E+01 8.20425E+00 1.17685E+02
 -1       104 9.78616E+03-8.76036E+01-5.84964E+03 2.04134E+01-8.20426E+00 1.17685E+02
 -1       105 9.67158E+03 3.77153E+00-5.73986E+03-7.32485E+00 1.63472E+01 7.90912E+01
 -1       106 9.67158E+03 3.77152E+00-5.73986E+03 7.32486E+00-1.63472E+01 7.90912E+01
 -1       107 9.52865E+03-5.06058E+00-5.63536E+03-1.45715E+00 1.94128E+01 5.75420E+01
 -1       108 9.52865E+03-5.06058E+00-5.63536E+03 1.45716E+00-1.94128E+01 5.75420E+01
 -1       109 9.48828E+03-1.22617E+01-5.58215E+03 4.27535E-01 2.02368E+01 5.13620E+01
 -1       110 9.48828E+03-1.22617E+01-5.58215E+03-4.27525E-01-2.02368E+01 5.13620E+01
 -1       111 9.49902E+03-1.66221E+01-5.56526E+03 8.02604E-01 2.01023E+01 5.05322E+01
 -1       112 9.49902E+03-1.66221E+01-5.56526E+03-8.02594E-01-2.01023E+01 5.05322E+01
 -1       113 9.52616E+03-1.79125E+01-5.56213E+03 6.90093E-01 1.99438E+01 5.08392E+01
 -1       114 9.52616E+03-1.79125E+01-5.56213E+03-6.90085E-01-1.99438E+01 5.08392E+01
 -1       115 9.55624E+03-1.82802E+01-5.56286E+03 5.97366E-01 1.98255E+01 5.11813E+01
 -1       116 9.55624E+03-1.82802E+01-5.56286E+03-5.97359E-01-1.98255E+01 5.11813E+01
 -1       117 9.58618E+03-1.82418E+01-5.56390E+03 5.54308E-01 1.97589E+01 5.13304E+01
 -1       118 9.58618E+03-1.82417E+01-5.56390E+03-5.54302E-01-1.97589E+01 5.13304E+01
 -1       119 9.61613E+03-1.81272E+01-5.56504E+03 5.67924E-01 1.97072E+01 5.12961E+01
 -1       120 9.61613E+03-1.81272E+01-5.56504E+03-5.67920E-01-1.97072E+01 5.12961E+01
 -1       121 9.64703E+03-1.81119E+01-5.56663E+03 6.64129E-01 1.96254E+01 5.10359E+01
 -1       122 9.64703E+03-1.81118E+01-5.56663E+03-6.64128E-01-1.96254E+01 5.10359E+01
 -1       123 9.67822E+03-1.88261E+01-5.56763E+03 8.04136E-01 1.94811E+01 5.03939E+01
 -1       124 9.67822E+03-1.88261E+01-5.56763E+03-8.04138E-01-1.94811E+01 5.03939E+01
 -1       125 9.70445E+03-2.07150E+01-5.56050E+03 1.09903E+00 1.92359E+01 4.98665E+01
 -1       126 9.70445E+03-2.07150E+01-5.56050E+03-1.09903E+00-1.92359E+01 4.98665E+01
 -1       127 9.69637E+03-3.01414E+01-5.52947E+03-1.84249E-01 1.91608E+01 5.03896E+01
 -1       128 9.69637E+03-3.01414E+01-5.52947E+03 1.84248E-01-1.91608E+01 5.03896E+01
 -1       129 9.58477E+03-4.27697E+01-5.42539E+03-3.90133E+00 2.14120E+01 6.23270E+01
 -1       130 9.58477E+03-4.27697E+01-5.42539E+03 3.90132E+00-2.14120E+01 6.23270E+01
 -1       131 9.28975E+03-5.20847E+01-5.26285E+03-9.63287E+00 2.70258E+01 1.08390E+02
 -1       132 9.28975E+03-5.20847E+01-5.26285E+03 9.63287E+00-2.70258E+01 1.08390E+02
 -1       133 9.26864E+03 1.77408E+02-5.02332E+03-9.96366E+01 4.24171E+01 8.39312E+01
 -1       134 9.26864E+03 1.77408E+02-5.02332E+03 9.96366E+01-4.24171E+01 8.39312E+01
 -1       135 1.37133E+04 1.47505E+03-5.88573E+03 6.93885E+02 8.79445E+01 6.72474E+02
 -1       136 1.37133E+04 1.47505E+03-5.88573E+03-6.93885E+02-8.79445E+01 6.72474E+02
 -1       137 7.93176E+03-9.26062E+02-3.42350E+03 1.07399E+01 2.59127E+01-4.38347E+02
 -1       138 7.93176E+03-9.26062E+02-3.42350E+03-1.07399E+01-2.59127E+01-4.38347E+02
 -1       139 9.34570E+03-1.51055E+02-5.45830E+03-1.25284E+01 2.74931E+01-2.08783E+01
 -1       140 9.34570E+03-1.51055E+02-5.45830E+03 1.25284E+01-2.74931E+01-2.08783E+01
 -1       141 9.73547E+03-1.04187E+02-5.90309E+03-1.96206E+01 3.23027E+01 1.40760E+02
 -1       142 9.73547E+03-1.04187E+02-5.90309E+03 1.96206E+01-3.23027E+01 1.40760E+02
 -1       143 9.62078E+03-1.71516E+01-5.79027E+03-6.87528E+00 3.46805E+01 1.14991E+02
 -1       144 9.62078E+03-1.71516E+01-5.79027E+03 6.87529E+00-3.46805E+01 1.14991E+02
 -1       145 9.49108E+03-2.83846E+01-5.69354E+03-9.87246E-01 3.58183E+01 7.21402E+01
 -1       146 9.49108E+03-2.83846E+01-5.69354E+03 9.87256E-01-3.58183E+01 7.21401E+01
 -1       147 9.45987E+03-3.47066E+01-5.64342E+03 6.27402E-01 3.59241E+01 5.23436E+01
 -1       148 9.45987E+03-3.47066E+01-5.64342E+03-6.27392E-01-3.59242E+01 5.23436E+01
 -1       149 9.47334E+03-3.84100E+01-5.62709E+03 9.22383E-01 3.58220E+01 4.62921E+01
 -1       150 9.47334E+03-3.84100E+01-5.62709E+03-9.22374E-01-3.58220E+01 4.62921E+01
 -1       151 9.50088E+03-3.95175E+01-5.62414E+03 7.97144E-01 3.57536E+01 4.53634E+01
 -1       152 9.50088E+03-3.95175E+01-5.62414E+03-7.97135E-01-3.57536E+01 4.53634E+01
 -1       153 9.53087E+03-3.97960E+01-5.62479E+03 7.09690E-01 3.57127E+01 4.56696E+01
 -1       154 9.53087E+03-3.97960E+01-5.62479E+03-7.09683E-01-3.57127E+01 4.56696E+01
 -1       155 9.56067E+03-3.97281E+01-5.62574E+03 6.69200E-01 3.56913E+01 4.59065E+01
 -1       156 9.56067E+03-3.97281E+01-5.62574E+03-6.69195E-01-3.56913E+01 4.59065E+01
 -1       157 9.59047E+03-3.95924E+01-5.62678E+03 6.85002E-01 3.56779E+01 4.57799E+01
 -1       158 9.59047E+03-3.95924E+01-5.62678E+03-6.84999E-01-3.56779E+01 4.57799E+01
 -1       159 9.62108E+03-3.95863E+01-5.62829E+03 7.63175E-01 3.56452E+01 4.52511E+01
 -1       160 9.62108E+03-3.95863E+01-5.62829E+03-7.63174E-01-3.56452E+01 4.52511E+01
 -1       161 9.65216E+03-4.00771E+01-5.62914E+03 9.27650E-01 3.56223E+01 4.47634E+01
 -1       162 9.65216E+03-4.00771E+01-5.62914E+03-9.27651E-01-3.56223E+01 4.47634E+01
 -1       163 9.67812E+03-4.24726E+01-5.62307E+03 1.14461E+00 3.53700E+01 4.66273E+01
 -1       164 9.67812E+03-4.24726E+01-5.62307E+03-1.14461E+00-3.53699E+01 4.66273E+01
 -1       165 9.67752E+03-4.75263E+01-5.59010E+03 2.14593E-01 3.57947E+01 5.77024E+01
 -1       166 9.67752E+03-4.75263E+01-5.59010E+03-2.14594E-01-3.57947E+01 5.77024E+01
 -1       167 9.57704E+03-7.18057E+01-5.50648E+03-2.08939E+00 3.36716E+01 9.53655E+01
 -1       168 9.57704E+03-7.18057E+01-5.50648E+03 2.08939E+00-3.36716E+01 9.53655E+01
 -1       169 9.29058E+03-5.11675E+01-5.31399E+03-1.95357E+01 4.66941E+01 1.70700E+02
 -1       170 9.29058E+03-5.11675E+01-5.31399E+03 1.95357E+01-4.66941E+01 1.70700E+02
 -1       171 9.48216E+03 1.27730E+02-5.14455E+03-1.69613E+01 1.09823E+01 1.01783E+02
 -1       172 9.48216E+03 1.27730E+02-5.14455E+03 1.69613E+01-1.09823E+01 1.01783E+02
 -1       173 1.11851E+04 6.72894E+02-6.23799E+03 1.05762E+02 1.65335E+02-8.26661E+01
 -1       174 1.11851E+04 6.72894E+02-6.23799E+03-1.05762E+02-1.65335E+02-8.26661E+01
 -1       175 7.87585E+03-1.02770E+03-3.96619E+03 1.76411E+01 6.18942E+01-8.82485E+02
 -1       176 7.87585E+03-1.02770E+03-3.96619E+03-1.76411E+01-6.18942E+01-8.82485E+02
 -1       177 9.24837E+03-2.06833E+02-5.82836E+03-1.06501E+01 7.13223E+01-4.94374E+01
 -1       178 9.24837E+03-2.06833E+02-5.82836E+03 1.06502E+01-7.13223E+01-4.94374E+01
 -1       179 9.57739E+03-1.46860E+02-6.08830E+03-1.87906E+01 8.20174E+01 2.20828E+02
 -1       180 9.57739E+03-1.46860E+02-6.08830E+03 1.87906E+01-8.20174E+01 2.20828E+02
 -1       181 9.46175E+03-7.95132E+01-5.97786E+03-5.56689E+00 8.76565E+01 1.57430E+02
 -1       182 9.46175E+03-7.95132E+01-5.97786E+03 5.56690E+00-8.76565E+01 1.57430E+02
 -1       183 9.37224E+03-9.61623E+01-5.90461E+03-2.08808E-01 8.96943E+01 8.15986E+01
 -1       184 9.37224E+03-9.61623E+01-5.90461E+03 2.08819E-01-8.96943E+01 8.15985E+01
 -1       185 9.36540E+03-9.99461E+01-5.86191E+03 8.37305E-01 8.97941E+01 4.72941E+01
 -1       186 9.36540E+03-9.99461E+01-5.86191E+03-8.37295E-01-8.97941E+01 4.72941E+01
 -1       187 9.38593E+03-1.02262E+02-5.84766E+03 9.08494E-01 8.96549E+01 3.68198E+01
 -1       188 9.38593E+03-1.02262E+02-5.84766E+03-9.08485E-01-8.96549E+01 3.68198E+01
 -1       189 9.41450E+03-1.02961E+02-5.84524E+03 7.56588E-01 8.95596E+01 3.53958E+01
 -1       190 9.41450E+03-1.02961E+02-5.84524E+03-7.56580E-01-8.95596E+01 3.53958E+01
 -1       191 9.44420E+03-1.03097E+02-5.84571E+03 6.70533E-01 8.95091E+01 3.59771E+01
 -1       192 9.44420E+03-1.03097E+02-5.84571E+03-6.70526E-01-8.95091E+01 3.59771E+01
 -1       193 9.47354E+03-1.03027E+02-5.84647E+03 6.35758E-01 8.94959E+01 3.64041E+01
 -1       194 9.47354E+03-1.03027E+02-5.84647E+03-6.35753E-01-8.94959E+01 3.64041E+01
 -1       195 9.50283E+03-1.02930E+02-5.84732E+03 6.46874E-01 8.94876E+01 3.61650E+01
 -1       196 9.50283E+03-1.02930E+02-5.84732E+03-6.46870E-01-8.94876E+01 3.61650E+01
 -1       197 9.53277E+03-1.02858E+02-5.84852E+03 7.14330E-01 8.94620E+01 3.51910E+01
 -1       198 9.53277E+03-1.02858E+02-5.84852E+03-7.14328E-01-8.94620E+01 3.51910E+01
 -1       199 9.56325E+03-1.03298E+02-5.84932E+03 8.74142E-01 8.93534E+01 3.42374E+01
 -1       200 9.56325E+03-1.03298E+02-5.84932E+03-8.74142E-01-8.93534E+01 3.42374E+01
 -1       201 9.59115E+03-1.04370E+02-5.84394E+03 1.10327E+00 8.92409E+01 3.73948E+01
 -1       202 9.59115E+03-1.04370E+02-5.84394E+03-1.10327E+00-8.92409E+01 3.73948E+01
 -1       203 9.60646E+03-1.07864E+02-5.81440E+03 1.06609E+00 8.87632E+01 5.73597E+01
 -1       204 9.60646E+03-1.07864E+02-5.81440E+03-1.06609E+00-8.87632E+01 5.73597E+01
 -1       205 9.54626E+03-1.25091E+02-5.75042E+03-2.29359E+00 8.93705E+01 1.23791E+02
 -1       206 9.54626E+03-1.25091E+02-5.75042E+03 2.29359E+00-8.93705E+01 1.23791E+02
 -1       207 9.35358E+03-1.27085E+02-5.58722E+03-1.01394E+01 9.57559E+01 2.56022E+02
 -1       208 9.35358E+03-1.27085E+02-5.58722E+03 1.01394E+01-9.57559E+01 2.56022E+02
 -1       209 9.19257E+03-5.34036E+01-5.51633E+03-5.01975E+01 9.03077E+01 2.53449E+02
 -1       210 9.19257E+03-5.34036E+01-5.51633E+03 5.01975E+01-9.03077E+01 2.53449E+02
 -1       211 1.08516E+04 6.91425E+02-5.55167E+03 1.25295E+02 1.85701E+02-5.72147E+02
 -1       212 1.08516E+04 6.91425E+02-5.55167E+03-1.25295E+02-1.85701E+02-5.72147E+02
 -1       213 7.69809E+03-1.25400E+03-5.07593E+03 3.45517E+01 1.33659E+02-1.27673E+03
 -1       214 7.69809E+03-1.25400E+03-5.07593E+03-3.45517E+01-1.33659E+02-1.27673E+03
 -1       215 9.01985E+03-3.24405E+02-6.51632E+03-7.80046E+00 1.47130E+02-6.04817E+00
 -1       216 9.01985E+03-3.24405E+02-6.51632E+03 7.80047E+00-1.47130E+02-6.04817E+00
 -1       217 9.24024E+03-2.58408E+02-6.51729E+03-1.71134E+01 1.68092E+02 2.75973E+02
 -1       218 9.24024E+03-2.58408E+02-6.51729E+03 1.71134E+01-1.68092E+02 2.75973E+02
 -1       219 9.14402E+03-2.30859E+02-6.44560E+03-3.00263E+00 1.77291E+02 1.70533E+02
 -1       220 9.14402E+03-2.30859E+02-6.44560E+03 3.00264E+00-1.77291E+02 1.70533E+02
 -1       221 9.12763E+03-2.50059E+02-6.40157E+03 1.09685E+00 1.79516E+02 8.07972E+01
 -1       222 9.12763E+03-2.50059E+02-6.40157E+03-1.09684E+00-1.79516E+02 8.07972E+01
 -1       223 9.15516E+03-2.49121E+02-6.36645E+03 1.08992E+00 1.79308E+02 3.91142E+01
 -1       224 9.15516E+03-2.49121E+02-6.36645E+03-1.08991E+00-1.79308E+02 3.91142E+01
 -1       225 9.18456E+03-2.50032E+02-6.35633E+03 9.24080E-01 1.79164E+02 2.71561E+01
 -1       226 9.18456E+03-2.50032E+02-6.35633E+03-9.24071E-01-1.79164E+02 2.71561E+01
 -1       227 9.21452E+03-2.49999E+02-6.35422E+03 7.18078E-01 1.78986E+02 2.56645E+01
 -1       228 9.21452E+03-2.49999E+02-6.35422E+03-7.18069E-01-1.78986E+02 2.56645E+01
 -1       229 9.24352E+03-2.49998E+02-6.35454E+03 6.42284E-01 1.78928E+02 2.64685E+01
 -1       230 9.24352E+03-2.49998E+02-6.35454E+03-6.42277E-01-1.78928E+02 2.64685E+01
 -1       231 9.27216E+03-2.49958E+02-6.35506E+03 6.16572E-01 1.78913E+02 2.70009E+01
 -1       232 9.27216E+03-2.49958E+02-6.35506E+03-6.16566E-01-1.78913E+02 2.70009E+01
 -1       233 9.30072E+03-2.49912E+02-6.35565E+03 6.20681E-01 1.78908E+02 2.67100E+01
 -1       234 9.30072E+03-2.49912E+02-6.35565E+03-6.20678E-01-1.78908E+02 2.67100E+01
 -1       235 9.32953E+03-2.49882E+02-6.35653E+03 6.69394E-01 1.78877E+02 2.54836E+01
 -1       236 9.32953E+03-2.49882E+02-6.35653E+03-6.69392E-01-1.78877E+02 2.54836E+01
 -1       237 9.35901E+03-2.49889E+02-6.35695E+03 8.01728E-01 1.78733E+02 2.42014E+01
 -1       238 9.35901E+03-2.49889E+02-6.35695E+03-8.01727E-01-1.78733E+02 2.42014E+01
 -1       239 9.38984E+03-2.50040E+02-6.35283E+03 1.18156E+00 1.78509E+02 2.75086E+01
 -1       240 9.38984E+03-2.50040E+02-6.35283E+03-1.18156E+00-1.78509E+02 2.75086E+01
 -1       241 9.42165E+03-2.50013E+02-6.33038E+03 1.49903E+00 1.78016E+02 5.17946E+01
 -1       242 9.42165E+03-2.50013E+02-6.33038E+03-1.49903E+00-1.78016E+02 5.17946E+01
 -1       243 9.44375E+03-2.54120E+02-6.27293E+03 1.15804E+00 1.77949E+02 1.27721E+02
 -1       244 9.44375E+03-2.54120E+02-6.27293E+03-1.15804E+00-1.77949E+02 1.27721E+02
 -1       245 9.31390E+03-3.06256E+02-6.23632E+03-9.73381E+00 1.83657E+02 3.01621E+02
 -1       246 9.31390E+03-3.06256E+02-6.23632E+03 9.73381E+00-1.83657E+02 3.01621E+02
 -1       247 9.05970E+03-2.44101E+02-5.99156E+03-4.81634E+01 1.94859E+02 3.48957E+02
 -1       248 9.05970E+03-2.44101E+02-5.99156E+03 4.81634E+01-1.94859E+02 3.48957E+02
 -1       249 1.07830E+04 6.20901E+02-5.39523E+03 1.17328E+02 2.76965E+02-4.30053E+02
 -1       250 1.07830E+04 6.20901E+02-5.39523E+03-1.17328E+02-2.76965E+02-4.30053E+02
 -1       251 7.20720E+03-1.78972E+03-7.25607E+03 6.75312E+01 2.68045E+02-1.51501E+03
 -1       252 7.20720E+03-1.78972E+03-7.25607E+03-6.75312E+01-2.68045E+02-1.51501E+03
 -1       253 8.53418E+03-5.50511E+02-7.63677E+03-8.38475E+00 2.72779E+02 1.26445E+02
 -1       254 8.53418E+03-5.50511E+02-7.63677E+03 8.38476E+00-2.72779E+02 1.26445E+02
 -1       255 8.56480E+03-5.58992E+02-7.47173E+03-1.36847E+01 3.09747E+02 2.48932E+02
 -1       256 8.56480E+03-5.58992E+02-7.47173E+03 1.36847E+01-3.09747E+02 2.48932E+02
 -1       257 8.56178E+03-5.84850E+02-7.50250E+03 2.08052E+00 3.22885E+02 1.54227E+02
 -1       258 8.56178E+03-5.84850E+02-7.50250E+03-2.08050E+00-3.22885E+02 1.54227E+02
 -1       259 8.65430E+03-5.90800E+02-7.45972E+03 2.37031E+00 3.23020E+02 6.51464E+01
 -1       260 8.65430E+03-5.90800E+02-7.45972E+03-2.37030E+00-3.23020E+02 6.51464E+01
 -1       261 8.71289E+03-5.87077E+02-7.43870E+03 1.39028E+00 3.23128E+02 2.81884E+01
 -1       262 8.71289E+03-5.87077E+02-7.43870E+03-1.39027E+00-3.23128E+02 2.81884E+01
 -1       263 8.75238E+03-5.85963E+02-7.43107E+03 8.98555E-01 3.22721E+02 1.74621E+01
 -1       264 8.75238E+03-5.85963E+02-7.43107E+03-8.98545E-01-3.22721E+02 1.74620E+01
 -1       265 8.78263E+03-5.85115E+02-7.42937E+03 6.52019E-01 3.22511E+02 1.64162E+01
 -1       266 8.78263E+03-5.85115E+02-7.42937E+03-6.52011E-01-3.22511E+02 1.64162E+01
 -1       267 8.81059E+03-5.85042E+02-7.42947E+03 6.00924E-01 3.22438E+02 1.72428E+01
 -1       268 8.81059E+03-5.85042E+02-7.42947E+03-6.00917E-01-3.22438E+02 1.72428E+01
 -1       269 8.83837E+03-5.85040E+02-7.42975E+03 5.90527E-01 3.22424E+02 1.77600E+01
 -1       270 8.83837E+03-5.85040E+02-7.42975E+03-5.90522E-01-3.22424E+02 1.77600E+01
 -1       271 8.86610E+03-5.85082E+02-7.43010E+03 5.86312E-01 3.22423E+02 1.74864E+01
 -1       272 8.86610E+03-5.85082E+02-7.43010E+03-5.86309E-01-3.22423E+02 1.74864E+01
 -1       273 8.89354E+03-5.85096E+02-7.43059E+03 5.98834E-01 3.22386E+02 1.63297E+01
 -1       274 8.89354E+03-5.85096E+02-7.43059E+03-5.98832E-01-3.22386E+02 1.63297E+01
 -1       275 8.92116E+03-5.84848E+02-7.43072E+03 6.97217E-01 3.22248E+02 1.49041E+01
 -1       276 8.92116E+03-5.84848E+02-7.43072E+03-6.97217E-01-3.22248E+02 1.49041E+01
 -1       277 8.95404E+03-5.83341E+02-7.42707E+03 1.17564E+00 3.21780E+02 1.78141E+01
 -1       278 8.95404E+03-5.83341E+02-7.42707E+03-1.17564E+00-3.21780E+02 1.78141E+01
 -1       279 9.00269E+03-5.81028E+02-7.41284E+03 2.04141E+00 3.21583E+02 3.82348E+01
 -1       280 9.00269E+03-5.81028E+02-7.41284E+03-2.04141E+00-3.21583E+02 3.82348E+01
 -1       281 9.09807E+03-5.71527E+02-7.36636E+03 4.48207E+00 3.20203E+02 1.11928E+02
 -1       282 9.09807E+03-5.71527E+02-7.36636E+03-4.48207E+00-3.20203E+02 1.11928E+02
 -1       283 9.14473E+03-6.31412E+02-7.37817E+03-2.46042E+00 3.22598E+02 2.59086E+02
 -1       284 9.14473E+03-6.31412E+02-7.37817E+03 2.46042E+00-3.22598E+02 2.59086E+02
 -1       285 8.90057E+03-6.60566E+02-7.28735E+03-4.89049E+01 3.56931E+02 4.25442E+02
 -1       286 8.90057E+03-6.60566E+02-7.28735E+03 4.89049E+01-3.56931E+02 4.25442E+02
 -1       287 1.11168E+04 4.51353E+02-5.44805E+03 1.66020E+02 4.00663E+02-2.74768E+02
 -1       288 1.11168E+04 4.51353E+02-5.44805E+03-1.66020E+02-4.00663E+02-2.74768E+02
 -1       289 5.99749E+03-3.05075E+03-1.14341E+04 1.52410E+02 2.64045E+02-9.09427E+02
 -1       290 5.99749E+03-3.05075E+03-1.14341E+04-1.52410E+02-2.64045E+02-9.09427E+02
 -1       291 7.54095E+03-1.02913E+03-9.20607E+03-4.94182E+01 2.15493E+02 1.24012E+01
 -1       292 7.54095E+03-1.02913E+03-9.20607E+03 4.94182E+01-2.15493E+02 1.24012E+01
 -1       293 7.19948E+03-1.42240E+03-9.68021E+03 6.74959E+00 3.05535E+02 1.58018E+02
 -1       294 7.19948E+03-1.42240E+03-9.68021E+03-6.74958E+00-3.05535E+02 1.58018E+02
 -1       295 7.54836E+03-1.40235E+03-9.61066E+03 6.74845E+00 3.04246E+02 8.98034E+01
 -1       296 7.54836E+03-1.40235E+03-9.61066E+03-6.74844E+00-3.04246E+02 8.98033E+01
 -1       297 7.71081E+03-1.39928E+03-9.59593E+03 4.18387E+00 3.07417E+02 3.77510E+01
 -1       298 7.71081E+03-1.39928E+03-9.59593E+03-4.18386E+00-3.07417E+02 3.77510E+01
 -1       299 7.80336E+03-1.39381E+03-9.57955E+03 1.61579E+00 3.06802E+02 1.50847E+01
 -1       300 7.80336E+03-1.39381E+03-9.57955E+03-1.61577E+00-3.06802E+02 1.50847E+01
 -1       301 7.84764E+03-1.38960E+03-9.57379E+03 7.96561E-01 3.06330E+02 8.57272E+00
 -1       302 7.84764E+03-1.38960E+03-9.57379E+03-7.96550E-01-3.06330E+02 8.57272E+00
 -1       303 7.87669E+03-1.38858E+03-9.57223E+03 5.34026E-01 3.06086E+02 7.89870E+00
 -1       304 7.87669E+03-1.38858E+03-9.57223E+03-5.34017E-01-3.06086E+02 7.89870E+00
 -1       305 7.90314E+03-1.38838E+03-9.57213E+03 5.35641E-01 3.06001E+02 8.38852E+00
 -1       306 7.90314E+03-1.38838E+03-9.57213E+03-5.35634E-01-3.06001E+02 8.38852E+00
 -1       307 7.93008E+03-1.38847E+03-9.57224E+03 5.47481E-01 3.05992E+02 8.69599E+00
 -1       308 7.93008E+03-1.38847E+03-9.57224E+03-5.47475E-01-3.05992E+02 8.69599E+00
 -1       309 7.95708E+03-1.38862E+03-9.57241E+03 5.34466E-01 3.05995E+02 8.53255E+00
 -1       310 7.95708E+03-1.38862E+03-9.57241E+03-5.34463E-01-3.05995E+02 8.53255E+00
 -1       311 7.98304E+03-1.38866E+03-9.57265E+03 4.88772E-01 3.05965E+02 7.82906E+00
 -1       312 7.98304E+03-1.38866E+03-9.57265E+03-4.88770E-01-3.05965E+02 7.82906E+00
 -1       313 8.00808E+03-1.38852E+03-9.57241E+03 5.23515E-01 3.05782E+02 7.03753E+00
 -1       314 8.00808E+03-1.38852E+03-9.57241E+03-5.23514E-01-3.05782E+02 7.03753E+00
 -1       315 8.03867E+03-1.38544E+03-9.56968E+03 9.79161E-01 3.05433E+02 8.69578E+00
 -1       316 8.03867E+03-1.38544E+03-9.56968E+03-9.79162E-01-3.05433E+02 8.69578E+00
 -1       317 8.10427E+03-1.37940E+03-9.55532E+03 2.98224E+00 3.04000E+02 2.18707E+01
 -1       318 8.10427E+03-1.37940E+03-9.55532E+03-2.98224E+00-3.04000E+02 2.18707E+01
 -1       319 8.22932E+03-1.37226E+03-9.54726E+03 5.71463E+00 3.07092E+02 6.41022E+01
 -1       320 8.22932E+03-1.37226E+03-9.54726E+03-5.71463E+00-3.07092E+02 6.41022E+01
 -1       321 8.55910E+03-1.35335E+03-9.43375E+03 2.11517E+01 2.91317E+02 1.62731E+02
 -1       322 8.55910E+03-1.35335E+03-9.43375E+03-2.11517E+01-2.91317E+02 1.62731E+02
 -1       323 8.56031E+03-1.57373E+03-9.90691E+03-7.22092E+01 3.74988E+02 2.64452E+02
 -1       324 8.56031E+03-1.57373E+03-9.90691E+03 7.22091E+01-3.74988E+02 2.64452E+02
 -1       325 1.19678E+04 6.20485E+01-6.16457E+03 2.67485E+02 3.27027E+02-5.90761E+02
 -1       326 1.19678E+04 6.20485E+01-6.16457E+03-2.67485E+02-3.27027E+02-5.90761E+02
 -1       327 6.14874E+03-1.67933E+03-1.31366E+04-2.84313E+02 1.79913E+03-6.69351E+02
 -1       328 6.14874E+03-1.67933E+03-1.31366E+04 2.84313E+02-1.79913E+03-6.69351E+02
 -1       329 6.47592E+03 3.89807E+02-9.65714E+03 1.43685E+01 1.29776E+03-7.17912E+01
 -1       330 6.47592E+03 3.89807E+02-9.65714E+03-1.43685E+01-1.29776E+03-7.17912E+01
 -1       331 7.06962E+03-2.43992E+02-1.04255E+04 4.36472E+01 1.52836E+03 6.17850E+01
 -1       332 7.06962E+03-2.43992E+02-1.04255E+04-4.36472E+01-1.52836E+03 6.17850E+01
 -1       333 7.69584E+03-5.79391E+01-1.01613E+04 2.06782E+01 1.47766E+03 4.29033E+01
 -1       334 7.69584E+03-5.79391E+01-1.01613E+04-2.06782E+01-1.47766E+03 4.29033E+01
 -1       335 7.91928E+03-8.63745E+01-1.01796E+04 7.72581E+00 1.49454E+03 1.74225E+01
 -1       336 7.91928E+03-8.63745E+01-1.01796E+04-7.72579E+00-1.49454E+03 1.74225E+01
 -1       337 8.02880E+03-6.72378E+01-1.01551E+04 1.66713E+00 1.49074E+03 7.45911E+00
 -1       338 8.02880E+03-6.72378E+01-1.01551E+04-1.66712E+00-1.49074E+03 7.45911E+00
 -1       339 8.06771E+03-6.56940E+01-1.01539E+04 2.99661E-01 1.49133E+03 3.84969E+00
 -1       340 8.06771E+03-6.56940E+01-1.01539E+04-2.99650E-01-1.49133E+03 3.84969E+00
 -1       341 8.09306E+03-6.42715E+01-1.01527E+04 1.93041E-01 1.49089E+03 3.42680E+00
 -1       342 8.09306E+03-6.42715E+01-1.01527E+04-1.93031E-01-1.49089E+03 3.42680E+00
 -1       343 8.11751E+03-6.44569E+01-1.01531E+04 3.56529E-01 1.49084E+03 3.56505E+00
 -1       344 8.11751E+03-6.44569E+01-1.01531E+04-3.56522E-01-1.49084E+03 3.56505E+00
 -1       345 8.14390E+03-6.46213E+01-1.01532E+04 4.40778E-01 1.49079E+03 3.69395E+00
 -1       346 8.14390E+03-6.46213E+01-1.01532E+04-4.40773E-01-1.49079E+03 3.69395E+00
 -1       347 8.17060E+03-6.48390E+01-1.01533E+04 3.97304E-01 1.49076E+03 3.61441E+00
 -1       348 8.17060E+03-6.48390E+01-1.01533E+04-3.97302E-01-1.49076E+03 3.61442E+00
 -1       349 8.19533E+03-6.51740E+01-1.01537E+04 2.23830E-01 1.49075E+03 3.33032E+00
 -1       350 8.19533E+03-6.51740E+01-1.01537E+04-2.23829E-01-1.49075E+03 3.33032E+00
 -1       351 8.21680E+03-6.49600E+01-1.01537E+04-9.69138E-02 1.49036E+03 3.07677E+00
 -1       352 8.21680E+03-6.49600E+01-1.01537E+04 9.69132E-02-1.49036E+03 3.07677E+00
 -1       353 8.23991E+03-6.38924E+01-1.01544E+04 3.84114E-01 1.49089E+03 4.19195E+00
 -1       354 8.23991E+03-6.38924E+01-1.01544E+04-3.84116E-01-1.49089E+03 4.19195E+00
 -1       355 8.30149E+03-5.17662E+01-1.01375E+04 2.89823E+00 1.48669E+03 1.06326E+01
 -1       356 8.30149E+03-5.17662E+01-1.01375E+04-2.89823E+00-1.48669E+03 1.06326E+01
 -1       357 8.45051E+03-5.74589E+01-1.01572E+04 1.41563E+01 1.50218E+03 3.26180E+01
 -1       358 8.45051E+03-5.74589E+01-1.01572E+04-1.41563E+01-1.50218E+03 3.26180E+01
 -1       359 8.89116E+03 1.24023E+01-9.94251E+03 5.07443E+01 1.44509E+03 7.11310E+01
 -1       360 8.89116E+03 1.24023E+01-9.94251E+03-5.07443E+01-1.44509E+03 7.11310E+01
 -1       361 9.61886E+03-9.12287E+01-1.05642E+04 7.85602E+00 1.67169E+03 1.76478E+02
 -1       362 9.61886E+03-9.12287E+01-1.05642E+04-7.85602E+00-1.67169E+03 1.76478E+02
 -1       363 1.76051E+04 2.23481E+03-4.59060E+03 3.40686E+02 9.72752E+02-1.76231E+03
 -1       364 1.76051E+04 2.23481E+03-4.59060E+03-3.40686E+02-9.72752E+02-1.76231E+03
 -1       365 8.11362E+03-6.95515E+02-3.08541E+03 3.10443E+01 1.38166E+01 5.70853E+01
 -1       366 9.61184E+03 1.59184E+03-5.26948E+03-2.23097E+02 8.99296E+02-1.60617E+02
 -1       367 9.53382E+03-1.89938E+02-5.23731E+03-2.41004E+01 1.16558E+01 1.20242E+02
 -1       368 9.12003E+03 2.76557E+03-3.47778E+03 2.44613E+00 7.18253E+02-1.47898E+02
 -1       369 9.71504E+03-1.08528E+02-5.83230E+03-9.49784E+00 1.67713E+01 1.14131E+02
 -1       370 9.84741E+03 2.46323E+03-3.90253E+03 3.45821E+01 7.70985E+02 2.65359E+01
 -1       371 9.62915E+03-4.02523E+01-5.75744E+03-2.75025E+00 2.19808E+01 7.75170E+01
 -1       372 1.04859E+04 2.56800E+03-3.73777E+03 1.72234E+01 7.59776E+02 2.83118E+01
 -1       373 9.50466E+03-4.36447E+01-5.65950E+03-1.44895E+00 2.41153E+01 5.70366E+01
 -1       374 1.07220E+04 2.55814E+03-3.72968E+03 4.20499E+00 7.60847E+02 1.37288E+01
 -1       375 9.46850E+03-5.14891E+01-5.60896E+03-2.44800E-01 2.45482E+01 5.14387E+01
 -1       376 1.08224E+04 2.56894E+03-3.71254E+03 3.03858E-01 7.60657E+02 7.54762E+00
 -1       377 9.48000E+03-5.51464E+01-5.59156E+03 1.83591E-01 2.44522E+01 5.06983E+01
 -1       378 1.08583E+04 2.57069E+03-3.71010E+03-3.88111E-01 7.60707E+02 4.36013E+00
 -1       379 9.50698E+03-5.64404E+01-5.58802E+03 2.18667E-01 2.43265E+01 5.10001E+01
 -1       380 1.08822E+04 2.57135E+03-3.70961E+03-2.92054E-01 7.60691E+02 3.79316E+00
 -1       381 9.53694E+03-5.67760E+01-5.58844E+03 1.88843E-01 2.42393E+01 5.13227E+01
 -1       382 1.09065E+04 2.57118E+03-3.70997E+03-1.33405E-01 7.60679E+02 3.75004E+00
 -1       383 9.56679E+03-5.67579E+01-5.58937E+03 1.69123E-01 2.41869E+01 5.14604E+01
 -1       384 1.09330E+04 2.57100E+03-3.71020E+03-6.15528E-02 7.60668E+02 3.80719E+00
 -1       385 9.59665E+03-5.66597E+01-5.59042E+03 1.77765E-01 2.41476E+01 5.14307E+01
 -1       386 1.09598E+04 2.57079E+03-3.71042E+03-9.08765E-02 7.60653E+02 3.75021E+00
 -1       387 9.62738E+03-5.66664E+01-5.59183E+03 2.26412E-01 2.40834E+01 5.11775E+01
 -1       388 1.09846E+04 2.57049E+03-3.71088E+03-2.35948E-01 7.60655E+02 3.63233E+00
 -1       389 9.65851E+03-5.72306E+01-5.59224E+03 2.72348E-01 2.40073E+01 5.05868E+01
 -1       390 1.10057E+04 2.57051E+03-3.71126E+03-5.19099E-01 7.60578E+02 3.63407E+00
 -1       391 9.68394E+03-5.93797E+01-5.58483E+03 1.86285E-01 2.37311E+01 5.00080E+01
 -1       392 1.10262E+04 2.57093E+03-3.71125E+03-6.11304E-01 7.60838E+02 5.13749E+00
 -1       393 9.67814E+03-6.59412E+01-5.55166E+03-1.00217E+00 2.41904E+01 5.02607E+01
 -1       394 1.10787E+04 2.58035E+03-3.70028E+03 6.74010E-01 7.59672E+02 1.03305E+01
 -1       395 9.57545E+03-8.45428E+01-5.45925E+03-2.39643E+00 2.33609E+01 6.25864E+01
 -1       396 1.12285E+04 2.57364E+03-3.69643E+03 9.09019E+00 7.66198E+02 2.25210E+01
 -1       397 9.33498E+03-6.91075E+01-5.28367E+03 7.46823E-01 3.61047E+01 9.42319E+01
 -1       398 1.16313E+04 2.61619E+03-3.58956E+03 4.58308E+01 7.32945E+02 6.32200E+01
 -1       399 9.44009E+03 1.03091E+02-5.15538E+03-5.26636E+01 1.71493E+01 1.51865E+02
 -1       400 1.30214E+04 2.67377E+03-3.60045E+03 2.13178E+01 8.65568E+02-8.88014E+01
 -1       401 1.08583E+04 8.05153E+02-6.82310E+03 1.33072E+02 1.04056E+02 2.48510E+02
 -1       402 1.63529E+04 3.64628E+03-1.63686E+03-1.59698E+02 3.24346E+02-3.92014E+02
 -1       403 8.25192E+03-4.62211E+02-2.86471E+03 6.40263E+01 1.15604E+01 5.95052E+01
 -1       404 9.12836E+03 8.32493E+02-6.14473E+03-1.43405E+02-9.89924E+01-1.96065E+02
 -1       405 9.56633E+03-3.56379E+02-5.14487E+03-5.13927E+01 1.06631E+01 1.19982E+02
 -1       406 8.78768E+03 1.98144E+03-4.08656E+03-1.82089E+01-4.04815E+01-1.02198E+02
 -1       407 9.75620E+03-1.03135E+02-5.70824E+03-1.26111E+00 1.41643E+01 1.12331E+02
 -1       408 9.47145E+03 1.92198E+03-4.53617E+03 3.53564E+01-4.88913E+01 1.64502E+01
 -1       409 9.62340E+03-6.96576E+01-5.67527E+03-8.47639E-01 1.65318E+01 7.61799E+01
 -1       410 1.00896E+04 1.95901E+03-4.38883E+03 1.23399E+01-4.27168E+01 2.26858E+01
 -1       411 9.51726E+03-7.27841E+01-5.58124E+03-6.63952E-01 1.77361E+01 5.65706E+01
 -1       412 1.03467E+04 1.95610E+03-4.37800E+03 3.05503E+00-4.49315E+01 1.24461E+01
 -1       413 9.48409E+03-8.01421E+01-5.53170E+03-2.80760E-02 1.79023E+01 5.12066E+01
 -1       414 1.04456E+04 1.96384E+03-4.35946E+03-1.03723E-01-4.45594E+01 7.11549E+00
 -1       415 9.49585E+03-8.34878E+01-5.51430E+03 2.60807E-01 1.78569E+01 5.05377E+01
 -1       416 1.04804E+04 1.96564E+03-4.35712E+03-3.66699E-01-4.46435E+01 4.45945E+00
 -1       417 9.52262E+03-8.48228E+01-5.51057E+03 3.00158E-01 1.77885E+01 5.08382E+01
 -1       418 1.05035E+04 1.96603E+03-4.35663E+03-2.35415E-01-4.46602E+01 3.84926E+00
 -1       419 9.55247E+03-8.51988E+01-5.51087E+03 2.81910E-01 1.77431E+01 5.11521E+01
 -1       420 1.05276E+04 1.96588E+03-4.35702E+03-9.36941E-02-4.46609E+01 3.79062E+00
 -1       421 9.58225E+03-8.52217E+01-5.51175E+03 2.70673E-01 1.77163E+01 5.12849E+01
 -1       422 1.05540E+04 1.96573E+03-4.35724E+03-3.57314E-02-4.46598E+01 3.82382E+00
 -1       423 9.61205E+03-8.51575E+01-5.51277E+03 2.76113E-01 1.76948E+01 5.12570E+01
 -1       424 1.05809E+04 1.96557E+03-4.35747E+03-5.51652E-02-4.46551E+01 3.78131E+00
 -1       425 9.64269E+03-8.51961E+01-5.51408E+03 3.03775E-01 1.76682E+01 5.10072E+01
 -1       426 1.06056E+04 1.96534E+03-4.35791E+03-1.80897E-01-4.46597E+01 3.68839E+00
 -1       427 9.67365E+03-8.58016E+01-5.51427E+03 3.47643E-01 1.76024E+01 5.04488E+01
 -1       428 1.06263E+04 1.96520E+03-4.35843E+03-3.83708E-01-4.46397E+01 3.78083E+00
 -1       429 9.69842E+03-8.79146E+01-5.50655E+03 1.90334E-01 1.75688E+01 4.97448E+01
 -1       430 1.06452E+04 1.96554E+03-4.35835E+03-7.70450E-01-4.48386E+01 5.20835E+00
 -1       431 9.69321E+03-9.31618E+01-5.47359E+03-5.47101E-01 1.73842E+01 5.03680E+01
 -1       432 1.06954E+04 1.97385E+03-4.34775E+03 1.87448E-01-4.41437E+01 9.34189E+00
 -1       433 9.60356E+03-1.08722E+02-5.38013E+03-9.63681E-01 1.83669E+01 6.00280E+01
 -1       434 1.08433E+04 1.96809E+03-4.33979E+03 6.33728E+00-4.63389E+01 2.20653E+01
 -1       435 9.41353E+03-1.12315E+02-5.21528E+03 3.93148E+00 2.02912E+01 9.90920E+01
 -1       436 1.13737E+04 2.01625E+03-4.19881E+03 3.23863E+01-4.39585E+01 3.01960E+01
 -1       437 9.20552E+03-1.71699E+01-5.24112E+03-1.18187E+01 2.36972E+01 1.26273E+02
 -1       438 1.22317E+04 1.70783E+03-4.53761E+03 7.91285E+01-4.45492E+01 7.63152E+00
 -1       439 1.04937E+04 1.18570E+03-6.67491E+03-2.30116E+02 3.69006E+01 3.16835E+02
 -1       440 1.56440E+04 4.49499E+03-1.81284E+03-5.07838E+02-4.57212E+01-4.35245E+02
 -1       441 8.29809E+03-3.88787E+02-2.77610E+03 5.60899E-06-3.31386E-06 6.06502E+01
 -1       442 9.08872E+03 6.76597E+02-6.11890E+03 1.11368E-05 5.09608E-06-1.99806E+02
 -1       443 9.57977E+03-4.07122E+02-5.09486E+03 1.39918E-05-1.62779E-06 1.20081E+02
 -1       444 8.76725E+03 1.79541E+03-4.06528E+03 1.98323E-05 2.14556E-06-9.23404E+01
 -1       445 9.77302E+03-1.19897E+02-5.65201E+03 1.41582E-05-7.80829E-07 1.11606E+02
 -1       446 9.45529E+03 1.82633E+03-4.49227E+03 2.04842E-05 9.41587E-07 1.62232E+01
 -1       447 9.62852E+03-8.01237E+01-5.62709E+03 1.46443E-05-2.35183E-06 7.56810E+01
 -1       448 1.00608E+04 1.85200E+03-4.35519E+03 1.96321E-05 4.38713E-07 2.07655E+01
 -1       449 9.52384E+03-9.01490E+01-5.53740E+03 1.32314E-05-2.93449E-06 5.63133E+01
 -1       450 1.03234E+04 1.84388E+03-4.34475E+03 1.81209E-05-1.53795E-07 1.19547E+01
 -1       451 9.49356E+03-9.55281E+01-5.48726E+03 1.17483E-05-3.27254E-06 5.10469E+01
 -1       452 1.04235E+04 1.85247E+03-4.32527E+03 1.60550E-05-6.80810E-07 6.99386E+00
 -1       453 9.50494E+03-9.91351E+01-5.47008E+03 1.00285E-05-3.46428E-06 5.03961E+01
 -1       454 1.04575E+04 1.85367E+03-4.32306E+03 1.35048E-05-1.10650E-06 4.45994E+00
 -1       455 9.53173E+03-1.00388E+02-5.46626E+03 8.17915E-06-3.66915E-06 5.06989E+01
 -1       456 1.04805E+04 1.85409E+03-4.32258E+03 1.06142E-05-1.43578E-06 3.87005E+00
 -1       457 9.56151E+03-1.00792E+02-5.46653E+03 6.14244E-06-3.86469E-06 5.10095E+01
 -1       458 1.05045E+04 1.85392E+03-4.32298E+03 7.47433E-06-1.67151E-06 3.80015E+00
 -1       459 9.59127E+03-1.00823E+02-5.46739E+03 3.96557E-06-4.06708E-06 5.11413E+01
 -1       460 1.05310E+04 1.85379E+03-4.32320E+03 4.17185E-06-1.80956E-06 3.83071E+00
 -1       461 9.62105E+03-1.00769E+02-5.46840E+03 1.47130E-06-4.49030E-06 5.11119E+01
 -1       462 1.05578E+04 1.85365E+03-4.32342E+03 8.68746E-07-1.82860E-06 3.79056E+00
 -1       463 9.65168E+03-1.00810E+02-5.46968E+03-1.78451E-06-4.51091E-06 5.08724E+01
 -1       464 1.05826E+04 1.85344E+03-4.32389E+03-2.09191E-06-1.66262E-06 3.70224E+00
 -1       465 9.68249E+03-1.01487E+02-5.46982E+03-6.64965E-06-5.52340E-06 5.02853E+01
 -1       466 1.06028E+04 1.85316E+03-4.32440E+03-4.25266E-06-1.25456E-06 3.84327E+00
 -1       467 9.70746E+03-1.03232E+02-5.46189E+03-6.93192E-06 2.95226E-06 4.96945E+01
 -1       468 1.06222E+04 1.85411E+03-4.32426E+03-5.37994E-06-7.46574E-07 5.06858E+00
 -1       469 9.70012E+03-1.09736E+02-5.42993E+03-3.75681E-06 1.37940E-06 4.98766E+01
 -1       470 1.06673E+04 1.85839E+03-4.31504E+03-5.49711E-06-3.34024E-07 9.65682E+00
 -1       471 9.62612E+03-1.15226E+02-5.33105E+03-2.95792E-06 1.46076E-06 6.05834E+01
 -1       472 1.08337E+04 1.86989E+03-4.29691E+03-4.83932E-06-8.73138E-08 1.90321E+01
 -1       473 9.41635E+03-1.67459E+02-5.19121E+03-2.80117E-06 1.11648E-06 9.61163E+01
 -1       474 1.13547E+04 1.84662E+03-4.18350E+03-3.75994E-06 9.38840E-08 2.88224E+01
 -1       475 9.16501E+03 3.64215E+01-5.21222E+03-2.18187E-06 1.68723E-06 1.29273E+02
 -1       476 1.21074E+04 1.61346E+03-4.53065E+03-2.49914E-06 2.32646E-07 2.43680E+01
 -1       477 1.03585E+04 1.16607E+03-6.64751E+03 5.10529E-07 3.13669E-06 3.15843E+02
 -1       478 1.54934E+04 4.73200E+03-1.73857E+03-1.19278E-06 2.37527E-07-4.35084E+02
 -1       479 8.25192E+03-4.62211E+02-2.86471E+03-6.40263E+01-1.15604E+01 5.95052E+01
 -1       480 9.12836E+03 8.32493E+02-6.14473E+03 1.43405E+02 9.89925E+01-1.96065E+02
 -1       481 9.56633E+03-3.56379E+02-5.14487E+03 5.13927E+01-1.06631E+01 1.19982E+02
 -1       482 8.78768E+03 1.98144E+03-4.08656E+03 1.82089E+01 4.04815E+01-1.02198E+02
 -1       483 9.75620E+03-1.03135E+02-5.70824E+03 1.26113E+00-1.41643E+01 1.12331E+02
 -1       484 9.47145E+03 1.92198E+03-4.53617E+03-3.53563E+01 4.88914E+01 1.64502E+01
 -1       485 9.62340E+03-6.96576E+01-5.67527E+03 8.47665E-01-1.65318E+01 7.61799E+01
 -1       486 1.00896E+04 1.95901E+03-4.38883E+03-1.23398E+01 4.27168E+01 2.26858E+01
 -1       487 9.51726E+03-7.27841E+01-5.58124E+03 6.63976E-01-1.77361E+01 5.65706E+01
 -1       488 1.03467E+04 1.95610E+03-4.37800E+03-3.05499E+00 4.49315E+01 1.24461E+01
 -1       489 9.48409E+03-8.01421E+01-5.53170E+03 2.80975E-02-1.79024E+01 5.12066E+01
 -1       490 1.04456E+04 1.96384E+03-4.35946E+03 1.03752E-01 4.45594E+01 7.11549E+00
 -1       491 9.49585E+03-8.34878E+01-5.51430E+03-2.60789E-01-1.78569E+01 5.05377E+01
 -1       492 1.04804E+04 1.96564E+03-4.35712E+03 3.66724E-01 4.46435E+01 4.45945E+00
 -1       493 9.52262E+03-8.48228E+01-5.51057E+03-3.00143E-01-1.77885E+01 5.08382E+01
 -1       494 1.05035E+04 1.96603E+03-4.35663E+03 2.35435E-01 4.46602E+01 3.84926E+00
 -1       495 9.55247E+03-8.51988E+01-5.51087E+03-2.81898E-01-1.77431E+01 5.11521E+01
 -1       496 1.05276E+04 1.96588E+03-4.35702E+03 9.37079E-02 4.46608E+01 3.79062E+00
 -1       497 9.58225E+03-8.52216E+01-5.51175E+03-2.70665E-01-1.77163E+01 5.12849E+01
 -1       498 1.05540E+04 1.96573E+03-4.35724E+03 3.57393E-02 4.46598E+01 3.82382E+00
 -1       499 9.61205E+03-8.51575E+01-5.51277E+03-2.76110E-01-1.76948E+01 5.12570E+01
 -1       500 1.05809E+04 1.96557E+03-4.35747E+03 5.51671E-02 4.46551E+01 3.78131E+00
 -1       501 9.64269E+03-8.51961E+01-5.51408E+03-3.03778E-01-1.76682E+01 5.10072E+01
 -1       502 1.06056E+04 1.96534E+03-4.35791E+03 1.80894E-01 4.46597E+01 3.68839E+00
 -1       503 9.67365E+03-8.58016E+01-5.51427E+03-3.47655E-01-1.76024E+01 5.04488E+01
 -1       504 1.06263E+04 1.96520E+03-4.35843E+03 3.83701E-01 4.46397E+01 3.78083E+00
 -1       505 9.69842E+03-8.79146E+01-5.50655E+03-1.90347E-01-1.75688E+01 4.97447E+01
 -1       506 1.06452E+04 1.96554E+03-4.35835E+03 7.70441E-01 4.48386E+01 5.20835E+00
 -1       507 9.69321E+03-9.31618E+01-5.47359E+03 5.47095E-01-1.73842E+01 5.03680E+01
 -1       508 1.06954E+04 1.97385E+03-4.34775E+03-1.87458E-01 4.41437E+01 9.34189E+00
 -1       509 9.60356E+03-1.08722E+02-5.38013E+03 9.63676E-01-1.83669E+01 6.00280E+01
 -1       510 1.08433E+04 1.96809E+03-4.33979E+03-6.33729E+00 4.63389E+01 2.20653E+01
 -1       511 9.41353E+03-1.12315E+02-5.21528E+03-3.93148E+00-2.02912E+01 9.90920E+01
 -1       512 1.13737E+04 2.01625E+03-4.19881E+03-3.23863E+01 4.39585E+01 3.01960E+01
 -1       513 9.20552E+03-1.71699E+01-5.24112E+03 1.18187E+01-2.36972E+01 1.26273E+02
 -1       514 1.22317E+04 1.70783E+03-4.53761E+03-7.91285E+01 4.45492E+01 7.63152E+00
 -1       515 1.04937E+04 1.18570E+03-6.67491E+03 2.30116E+02-3.69006E+01 3.16835E+02
 -1       516 1.56440E+04 4.49499E+03-1.81284E+03 5.07838E+02 4.57212E+01-4.35245E+02
 -1       517 8.11362E+03-6.95514E+02-3.08541E+03-3.10444E+01-1.38166E+01 5.70853E+01
 -1       518 9.61184E+03 1.59184E+03-5.26948E+03 2.23097E+02-8.99296E+02-1.60617E+02
 -1       519 9.53382E+03-1.89938E+02-5.23731E+03 2.41005E+01-1.16558E+01 1.20242E+02
 -1       520 9.12003E+03 2.76557E+03-3.47778E+03-2.44611E+00-7.18253E+02-1.47898E+02
 -1       521 9.71504E+03-1.08528E+02-5.83230E+03 9.49786E+00-1.67713E+01 1.14131E+02
 -1       522 9.84741E+03 2.46323E+03-3.90253E+03-3.45821E+01-7.70985E+02 2.65359E+01
 -1       523 9.62915E+03-4.02523E+01-5.75744E+03 2.75026E+00-2.19808E+01 7.75170E+01
 -1       524 1.04859E+04 2.56800E+03-3.73777E+03-1.72234E+01-7.59776E+02 2.83118E+01
 -1       525 9.50466E+03-4.36447E+01-5.65950E+03 1.44897E+00-2.41153E+01 5.70366E+01
 -1       526 1.07220E+04 2.55814E+03-3.72968E+03-4.20497E+00-7.60847E+02 1.37287E+01
 -1       527 9.46850E+03-5.14891E+01-5.60896E+03 2.44815E-01-2.45482E+01 5.14387E+01
 -1       528 1.08224E+04 2.56894E+03-3.71254E+03-3.03837E-01-7.60657E+02 7.54761E+00
 -1       529 9.48000E+03-5.51464E+01-5.59156E+03-1.83577E-01-2.44522E+01 5.06983E+01
 -1       530 1.08583E+04 2.57069E+03-3.71010E+03 3.88128E-01-7.60707E+02 4.36013E+00
 -1       531 9.50698E+03-5.64404E+01-5.58802E+03-2.18655E-01-2.43265E+01 5.10001E+01
 -1       532 1.08822E+04 2.57135E+03-3.70961E+03 2.92068E-01-7.60691E+02 3.79316E+00
 -1       533 9.53694E+03-5.67760E+01-5.58844E+03-1.88834E-01-2.42393E+01 5.13227E+01
 -1       534 1.09065E+04 2.57118E+03-3.70997E+03 1.33415E-01-7.60679E+02 3.75004E+00
 -1       535 9.56679E+03-5.67579E+01-5.58937E+03-1.69117E-01-2.41869E+01 5.14604E+01
 -1       536 1.09330E+04 2.57100E+03-3.71020E+03 6.15591E-02-7.60668E+02 3.80719E+00
 -1       537 9.59665E+03-5.66597E+01-5.59042E+03-1.77762E-01-2.41476E+01 5.14307E+01
 -1       538 1.09598E+04 2.57079E+03-3.71042E+03 9.08790E-02-7.60653E+02 3.75021E+00
 -1       539 9.62738E+03-5.66664E+01-5.59183E+03-2.26412E-01-2.40834E+01 5.11775E+01
 -1       540 1.09846E+04 2.57049E+03-3.71088E+03 2.35947E-01-7.60655E+02 3.63233E+00
 -1       541 9.65851E+03-5.72306E+01-5.59224E+03-2.72355E-01-2.40073E+01 5.05868E+01
 -1       542 1.10057E+04 2.57051E+03-3.71126E+03 5.19095E-01-7.60578E+02 3.63407E+00
 -1       543 9.68394E+03-5.93797E+01-5.58483E+03-1.86292E-01-2.37311E+01 5.00080E+01
 -1       544 1.10262E+04 2.57093E+03-3.71125E+03 6.11299E-01-7.60838E+02 5.13749E+00
 -1       545 9.67814E+03-6.59412E+01-5.55166E+03 1.00217E+00-2.41904E+01 5.02607E+01
 -1       546 1.10787E+04 2.58035E+03-3.70028E+03-6.74016E-01-7.59672E+02 1.03305E+01
 -1       547 9.57545E+03-8.45428E+01-5.45925E+03 2.39643E+00-2.33609E+01 6.25864E+01
 -1       548 1.12285E+04 2.57364E+03-3.69643E+03-9.09020E+00-7.66198E+02 2.25210E+01
 -1       549 9.33498E+03-6.91075E+01-5.28367E+03-7.46826E-01-3.61047E+01 9.42319E+01
 -1       550 1.16313E+04 2.61619E+03-3.58956E+03-4.58308E+01-7.32945E+02 6.32200E+01
 -1       551 9.44009E+03 1.03091E+02-5.15538E+03 5.26636E+01-1.71493E+01 1.51865E+02
 -1       552 1.30214E+04 2.67377E+03-3.60045E+03-2.13178E+01-8.65568E+02-8.88014E+01
 -1       553 1.08583E+04 8.05153E+02-6.82310E+03-1.33072E+02-1.04056E+02 2.48510E+02
 -1       554 1.63529E+04 3.64628E+03-1.63686E+03 1.59698E+02-3.24346E+02-3.92014E+02
 -1       555 8.13551E+03-7.18116E+02-3.20277E+03 3.46321E+01 5.54086E+01-4.28617E+02
 -1       556 9.52059E+03-2.04162E+02-5.31046E+03-2.24601E+01 6.06595E+01-2.57054E+01
 -1       557 9.67589E+03-1.24251E+02-5.84788E+03-9.38074E+00 6.24229E+01 1.29758E+02
 -1       558 9.59155E+03-6.02860E+01-5.76945E+03-2.70539E+00 6.29093E+01 1.08460E+02
 -1       559 9.48011E+03-6.58713E+01-5.67895E+03-1.33887E+00 6.28357E+01 6.99285E+01
 -1       560 9.45278E+03-7.27347E+01-5.63107E+03-2.45620E-01 6.26157E+01 5.20637E+01
 -1       561 9.46676E+03-7.58020E+01-5.61433E+03 1.41573E-01 6.24937E+01 4.64481E+01
 -1       562 9.49408E+03-7.69121E+01-5.61101E+03 1.73082E-01 6.24486E+01 4.55314E+01
 -1       563 9.52395E+03-7.71579E+01-5.61140E+03 1.46037E-01 6.24240E+01 4.57828E+01
 -1       564 9.55365E+03-7.71048E+01-5.61227E+03 1.28555E-01 6.24095E+01 4.59887E+01
 -1       565 9.58335E+03-7.69904E+01-5.61326E+03 1.38088E-01 6.23992E+01 4.58743E+01
 -1       566 9.61383E+03-7.69685E+01-5.61458E+03 1.79907E-01 6.23869E+01 4.54025E+01
 -1       567 9.64471E+03-7.74756E+01-5.61501E+03 2.29730E-01 6.23750E+01 4.50085E+01
 -1       568 9.67011E+03-7.95383E+01-5.60814E+03 1.34044E-01 6.22745E+01 4.68067E+01
 -1       569 9.67048E+03-8.43790E+01-5.57537E+03-9.50516E-01 6.22912E+01 5.68774E+01
 -1       570 9.57802E+03-1.05834E+02-5.49438E+03-1.45185E+00 6.06898E+01 9.10788E+01
 -1       571 9.36999E+03-8.33211E+01-5.30998E+03-4.13363E+00 6.79687E+01 1.54670E+02
 -1       572 9.48532E+03 6.00458E+01-5.22973E+03-1.82726E+01 3.71955E+01 1.16748E+02
 -1       573 9.72219E+03 4.07207E+02-6.78153E+03-8.95721E+01 1.71457E+02-1.64828E+02
 -1       574 8.28835E+03-4.84596E+02-2.93521E+03 6.71518E+01 5.16403E+01-4.13708E+02
 -1       575 9.56350E+03-3.78845E+02-5.17066E+03-5.00322E+01 5.71922E+01-2.60977E+01
 -1       576 9.73004E+03-1.24080E+02-5.67435E+03-1.26585E+00 5.91219E+01 1.23822E+02
 -1       577 9.59933E+03-9.64621E+01-5.63876E+03-9.21351E-01 5.96533E+01 1.04411E+02
 -1       578 9.50666E+03-1.01022E+02-5.55112E+03-7.72996E-01 5.96701E+01 6.85272E+01
 -1       579 9.48202E+03-1.07404E+02-5.50425E+03-1.88664E-01 5.94862E+01 5.17198E+01
 -1       580 9.49617E+03-1.10115E+02-5.48746E+03 7.81731E-02 5.93965E+01 4.63919E+01
 -1       581 9.52325E+03-1.11244E+02-5.48396E+03 1.19156E-01 5.93584E+01 4.54950E+01
 -1       582 9.55302E+03-1.11507E+02-5.48422E+03 1.02889E-01 5.93397E+01 4.57190E+01
 -1       583 9.58266E+03-1.11476E+02-5.48504E+03 9.37343E-02 5.93291E+01 4.59089E+01
 -1       584 9.61231E+03-1.11379E+02-5.48600E+03 9.88146E-02 5.93218E+01 4.58009E+01
 -1       585 9.64271E+03-1.11371E+02-5.48723E+03 1.24470E-01 5.93137E+01 4.53610E+01
 -1       586 9.67336E+03-1.11951E+02-5.48745E+03 1.64718E-01 5.92916E+01 4.50096E+01
 -1       587 9.69834E+03-1.13788E+02-5.48026E+03-7.51006E-03 5.92729E+01 4.67236E+01
 -1       588 9.69762E+03-1.18514E+02-5.44805E+03-5.56434E-01 5.89547E+01 5.63135E+01
 -1       589 9.62399E+03-1.31675E+02-5.36348E+03-1.49760E+00 5.91995E+01 8.76768E+01
 -1       590 9.44388E+03-1.49320E+02-5.20022E+03 6.42123E+00 5.89048E+01 1.49886E+02
 -1       591 9.32387E+03-8.16811E+00-5.22716E+03-2.04452E+01 5.60088E+01 1.04949E+02
 -1       592 9.30849E+03 7.03236E+02-6.67162E+03-2.07213E+02 1.07213E+02-1.20625E+02
 -1       593 8.33957E+03-4.12460E+02-2.82911E+03 1.79019E-05-2.09748E-06-4.06994E+02
 -1       594 9.58107E+03-4.33330E+02-5.10136E+03 1.34869E-05-2.10589E-06-2.56312E+01
 -1       595 9.75141E+03-1.43813E+02-5.59939E+03 1.42064E-05 1.77319E-08 1.21927E+02
 -1       596 9.60945E+03-1.10475E+02-5.57155E+03 1.41149E-05-1.40439E-06 1.03049E+02
 -1       597 9.51827E+03-1.21743E+02-5.48817E+03 1.30367E-05-2.36373E-06 6.80059E+01
 -1       598 9.49646E+03-1.26125E+02-5.44065E+03 1.15800E-05-3.04344E-06 5.15524E+01
 -1       599 9.51017E+03-1.29104E+02-5.42408E+03 9.90244E-06-3.52829E-06 4.63202E+01
 -1       600 9.53728E+03-1.30148E+02-5.42049E+03 8.05255E-06-3.94604E-06 4.54336E+01
 -1       601 9.56697E+03-1.30435E+02-5.42073E+03 6.02307E-06-4.28694E-06 4.56489E+01
 -1       602 9.59660E+03-1.30411E+02-5.42153E+03 3.82211E-06-4.56392E-06 4.58341E+01
 -1       603 9.62623E+03-1.30317E+02-5.42248E+03 1.32455E-06-4.91350E-06 4.57277E+01
 -1       604 9.65660E+03-1.30332E+02-5.42368E+03-1.91639E-06-5.01684E-06 4.53005E+01
 -1       605 9.68718E+03-1.30889E+02-5.42383E+03-5.34498E-06-4.60699E-06 4.49477E+01
 -1       606 9.71201E+03-1.32753E+02-5.41657E+03-5.77358E-06 1.56750E-06 4.66916E+01
 -1       607 9.71022E+03-1.37295E+02-5.38476E+03-3.96808E-06 1.09265E-06 5.58594E+01
 -1       608 9.64868E+03-1.45487E+02-5.29679E+03-3.01266E-06 1.11585E-06 8.72465E+01
 -1       609 9.45817E+03-1.95243E+02-5.15189E+03-2.68037E-06 9.91212E-07 1.45990E+02
 -1       610 9.27640E+03 9.58414E+00-5.18909E+03-1.78160E-06 1.91976E-06 1.07096E+02
 -1       611 9.21905E+03 7.55936E+02-6.60633E+03 4.00815E-08 2.55332E-06-1.13724E+02
 -1       612 8.28835E+03-4.84596E+02-2.93521E+03-6.71518E+01-5.16403E+01-4.13708E+02
 -1       613 9.56350E+03-3.78845E+02-5.17066E+03 5.00322E+01-5.71922E+01-2.60976E+01
 -1       614 9.73004E+03-1.24080E+02-5.67435E+03 1.26588E+00-5.91219E+01 1.23822E+02
 -1       615 9.59933E+03-9.64621E+01-5.63876E+03 9.21377E-01-5.96533E+01 1.04411E+02
 -1       616 9.50666E+03-1.01022E+02-5.55112E+03 7.73020E-01-5.96701E+01 6.85272E+01
 -1       617 9.48202E+03-1.07404E+02-5.50425E+03 1.88685E-01-5.94862E+01 5.17198E+01
 -1       618 9.49617E+03-1.10115E+02-5.48746E+03-7.81549E-02-5.93965E+01 4.63919E+01
 -1       619 9.52325E+03-1.11244E+02-5.48396E+03-1.19141E-01-5.93584E+01 4.54950E+01
 -1       620 9.55302E+03-1.11507E+02-5.48422E+03-1.02878E-01-5.93397E+01 4.57190E+01
 -1       621 9.58266E+03-1.11476E+02-5.48504E+03-9.37270E-02-5.93291E+01 4.59089E+01
 -1       622 9.61231E+03-1.11379E+02-5.48600E+03-9.88119E-02-5.93218E+01 4.58009E+01
 -1       623 9.64271E+03-1.11371E+02-5.48723E+03-1.24473E-01-5.93138E+01 4.53610E+01
 -1       624 9.67336E+03-1.11951E+02-5.48745E+03-1.64727E-01-5.92916E+01 4.50096E+01
 -1       625 9.69834E+03-1.13788E+02-5.48026E+03 7.49998E-03-5.92729E+01 4.67236E+01
 -1       626 9.69762E+03-1.18514E+02-5.44805E+03 5.56427E-01-5.89547E+01 5.63135E+01
 -1       627 9.62399E+03-1.31675E+02-5.36348E+03 1.49759E+00-5.91995E+01 8.76768E+01
 -1       628 9.44388E+03-1.49320E+02-5.20022E+03-6.42124E+00-5.89048E+01 1.49886E+02
 -1       629 9.32387E+03-8.16811E+00-5.22716E+03 2.04452E+01-5.60088E+01 1.04949E+02
 -1       630 9.30849E+03 7.03236E+02-6.67162E+03 2.07213E+02-1.07213E+02-1.20625E+02
 -1       631 8.13551E+03-7.18116E+02-3.20277E+03-3.46321E+01-5.54086E+01-4.28617E+02
 -1       632 9.52059E+03-2.04162E+02-5.31046E+03 2.24601E+01-6.06595E+01-2.57054E+01
 -1       633 9.67589E+03-1.24251E+02-5.84788E+03 9.38076E+00-6.24229E+01 1.29758E+02
 -1       634 9.59155E+03-6.02860E+01-5.76945E+03 2.70541E+00-6.29093E+01 1.08460E+02
 -1       635 9.48011E+03-6.58713E+01-5.67895E+03 1.33889E+00-6.28357E+01 6.99285E+01
 -1       636 9.45278E+03-7.27347E+01-5.63107E+03 2.45635E-01-6.26157E+01 5.20637E+01
 -1       637 9.46676E+03-7.58020E+01-5.61433E+03-1.41560E-01-6.24937E+01 4.64481E+01
 -1       638 9.49408E+03-7.69121E+01-5.61101E+03-1.73071E-01-6.24486E+01 4.55314E+01
 -1       639 9.52395E+03-7.71579E+01-5.61140E+03-1.46029E-01-6.24240E+01 4.57828E+01
 -1       640 9.55365E+03-7.71048E+01-5.61227E+03-1.28549E-01-6.24095E+01 4.59887E+01
 -1       641 9.58335E+03-7.69904E+01-5.61326E+03-1.38085E-01-6.23992E+01 4.58743E+01
 -1       642 9.61383E+03-7.69685E+01-5.61458E+03-1.79908E-01-6.23869E+01 4.54025E+01
 -1       643 9.64471E+03-7.74756E+01-5.61501E+03-2.29734E-01-6.23750E+01 4.50085E+01
 -1       644 9.67011E+03-7.95383E+01-5.60814E+03-1.34049E-01-6.22745E+01 4.68067E+01
 -1       645 9.67048E+03-8.43790E+01-5.57537E+03 9.50513E-01-6.22912E+01 5.68774E+01
 -1       646 9.57802E+03-1.05834E+02-5.49438E+03 1.45185E+00-6.06898E+01 9.10788E+01
 -1       647 9.36999E+03-8.33211E+01-5.30998E+03 4.13363E+00-6.79687E+01 1.54670E+02
 -1       648 9.48532E+03 6.00458E+01-5.22973E+03 1.82726E+01-3.71955E+01 1.16748E+02
 -1       649 9.72219E+03 4.07207E+02-6.78153E+03 8.95721E+01-1.71457E+02-1.64828E+02
 -1       650 8.13296E+03-7.98152E+02-3.58701E+03 4.80327E+01 1.31615E+02-8.52176E+02
 -1       651 9.47500E+03-2.37607E+02-5.51083E+03-2.02251E+01 1.44045E+02-5.86906E+01
 -1       652 9.57116E+03-1.48330E+02-5.87678E+03-9.37135E+00 1.49741E+02 1.98437E+02
 -1       653 9.49004E+03-1.04174E+02-5.79986E+03-2.34656E+00 1.51526E+02 1.44654E+02
 -1       654 9.41854E+03-1.14284E+02-5.73036E+03-1.01833E+00 1.51322E+02 7.75655E+01
 -1       655 9.41441E+03-1.18619E+02-5.68913E+03-1.74647E-01 1.50877E+02 4.67076E+01
 -1       656 9.43476E+03-1.20464E+02-5.67460E+03 1.21886E-01 1.50717E+02 3.70152E+01
 -1       657 9.46296E+03-1.21198E+02-5.67186E+03 1.40446E-01 1.50665E+02 3.56043E+01
 -1       658 9.49250E+03-1.21316E+02-5.67214E+03 1.13008E-01 1.50651E+02 3.60819E+01
 -1       659 9.52175E+03-1.21266E+02-5.67287E+03 9.80900E-02 1.50651E+02 3.64530E+01
 -1       660 9.55097E+03-1.21185E+02-5.67371E+03 1.05910E-01 1.50653E+02 3.62375E+01
 -1       661 9.58078E+03-1.21131E+02-5.67479E+03 1.42064E-01 1.50654E+02 3.53811E+01
 -1       662 9.61102E+03-1.21512E+02-5.67522E+03 1.97848E-01 1.50616E+02 3.45988E+01
 -1       663 9.63820E+03-1.22650E+02-5.66915E+03 7.79716E-02 1.50592E+02 3.76614E+01
 -1       664 9.65183E+03-1.25474E+02-5.64034E+03-4.94839E-01 1.49953E+02 5.61351E+01
 -1       665 9.60424E+03-1.40865E+02-5.57345E+03-1.92905E+00 1.49928E+02 1.14074E+02
 -1       666 9.46585E+03-1.39600E+02-5.42999E+03 6.78144E-01 1.49065E+02 2.36380E+02
 -1       667 9.33740E+03-7.89661E+01-5.38011E+03-3.66439E+01 1.47574E+02 2.11271E+02
 -1       668 9.46579E+03 4.17700E+02-6.06983E+03-7.68924E+01 2.27480E+02-4.23333E+02
 -1       669 8.32349E+03-5.83944E+02-3.17664E+03 7.84096E+01 1.19047E+02-8.12823E+02
 -1       670 9.55141E+03-4.34489E+02-5.22025E+03-4.75919E+01 1.31460E+02-5.82191E+01
 -1       671 9.66367E+03-1.70579E+02-5.55299E+03-7.40687E-01 1.36479E+02 1.86703E+02
 -1       672 9.53878E+03-1.64473E+02-5.51868E+03-6.96637E-01 1.38380E+02 1.37312E+02
 -1       673 9.48643E+03-1.72671E+02-5.45022E+03-6.12528E-01 1.38240E+02 7.51497E+01
 -1       674 9.48413E+03-1.76522E+02-5.40991E+03-1.92277E-01 1.37901E+02 4.62689E+01
 -1       675 9.50438E+03-1.77983E+02-5.39524E+03 4.72290E-02 1.37767E+02 3.71029E+01
 -1       676 9.53225E+03-1.78734E+02-5.39237E+03 8.49833E-02 1.37719E+02 3.57210E+01
 -1       677 9.56167E+03-1.78852E+02-5.39255E+03 7.15688E-02 1.37705E+02 3.61470E+01
 -1       678 9.59087E+03-1.78817E+02-5.39325E+03 6.47498E-02 1.37704E+02 3.64887E+01
 -1       679 9.62006E+03-1.78738E+02-5.39406E+03 6.84667E-02 1.37705E+02 3.62862E+01
 -1       680 9.64979E+03-1.78713E+02-5.39509E+03 9.12825E-02 1.37700E+02 3.54934E+01
 -1       681 9.67986E+03-1.79062E+02-5.39529E+03 1.17123E-01 1.37682E+02 3.47837E+01
 -1       682 9.70606E+03-1.80429E+02-5.38921E+03-1.29081E-02 1.37589E+02 3.78084E+01
 -1       683 9.71909E+03-1.81523E+02-5.35985E+03-6.19644E-01 1.37280E+02 5.49129E+01
 -1       684 9.68618E+03-1.93867E+02-5.29192E+03-8.29592E-01 1.36759E+02 1.09694E+02
 -1       685 9.58193E+03-2.16642E+02-5.16002E+03 6.14872E+00 1.36929E+02 2.20117E+02
 -1       686 9.22769E+03-1.88938E+02-5.21951E+03-2.07112E+01 1.37151E+02 2.07740E+02
 -1       687 9.21727E+03 7.22786E+02-5.83947E+03-2.08424E+02 1.94902E+02-3.69266E+02
 -1       688 8.38500E+03-5.25873E+02-3.02350E+03 2.08850E-05-5.89172E-07-7.96107E+02
 -1       689 9.57831E+03-5.03470E+02-5.09872E+03 1.60150E-05-2.41240E-06-5.69040E+01
 -1       690 9.69498E+03-2.06641E+02-5.42787E+03 1.41670E-05-8.17614E-07 1.83169E+02
 -1       691 9.56033E+03-1.94958E+02-5.40010E+03 1.40916E-05-1.19935E-06 1.34942E+02
 -1       692 9.50940E+03-2.09839E+02-5.33583E+03 1.30555E-05-2.13263E-06 7.43295E+01
 -1       693 9.50975E+03-2.11548E+02-5.29465E+03 1.16425E-05-2.74787E-06 4.61037E+01
 -1       694 9.52943E+03-2.13320E+02-5.28024E+03 9.96138E-06-3.20828E-06 3.71202E+01
 -1       695 9.55730E+03-2.13965E+02-5.27727E+03 8.08154E-06-3.57950E-06 3.57524E+01
 -1       696 9.58666E+03-2.14108E+02-5.27744E+03 6.01513E-06-3.88224E-06 3.61633E+01
 -1       697 9.61584E+03-2.14073E+02-5.27812E+03 3.76383E-06-4.13139E-06 3.64956E+01
 -1       698 9.64502E+03-2.14001E+02-5.27893E+03 1.23799E-06-4.36532E-06 3.62986E+01
 -1       699 9.67473E+03-2.13977E+02-5.27992E+03-1.74468E-06-4.38969E-06 3.55207E+01
 -1       700 9.70468E+03-2.14362E+02-5.28010E+03-4.40648E-06-2.95918E-06 3.48471E+01
 -1       701 9.73075E+03-2.15598E+02-5.27387E+03-5.00844E-06 4.55431E-07 3.78048E+01
 -1       702 9.74241E+03-2.16885E+02-5.24502E+03-3.98691E-06 1.12423E-06 5.45533E+01
 -1       703 9.72124E+03-2.23512E+02-5.17338E+03-3.10264E-06 1.06269E-06 1.08070E+02
 -1       704 9.60649E+03-2.78765E+02-5.05900E+03-2.57075E-06 1.15326E-06 2.14999E+02
 -1       705 9.20256E+03-1.85487E+02-5.12492E+03-1.64152E-06 1.92061E-06 2.08130E+02
 -1       706 9.13719E+03 7.50739E+02-5.74750E+03-3.19190E-07 1.86299E-06-3.49706E+02
 -1       707 8.32349E+03-5.83944E+02-3.17664E+03-7.84096E+01-1.19047E+02-8.12823E+02
 -1       708 9.55141E+03-4.34489E+02-5.22025E+03 4.75919E+01-1.31460E+02-5.82191E+01
 -1       709 9.66367E+03-1.70579E+02-5.55299E+03 7.40713E-01-1.36479E+02 1.86703E+02
 -1       710 9.53878E+03-1.64473E+02-5.51868E+03 6.96663E-01-1.38380E+02 1.37312E+02
 -1       711 9.48643E+03-1.72671E+02-5.45022E+03 6.12552E-01-1.38240E+02 7.51497E+01
 -1       712 9.48413E+03-1.76522E+02-5.40991E+03 1.92298E-01-1.37901E+02 4.62689E+01
 -1       713 9.50438E+03-1.77983E+02-5.39524E+03-4.72108E-02-1.37767E+02 3.71029E+01
 -1       714 9.53225E+03-1.78734E+02-5.39237E+03-8.49684E-02-1.37719E+02 3.57210E+01
 -1       715 9.56167E+03-1.78852E+02-5.39255E+03-7.15576E-02-1.37705E+02 3.61470E+01
 -1       716 9.59087E+03-1.78817E+02-5.39325E+03-6.47426E-02-1.37704E+02 3.64887E+01
 -1       717 9.62006E+03-1.78738E+02-5.39406E+03-6.84641E-02-1.37705E+02 3.62862E+01
 -1       718 9.64979E+03-1.78713E+02-5.39509E+03-9.12852E-02-1.37700E+02 3.54934E+01
 -1       719 9.67986E+03-1.79062E+02-5.39529E+03-1.17130E-01-1.37682E+02 3.47837E+01
 -1       720 9.70606E+03-1.80429E+02-5.38921E+03 1.28994E-02-1.37589E+02 3.78084E+01
 -1       721 9.71909E+03-1.81523E+02-5.35985E+03 6.19637E-01-1.37280E+02 5.49129E+01
 -1       722 9.68618E+03-1.93867E+02-5.29192E+03 8.29587E-01-1.36759E+02 1.09694E+02
 -1       723 9.58193E+03-2.16642E+02-5.16002E+03-6.14873E+00-1.36929E+02 2.20117E+02
 -1       724 9.22769E+03-1.88938E+02-5.21951E+03 2.07112E+01-1.37151E+02 2.07740E+02
 -1       725 9.21727E+03 7.22786E+02-5.83947E+03 2.08424E+02-1.94902E+02-3.69266E+02
 -1       726 8.13296E+03-7.98152E+02-3.58701E+03-4.80327E+01-1.31615E+02-8.52176E+02
 -1       727 9.47500E+03-2.37607E+02-5.51083E+03 2.02251E+01-1.44045E+02-5.86906E+01
 -1       728 9.57116E+03-1.48330E+02-5.87678E+03 9.37136E+00-1.49741E+02 1.98437E+02
 -1       729 9.49004E+03-1.04174E+02-5.79986E+03 2.34657E+00-1.51526E+02 1.44654E+02
 -1       730 9.41854E+03-1.14284E+02-5.73036E+03 1.01835E+00-1.51322E+02 7.75655E+01
 -1       731 9.41441E+03-1.18619E+02-5.68913E+03 1.74662E-01-1.50877E+02 4.67076E+01
 -1       732 9.43476E+03-1.20464E+02-5.67460E+03-1.21872E-01-1.50717E+02 3.70152E+01
 -1       733 9.46296E+03-1.21198E+02-5.67186E+03-1.40435E-01-1.50665E+02 3.56043E+01
 -1       734 9.49250E+03-1.21316E+02-5.67214E+03-1.12999E-01-1.50651E+02 3.60819E+01
 -1       735 9.52175E+03-1.21266E+02-5.67287E+03-9.80840E-02-1.50651E+02 3.64530E+01
 -1       736 9.55097E+03-1.21185E+02-5.67371E+03-1.05907E-01-1.50653E+02 3.62375E+01
 -1       737 9.58078E+03-1.21131E+02-5.67479E+03-1.42065E-01-1.50654E+02 3.53811E+01
 -1       738 9.61102E+03-1.21512E+02-5.67522E+03-1.97852E-01-1.50616E+02 3.45988E+01
 -1       739 9.63820E+03-1.22650E+02-5.66915E+03-7.79759E-02-1.50592E+02 3.76614E+01
 -1       740 9.65183E+03-1.25474E+02-5.64034E+03 4.94835E-01-1.49953E+02 5.61351E+01
 -1       741 9.60424E+03-1.40865E+02-5.57345E+03 1.92905E+00-1.49928E+02 1.14074E+02
 -1       742 9.46585E+03-1.39600E+02-5.42999E+03-6.78146E-01-1.49065E+02 2.36380E+02
 -1       743 9.33740E+03-7.89661E+01-5.38011E+03 3.66439E+01-1.47574E+02 2.11271E+02
 -1       744 9.46579E+03 4.17700E+02-6.06983E+03 7.68924E+01-2.27480E+02-4.23333E+02
 -1       745 8.11682E+03-9.25588E+02-4.25741E+03 7.47938E+01 2.51274E+02-1.19752E+03
 -1       746 9.39945E+03-2.50754E+02-5.75118E+03-1.71643E+01 2.64134E+02-2.04166E+01
 -1       747 9.39657E+03-1.61548E+02-5.87423E+03-9.01429E+00 2.77391E+02 2.40549E+02
 -1       748 9.34372E+03-1.55136E+02-5.83098E+03-1.24864E+00 2.80936E+02 1.52956E+02
 -1       749 9.34464E+03-1.66243E+02-5.78548E+03-4.84785E-01 2.79918E+02 7.56849E+01
 -1       750 9.37230E+03-1.66406E+02-5.75190E+03-8.09447E-02 2.79271E+02 3.85017E+01
 -1       751 9.40073E+03-1.66992E+02-5.74129E+03 1.28593E-01 2.79050E+02 2.74978E+01
 -1       752 9.43008E+03-1.67047E+02-5.73896E+03 1.17902E-01 2.78974E+02 2.59995E+01
 -1       753 9.45891E+03-1.67048E+02-5.73915E+03 9.62857E-02 2.78961E+02 2.66429E+01
 -1       754 9.48749E+03-1.67022E+02-5.73967E+03 8.47075E-02 2.78966E+02 2.71000E+01
 -1       755 9.51603E+03-1.66988E+02-5.74027E+03 8.98764E-02 2.78976E+02 2.68400E+01
 -1       756 9.54473E+03-1.66971E+02-5.74108E+03 1.16868E-01 2.78978E+02 2.57830E+01
 -1       757 9.57395E+03-1.66969E+02-5.74122E+03 1.58804E-01 2.78948E+02 2.47480E+01
 -1       758 9.60341E+03-1.67289E+02-5.73668E+03 1.30970E-01 2.78809E+02 2.80388E+01
 -1       759 9.63227E+03-1.66940E+02-5.71423E+03-4.34355E-01 2.78398E+02 5.02218E+01
 -1       760 9.66032E+03-1.70924E+02-5.65647E+03-1.02657E-01 2.76682E+02 1.16843E+02
 -1       761 9.59517E+03-2.08552E+02-5.61180E+03-5.04768E-01 2.75941E+02 2.66297E+02
 -1       762 9.38875E+03-1.81504E+02-5.44425E+03-3.56129E+01 2.84961E+02 3.01125E+02
 -1       763 9.64838E+03 4.80744E+02-5.44165E+03-5.44380E+01 3.28234E+02-3.22773E+02
 -1       764 8.37043E+03-7.47678E+02-3.60511E+03 9.81122E+01 2.03551E+02-1.11577E+03
 -1       765 9.53023E+03-4.76811E+02-5.21318E+03-4.40518E+01 2.18446E+02-1.93609E+01
 -1       766 9.55082E+03-2.18735E+02-5.30964E+03 3.91648E-01 2.29500E+02 2.23486E+02
 -1       767 9.46096E+03-2.50786E+02-5.30365E+03 1.02420E-01 2.32914E+02 1.43266E+02
 -1       768 9.48024E+03-2.59304E+02-5.25820E+03-3.93572E-01 2.32236E+02 7.24857E+01
 -1       769 9.50870E+03-2.58916E+02-5.22490E+03-1.76518E-01 2.31739E+02 3.80028E+01
 -1       770 9.53651E+03-2.59200E+02-5.21421E+03 2.86843E-02 2.31552E+02 2.76587E+01
 -1       771 9.56539E+03-2.59247E+02-5.21179E+03 6.12842E-02 2.31484E+02 2.61831E+01
 -1       772 9.59408E+03-2.59261E+02-5.21192E+03 5.56556E-02 2.31469E+02 2.67569E+01
 -1       773 9.62263E+03-2.59240E+02-5.21243E+03 5.21964E-02 2.31472E+02 2.71731E+01
 -1       774 9.65116E+03-2.59213E+02-5.21303E+03 5.53759E-02 2.31479E+02 2.69321E+01
 -1       775 9.67981E+03-2.59202E+02-5.21379E+03 6.54724E-02 2.31478E+02 2.59598E+01
 -1       776 9.70879E+03-2.59246E+02-5.21381E+03 8.89000E-02 2.31449E+02 2.50383E+01
 -1       777 9.73701E+03-2.59607E+02-5.20926E+03-4.03108E-02 2.31307E+02 2.82705E+01
 -1       778 9.76444E+03-2.58089E+02-5.18619E+03-6.32195E-01 2.31050E+02 4.88787E+01
 -1       779 9.80364E+03-2.58388E+02-5.12731E+03 6.00552E-02 2.29386E+02 1.10668E+02
 -1       780 9.77857E+03-3.16007E+02-5.08631E+03 5.85606E+00 2.29981E+02 2.44180E+02
 -1       781 9.37086E+03-3.34283E+02-5.02948E+03-1.74418E+01 2.36821E+02 2.94698E+02
 -1       782 9.45549E+03 7.43116E+02-5.02159E+03-1.86298E+02 2.74365E+02-2.35635E+02
 -1       783 8.43316E+03-7.23372E+02-3.41558E+03 2.18288E-05 1.55074E-06-1.08636E+03
 -1       784 9.55558E+03-5.76571E+02-5.05186E+03 1.73929E-05-1.52668E-06-1.66584E+01
 -1       785 9.58437E+03-2.86111E+02-5.14353E+03 1.48193E-05-9.62202E-07 2.18592E+02
 -1       786 9.48624E+03-3.14027E+02-5.14387E+03 1.44319E-05-1.07117E-06 1.40249E+02
 -1       787 9.50720E+03-3.28402E+02-5.10164E+03 1.34460E-05-1.73444E-06 7.13872E+01
 -1       788 9.53786E+03-3.26052E+02-5.06749E+03 1.20091E-05-2.26087E-06 3.78199E+01
 -1       789 9.56498E+03-3.26597E+02-5.05700E+03 1.02772E-05-2.63673E-06 2.76972E+01
 -1       790 9.59381E+03-3.26549E+02-5.05450E+03 8.31148E-06-2.93390E-06 2.62384E+01
 -1       791 9.62242E+03-3.26583E+02-5.05463E+03 6.14733E-06-3.17329E-06 2.67926E+01
 -1       792 9.65097E+03-3.26560E+02-5.05513E+03 3.79558E-06-3.36894E-06 2.71965E+01
 -1       793 9.67948E+03-3.26537E+02-5.05573E+03 1.21907E-06-3.52018E-06 2.69620E+01
 -1       794 9.70813E+03-3.26522E+02-5.05647E+03-1.54169E-06-3.38525E-06 2.60129E+01
 -1       795 9.73696E+03-3.26625E+02-5.05650E+03-3.79728E-06-2.09673E-06 2.51301E+01
 -1       796 9.76498E+03-3.26775E+02-5.05179E+03-4.54317E-06 1.13234E-08 2.83046E+01
 -1       797 9.79071E+03-3.25695E+02-5.02922E+03-4.00605E-06 8.44096E-07 4.84421E+01
 -1       798 9.84053E+03-3.20010E+02-4.96673E+03-3.24570E-06 9.00564E-07 1.08456E+02
 -1       799 9.80855E+03-4.07562E+02-4.93922E+03-2.57158E-06 1.04523E-06 2.37164E+02
 -1       800 9.35251E+03-3.72345E+02-4.89666E+03-1.64557E-06 1.50851E-06 2.97159E+02
 -1       801 9.39128E+03 7.55713E+02-4.88891E+03-5.64053E-07 1.37886E-06-2.07795E+02
 -1       802 8.37043E+03-7.47678E+02-3.60511E+03-9.81122E+01-2.03551E+02-1.11577E+03
 -1       803 9.53023E+03-4.76811E+02-5.21318E+03 4.40518E+01-2.18446E+02-1.93609E+01
 -1       804 9.55082E+03-2.18735E+02-5.30964E+03-3.91621E-01-2.29500E+02 2.23486E+02
 -1       805 9.46096E+03-2.50786E+02-5.30365E+03-1.02394E-01-2.32914E+02 1.43266E+02
 -1       806 9.48024E+03-2.59304E+02-5.25820E+03 3.93596E-01-2.32236E+02 7.24857E+01
 -1       807 9.50870E+03-2.58916E+02-5.22490E+03 1.76540E-01-2.31739E+02 3.80028E+01
 -1       808 9.53651E+03-2.59200E+02-5.21421E+03-2.86656E-02-2.31552E+02 2.76587E+01
 -1       809 9.56539E+03-2.59247E+02-5.21179E+03-6.12689E-02-2.31484E+02 2.61831E+01
 -1       810 9.59408E+03-2.59261E+02-5.21192E+03-5.56442E-02-2.31469E+02 2.67569E+01
 -1       811 9.62263E+03-2.59240E+02-5.21243E+03-5.21892E-02-2.31472E+02 2.71731E+01
 -1       812 9.65116E+03-2.59213E+02-5.21303E+03-5.53734E-02-2.31479E+02 2.69321E+01
 -1       813 9.67981E+03-2.59202E+02-5.21379E+03-6.54747E-02-2.31478E+02 2.59598E+01
 -1       814 9.70879E+03-2.59246E+02-5.21381E+03-8.89063E-02-2.31449E+02 2.50383E+01
 -1       815 9.73701E+03-2.59607E+02-5.20926E+03 4.03031E-02-2.31307E+02 2.82705E+01
 -1       816 9.76444E+03-2.58089E+02-5.18619E+03 6.32188E-01-2.31050E+02 4.88787E+01
 -1       817 9.80364E+03-2.58388E+02-5.12731E+03-6.00608E-02-2.29386E+02 1.10668E+02
 -1       818 9.77857E+03-3.16007E+02-5.08631E+03-5.85606E+00-2.29981E+02 2.44180E+02
 -1       819 9.37086E+03-3.34283E+02-5.02948E+03 1.74418E+01-2.36821E+02 2.94698E+02
 -1       820 9.45549E+03 7.43116E+02-5.02159E+03 1.86298E+02-2.74365E+02-2.35635E+02
 -1       821 8.11682E+03-9.25588E+02-4.25741E+03-7.47937E+01-2.51274E+02-1.19752E+03
 -1       822 9.39945E+03-2.50754E+02-5.75118E+03 1.71644E+01-2.64134E+02-2.04166E+01
 -1       823 9.39657E+03-1.61548E+02-5.87423E+03 9.01431E+00-2.77391E+02 2.40549E+02
 -1       824 9.34372E+03-1.55136E+02-5.83098E+03 1.24866E+00-2.80936E+02 1.52956E+02
 -1       825 9.34464E+03-1.66243E+02-5.78548E+03 4.84802E-01-2.79918E+02 7.56849E+01
 -1       826 9.37230E+03-1.66406E+02-5.75190E+03 8.09600E-02-2.79271E+02 3.85017E+01
 -1       827 9.40073E+03-1.66992E+02-5.74129E+03-1.28579E-01-2.79050E+02 2.74978E+01
 -1       828 9.43008E+03-1.67047E+02-5.73896E+03-1.17891E-01-2.78974E+02 2.59995E+01
 -1       829 9.45891E+03-1.67048E+02-5.73915E+03-9.62769E-02-2.78961E+02 2.66429E+01
 -1       830 9.48749E+03-1.67022E+02-5.73967E+03-8.47015E-02-2.78966E+02 2.71000E+01
 -1       831 9.51603E+03-1.66988E+02-5.74027E+03-8.98734E-02-2.78976E+02 2.68400E+01
 -1       832 9.54473E+03-1.66971E+02-5.74108E+03-1.16868E-01-2.78978E+02 2.57830E+01
 -1       833 9.57395E+03-1.66969E+02-5.74122E+03-1.58807E-01-2.78948E+02 2.47480E+01
 -1       834 9.60341E+03-1.67289E+02-5.73668E+03-1.30974E-01-2.78809E+02 2.80388E+01
 -1       835 9.63227E+03-1.66940E+02-5.71423E+03 4.34352E-01-2.78398E+02 5.02218E+01
 -1       836 9.66032E+03-1.70924E+02-5.65647E+03 1.02654E-01-2.76682E+02 1.16843E+02
 -1       837 9.59517E+03-2.08552E+02-5.61180E+03 5.04765E-01-2.75941E+02 2.66297E+02
 -1       838 9.38875E+03-1.81504E+02-5.44425E+03 3.56129E+01-2.84961E+02 3.01125E+02
 -1       839 9.64838E+03 4.80744E+02-5.44165E+03 5.44380E+01-3.28234E+02-3.22773E+02
 -1       840 8.15512E+03-1.03939E+03-5.11678E+03 1.15035E+02 3.88549E+02-1.30219E+03
 -1       841 9.35480E+03-1.00470E+02-5.69540E+03-1.86669E+01 3.75994E+02 8.73554E+01
 -1       842 9.20147E+03-8.08354E+01-5.65369E+03-6.60711E+00 4.07575E+02 2.05517E+02
 -1       843 9.25859E+03-1.20386E+02-5.69197E+03 1.49795E+00 4.09042E+02 1.32957E+02
 -1       844 9.36271E+03-1.18324E+02-5.64751E+03-3.04216E-02 4.07711E+02 6.01330E+01
 -1       845 9.41864E+03-1.16864E+02-5.62740E+03 7.72580E-02 4.06861E+02 2.75904E+01
 -1       846 9.45608E+03-1.15474E+02-5.61942E+03 9.01846E-02 4.06621E+02 1.80281E+01
 -1       847 9.48544E+03-1.14895E+02-5.61765E+03 7.54105E-02 4.06508E+02 1.68496E+01
 -1       848 9.51320E+03-1.14823E+02-5.61770E+03 6.61313E-02 4.06497E+02 1.74873E+01
 -1       849 9.54098E+03-1.14837E+02-5.61801E+03 6.34364E-02 4.06504E+02 1.79082E+01
 -1       850 9.56874E+03-1.14883E+02-5.61839E+03 6.32614E-02 4.06513E+02 1.76761E+01
 -1       851 9.59615E+03-1.14905E+02-5.61888E+03 7.43797E-02 4.06525E+02 1.67024E+01
 -1       852 9.62340E+03-1.14716E+02-5.61889E+03 8.15354E-02 4.06469E+02 1.56672E+01
 -1       853 9.65447E+03-1.13531E+02-5.61499E+03 1.36625E-01 4.06318E+02 1.84653E+01
 -1       854 9.69771E+03-1.11453E+02-5.60117E+03-2.61287E-01 4.05879E+02 3.72699E+01
 -1       855 9.79313E+03-1.03735E+02-5.55291E+03 1.30113E+00 4.03932E+02 9.97048E+01
 -1       856 9.89685E+03-1.46698E+02-5.55794E+03 4.20880E+00 3.98426E+02 2.18521E+02
 -1       857 9.78551E+03-1.91750E+02-5.45932E+03-4.00786E+01 4.31258E+02 3.39878E+02
 -1       858 1.03282E+04 6.27933E+02-4.64134E+03 9.81683E+00 3.81949E+02-1.10498E+02
 -1       859 8.42344E+03-9.41948E+02-4.33327E+03 1.14795E+02 2.17694E+02-1.18163E+03
 -1       860 9.48737E+03-3.75959E+02-5.03283E+03-4.21765E+01 2.35422E+02 8.94070E+01
 -1       861 9.37773E+03-1.92598E+02-4.96045E+03 4.16496E+00 2.52460E+02 1.86849E+02
 -1       862 9.40405E+03-2.71109E+02-5.03137E+03 1.83060E+00 2.56950E+02 1.22697E+02
 -1       863 9.52586E+03-2.64989E+02-4.98474E+03-1.48057E-01 2.55549E+02 5.66385E+01
 -1       864 9.58108E+03-2.63842E+02-4.96468E+03-1.40838E-01 2.55052E+02 2.71854E+01
 -1       865 9.61742E+03-2.61911E+02-4.95650E+03-2.32643E-02 2.54814E+02 1.81832E+01
 -1       866 9.64611E+03-2.61464E+02-4.95476E+03 1.50964E-02 2.54732E+02 1.70543E+01
 -1       867 9.67374E+03-2.61366E+02-4.95477E+03 2.87435E-02 2.54715E+02 1.76033E+01
 -1       868 9.70150E+03-2.61393E+02-4.95509E+03 3.14175E-02 2.54721E+02 1.79843E+01
 -1       869 9.72928E+03-2.61439E+02-4.95548E+03 3.14440E-02 2.54729E+02 1.77690E+01
 -1       870 9.75664E+03-2.61464E+02-4.95597E+03 2.85669E-02 2.54733E+02 1.68943E+01
 -1       871 9.78367E+03-2.61309E+02-4.95588E+03 7.62202E-03 2.54690E+02 1.59688E+01
 -1       872 9.81302E+03-2.60307E+02-4.95232E+03-6.48708E-02 2.54515E+02 1.87467E+01
 -1       873 9.85412E+03-2.56867E+02-4.93712E+03-6.76145E-01 2.54384E+02 3.60642E+01
 -1       874 9.95586E+03-2.47293E+02-4.88912E+03 9.11404E-01 2.51784E+02 9.27673E+01
 -1       875 1.01108E+04-2.99911E+02-4.88453E+03 8.66556E+00 2.52314E+02 1.94196E+02
 -1       876 9.79749E+03-4.35032E+02-4.91781E+03-1.12480E+01 2.66836E+02 3.35366E+02
 -1       877 1.01646E+04 9.45960E+02-4.08979E+03-1.58475E+02 2.65698E+02 8.69708E+00
 -1       878 8.42737E+03-9.63783E+02-4.29205E+03 2.06442E-05 2.82456E-06-1.14678E+03
 -1       879 9.47085E+03-4.91878E+02-4.97784E+03 1.78243E-05-4.06384E-07 9.28747E+01
 -1       880 9.36598E+03-2.86874E+02-4.91132E+03 1.59494E-05-8.25112E-07 1.83059E+02
 -1       881 9.38849E+03-3.58145E+02-4.98381E+03 1.53806E-05-8.68340E-07 1.19300E+02
 -1       882 9.51135E+03-3.58695E+02-4.94057E+03 1.43094E-05-1.26307E-06 5.55758E+01
 -1       883 9.56856E+03-3.55508E+02-4.91934E+03 1.27947E-05-1.64471E-06 2.69812E+01
 -1       884 9.60400E+03-3.53870E+02-4.91137E+03 1.09248E-05-1.91065E-06 1.82178E+01
 -1       885 9.63259E+03-3.53337E+02-4.90958E+03 8.78974E-06-2.11468E-06 1.71017E+01
 -1       886 9.66014E+03-3.53257E+02-4.90959E+03 6.43948E-06-2.27790E-06 1.76338E+01
 -1       887 9.68790E+03-3.53279E+02-4.90991E+03 3.90645E-06-2.40749E-06 1.80018E+01
 -1       888 9.71568E+03-3.53329E+02-4.91030E+03 1.21862E-06-2.48119E-06 1.77933E+01
 -1       889 9.74304E+03-3.53339E+02-4.91076E+03-1.45312E-06-2.28867E-06 1.69418E+01
 -1       890 9.76988E+03-3.53265E+02-4.91072E+03-3.52806E-06-1.39189E-06 1.60578E+01
 -1       891 9.79900E+03-3.51993E+02-4.90700E+03-4.39319E-06-1.25800E-07 1.87438E+01
 -1       892 9.83784E+03-3.49288E+02-4.89238E+03-4.16918E-06 5.46852E-07 3.57939E+01
 -1       893 9.94952E+03-3.33166E+02-4.84024E+03-3.50804E-06 6.76347E-07 8.98584E+01
 -1       894 1.01018E+04-4.15572E+02-4.84633E+03-2.73989E-06 8.08956E-07 1.87807E+02
 -1       895 9.73313E+03-5.08874E+02-4.90518E+03-1.77890E-06 1.03686E-06 3.41061E+02
 -1       896 1.00630E+04 9.78092E+02-4.02826E+03-7.46046E-07 9.39729E-07 4.01248E+01
 -1       897 8.42344E+03-9.41948E+02-4.33327E+03-1.14795E+02-2.17694E+02-1.18163E+03
 -1       898 9.48737E+03-3.75959E+02-5.03283E+03 4.21765E+01-2.35422E+02 8.94070E+01
 -1       899 9.37773E+03-1.92598E+02-4.96045E+03-4.16493E+00-2.52460E+02 1.86849E+02
 -1       900 9.40405E+03-2.71109E+02-5.03137E+03-1.83057E+00-2.56950E+02 1.22697E+02
 -1       901 9.52586E+03-2.64989E+02-4.98474E+03 1.48083E-01-2.55549E+02 5.66385E+01
 -1       902 9.58108E+03-2.63842E+02-4.96468E+03 1.40861E-01-2.55052E+02 2.71854E+01
 -1       903 9.61742E+03-2.61911E+02-4.95650E+03 2.32842E-02-2.54814E+02 1.81832E+01
 -1       904 9.64611E+03-2.61464E+02-4.95476E+03-1.50803E-02-2.54732E+02 1.70543E+01
 -1       905 9.67374E+03-2.61366E+02-4.95477E+03-2.87316E-02-2.54715E+02 1.76033E+01
 -1       906 9.70150E+03-2.61393E+02-4.95509E+03-3.14101E-02-2.54721E+02 1.79843E+01
 -1       907 9.72928E+03-2.61439E+02-4.95548E+03-3.14414E-02-2.54729E+02 1.77690E+01
 -1       908 9.75664E+03-2.61464E+02-4.95597E+03-2.85691E-02-2.54733E+02 1.68943E+01
 -1       909 9.78367E+03-2.61309E+02-4.95588E+03-7.62789E-03-2.54690E+02 1.59688E+01
 -1       910 9.81302E+03-2.60307E+02-4.95232E+03 6.48633E-02-2.54515E+02 1.87467E+01
 -1       911 9.85412E+03-2.56867E+02-4.93712E+03 6.76138E-01-2.54384E+02 3.60642E+01
 -1       912 9.95586E+03-2.47293E+02-4.88912E+03-9.11410E-01-2.51784E+02 9.27673E+01
 -1       913 1.01108E+04-2.99911E+02-4.88453E+03-8.66557E+00-2.52314E+02 1.94196E+02
 -1       914 9.79749E+03-4.35032E+02-4.91781E+03 1.12480E+01-2.66836E+02 3.35366E+02
 -1       915 1.01646E+04 9.45960E+02-4.08979E+03 1.58475E+02-2.65698E+02 8.69708E+00
 -1       916 8.15512E+03-1.03939E+03-5.11678E+03-1.15035E+02-3.88549E+02-1.30219E+03
 -1       917 9.35480E+03-1.00470E+02-5.69540E+03 1.86669E+01-3.75994E+02 8.73554E+01
 -1       918 9.20147E+03-8.08354E+01-5.65369E+03 6.60713E+00-4.07575E+02 2.05517E+02
 -1       919 9.25859E+03-1.20386E+02-5.69197E+03-1.49793E+00-4.09042E+02 1.32957E+02
 -1       920 9.36271E+03-1.18324E+02-5.64751E+03 3.04391E-02-4.07711E+02 6.01330E+01
 -1       921 9.41864E+03-1.16864E+02-5.62740E+03-7.72419E-02-4.06861E+02 2.75904E+01
 -1       922 9.45608E+03-1.15474E+02-5.61942E+03-9.01705E-02-4.06621E+02 1.80281E+01
 -1       923 9.48544E+03-1.14895E+02-5.61765E+03-7.53987E-02-4.06508E+02 1.68496E+01
 -1       924 9.51320E+03-1.14823E+02-5.61770E+03-6.61223E-02-4.06497E+02 1.74873E+01
 -1       925 9.54098E+03-1.14837E+02-5.61801E+03-6.34302E-02-4.06504E+02 1.79082E+01
 -1       926 9.56874E+03-1.14883E+02-5.61839E+03-6.32583E-02-4.06513E+02 1.76761E+01
 -1       927 9.59615E+03-1.14905E+02-5.61888E+03-7.43797E-02-4.06525E+02 1.67024E+01
 -1       928 9.62340E+03-1.14716E+02-5.61889E+03-8.15378E-02-4.06469E+02 1.56672E+01
 -1       929 9.65447E+03-1.13531E+02-5.61499E+03-1.36628E-01-4.06318E+02 1.84653E+01
 -1       930 9.69771E+03-1.11453E+02-5.60117E+03 2.61284E-01-4.05879E+02 3.72699E+01
 -1       931 9.79313E+03-1.03735E+02-5.55291E+03-1.30113E+00-4.03932E+02 9.97048E+01
 -1       932 9.89685E+03-1.46698E+02-5.55794E+03-4.20880E+00-3.98426E+02 2.18521E+02
 -1       933 9.78551E+03-1.91750E+02-5.45932E+03 4.00786E+01-4.31258E+02 3.39878E+02
 -1       934 1.03282E+04 6.27933E+02-4.64134E+03-9.81683E+00-3.81949E+02-1.10498E+02
 -1       935 8.33182E+03-1.03466E+03-5.98708E+03 1.36149E+02 3.36985E+02-6.04112E+02
 -1       936 9.36137E+03 4.53779E+02-4.75837E+03-4.30499E+01 3.11278E+02-2.95674E+01
 -1       937 9.03732E+03 1.63305E+02-5.13384E+03 9.99484E+00 3.43334E+02 1.12524E+02
 -1       938 9.42647E+03 1.73598E+02-5.09983E+03 4.28174E+00 3.43746E+02 7.30197E+01
 -1       939 9.59859E+03 1.78706E+02-5.07566E+03 1.39270E+00 3.42178E+02 3.30229E+01
 -1       940 9.68404E+03 1.82268E+02-5.06201E+03 1.42985E-01 3.41801E+02 1.48985E+01
 -1       941 9.72541E+03 1.85792E+02-5.05588E+03-6.50144E-03 3.41529E+02 9.12036E+00
 -1       942 9.75317E+03 1.86533E+02-5.05457E+03-2.86825E-02 3.41457E+02 8.32128E+00
 -1       943 9.77946E+03 1.86669E+02-5.05451E+03 6.10150E-03 3.41441E+02 8.61932E+00
 -1       944 9.80645E+03 1.86573E+02-5.05470E+03 2.01782E-02 3.41446E+02 8.84237E+00
 -1       945 9.83356E+03 1.86431E+02-5.05495E+03 1.46569E-02 3.41454E+02 8.70984E+00
 -1       946 9.85959E+03 1.86363E+02-5.05523E+03-2.30665E-02 3.41458E+02 8.19034E+00
 -1       947 9.88414E+03 1.86485E+02-5.05516E+03-4.95773E-02 3.41426E+02 7.70337E+00
 -1       948 9.91264E+03 1.88724E+02-5.05208E+03-1.25283E-01 3.41273E+02 9.60380E+00
 -1       949 9.96932E+03 1.94201E+02-5.04085E+03 5.87334E-01 3.40838E+02 2.08262E+01
 -1       950 1.00934E+04 1.97632E+02-5.02027E+03 1.36185E+00 3.40903E+02 5.45843E+01
 -1       951 1.04333E+04 2.15641E+02-4.95877E+03 2.25494E+01 3.27095E+02 1.30449E+02
 -1       952 1.07735E+04 7.29869E+01-5.10426E+03-5.31316E+01 3.93591E+02 1.23216E+02
 -1       953 1.19841E+04 1.09326E+03-3.69357E+03 6.06773E+01 1.99840E+02-6.23886E+01
 -1       954 8.34369E+03-1.07434E+03-5.89528E+03 6.13037E+01 9.32971E+01-5.39441E+02
 -1       955 9.33772E+03 2.07632E+02-4.61694E+03-3.86499E+01 1.18053E+02-9.52535E+00
 -1       956 9.02990E+03 3.08363E+01-5.00900E+03 1.52933E+01 1.29789E+02 1.00568E+02
 -1       957 9.40456E+03 2.41850E+01-4.98625E+03 5.16845E+00 1.34471E+02 6.49080E+01
 -1       958 9.58958E+03 2.31195E+01-4.96413E+03 6.15919E-01 1.32949E+02 3.07428E+01
 -1       959 9.67503E+03 2.91419E+01-4.94810E+03-5.24418E-02 1.32682E+02 1.44457E+01
 -1       960 9.71429E+03 3.20212E+01-4.94242E+03-1.65325E-01 1.32509E+02 9.22450E+00
 -1       961 9.74149E+03 3.29026E+01-4.94099E+03-6.71340E-02 1.32430E+02 8.43965E+00
 -1       962 9.76757E+03 3.29934E+01-4.94096E+03-2.18927E-02 1.32420E+02 8.68823E+00
 -1       963 9.79457E+03 3.29125E+01-4.94115E+03 9.32032E-04 1.32424E+02 8.88209E+00
 -1       964 9.82172E+03 3.27908E+01-4.94141E+03-7.72327E-03 1.32431E+02 8.76343E+00
 -1       965 9.84770E+03 3.26862E+01-4.94171E+03-4.34675E-02 1.32434E+02 8.30657E+00
 -1       966 9.87202E+03 3.29422E+01-4.94156E+03-1.37538E-01 1.32409E+02 7.90109E+00
 -1       967 9.89864E+03 3.45219E+01-4.93889E+03-2.84296E-01 1.32186E+02 9.76359E+00
 -1       968 9.95212E+03 4.19824E+01-4.92667E+03-2.53127E-01 1.32468E+02 1.96730E+01
 -1       969 1.00795E+04 4.41135E+01-4.90428E+03 1.48146E+00 1.29466E+02 5.08808E+01
 -1       970 1.04878E+04 6.25095E+01-4.82534E+03 1.92049E+01 1.31726E+02 1.03408E+02
 -1       971 1.05693E+04-2.51527E+02-5.15255E+03 7.90177E+00 1.43668E+02 1.63962E+02
 -1       972 1.15795E+04 1.64343E+03-3.51271E+03-2.08695E+02 1.13573E+02 1.32939E+01
 -1       973 8.50796E+03-6.88791E+02-5.73198E+03 1.76322E-05 2.43047E-06-5.30865E+02
 -1       974 9.44928E+03 4.22792E+02-4.48351E+03 1.79445E-05 3.27172E-07-1.03974E+00
 -1       975 9.15661E+03 3.04540E+02-4.86695E+03 1.77707E-05-5.70999E-07 9.91398E+01
 -1       976 9.52311E+03 2.94361E+02-4.84913E+03 1.70164E-05-5.09619E-07 6.23342E+01
 -1       977 9.71142E+03 2.88207E+02-4.82879E+03 1.57798E-05-7.11718E-07 3.00142E+01
 -1       978 9.79818E+03 2.95584E+02-4.81165E+03 1.40656E-05-9.16530E-07 1.42701E+01
 -1       979 9.83659E+03 2.98198E+02-4.80610E+03 1.19408E-05-1.06029E-06 9.23300E+00
 -1       980 9.86363E+03 2.99106E+02-4.80467E+03 9.51346E-06-1.16759E-06 8.46810E+00
 -1       981 9.88964E+03 2.99194E+02-4.80464E+03 6.85558E-06-1.25246E-06 8.70536E+00
 -1       982 9.91663E+03 2.99110E+02-4.80484E+03 4.02548E-06-1.31666E-06 8.89201E+00
 -1       983 9.94379E+03 2.98988E+02-4.80510E+03 1.11869E-06-1.33691E-06 8.77878E+00
 -1       984 9.96976E+03 2.98893E+02-4.80541E+03-1.60689E-06-1.19419E-06 8.33025E+00
 -1       985 9.99387E+03 2.99079E+02-4.80525E+03-3.65978E-06-7.19122E-07 7.97740E+00
 -1       986 1.00204E+04 3.00965E+02-4.80258E+03-4.64264E-06-1.10944E-07 9.64894E+00
 -1       987 1.00705E+04 3.06788E+02-4.79095E+03-4.61851E-06 2.73599E-07 1.97532E+01
 -1       988 1.02103E+04 3.18914E+02-4.76246E+03-4.00038E-06 3.85778E-07 4.78677E+01
 -1       989 1.06153E+04 2.93783E+02-4.69911E+03-3.11751E-06 4.67579E-07 9.97180E+01
 -1       990 1.06308E+04 3.97411E+01-5.04123E+03-2.05512E-06 5.64165E-07 1.78681E+02
 -1       991 1.15479E+04 2.01162E+03-3.38634E+03-9.36747E-07 4.98864E-07 1.51930E+01
 -1       992 8.34369E+03-1.07434E+03-5.89528E+03-6.13036E+01-9.32971E+01-5.39441E+02
 -1       993 9.33772E+03 2.07632E+02-4.61694E+03 3.86499E+01-1.18053E+02-9.52535E+00
 -1       994 9.02990E+03 3.08363E+01-5.00900E+03-1.52933E+01-1.29789E+02 1.00568E+02
 -1       995 9.40456E+03 2.41850E+01-4.98625E+03-5.16842E+00-1.34471E+02 6.49080E+01
 -1       996 9.58958E+03 2.31195E+01-4.96413E+03-6.15890E-01-1.32949E+02 3.07428E+01
 -1       997 9.67503E+03 2.91419E+01-4.94810E+03 5.24675E-02-1.32682E+02 1.44457E+01
 -1       998 9.71429E+03 3.20212E+01-4.94242E+03 1.65346E-01-1.32509E+02 9.22450E+00
 -1       999 9.74149E+03 3.29026E+01-4.94099E+03 6.71515E-02-1.32430E+02 8.43965E+00
 -1      1000 9.76757E+03 3.29934E+01-4.94096E+03 2.19055E-02-1.32420E+02 8.68823E+00
 -1      1001 9.79457E+03 3.29125E+01-4.94115E+03-9.24332E-04-1.32424E+02 8.88209E+00
 -1      1002 9.82172E+03 3.27908E+01-4.94141E+03 7.72575E-03-1.32431E+02 8.76343E+00
 -1      1003 9.84770E+03 3.26862E+01-4.94171E+03 4.34651E-02-1.32434E+02 8.30657E+00
 -1      1004 9.87202E+03 3.29422E+01-4.94156E+03 1.37531E-01-1.32409E+02 7.90109E+00
 -1      1005 9.89864E+03 3.45219E+01-4.93889E+03 2.84288E-01-1.32186E+02 9.76359E+00
 -1      1006 9.95212E+03 4.19824E+01-4.92667E+03 2.53119E-01-1.32468E+02 1.96730E+01
 -1      1007 1.00795E+04 4.41135E+01-4.90428E+03-1.48146E+00-1.29466E+02 5.08808E+01
 -1      1008 1.04878E+04 6.25095E+01-4.82534E+03-1.92050E+01-1.31726E+02 1.03408E+02
 -1      1009 1.05693E+04-2.51527E+02-5.15255E+03-7.90177E+00-1.43668E+02 1.63962E+02
 -1      1010 1.15795E+04 1.64343E+03-3.51271E+03 2.08695E+02-1.13573E+02 1.32939E+01
 -1      1011 8.33182E+03-1.03466E+03-5.98708E+03-1.36149E+02-3.36985E+02-6.04112E+02
 -1      1012 9.36137E+03 4.53779E+02-4.75837E+03 4.30500E+01-3.11278E+02-2.95674E+01
 -1      1013 9.03732E+03 1.63305E+02-5.13384E+03-9.99482E+00-3.43334E+02 1.12524E+02
 -1      1014 9.42647E+03 1.73598E+02-5.09983E+03-4.28172E+00-3.43746E+02 7.30197E+01
 -1      1015 9.59859E+03 1.78706E+02-5.07566E+03-1.39268E+00-3.42178E+02 3.30229E+01
 -1      1016 9.68404E+03 1.82268E+02-5.06201E+03-1.42967E-01-3.41801E+02 1.48985E+01
 -1      1017 9.72541E+03 1.85792E+02-5.05588E+03 6.51682E-03-3.41529E+02 9.12036E+00
 -1      1018 9.75317E+03 1.86533E+02-5.05457E+03 2.86952E-02-3.41457E+02 8.32128E+00
 -1      1019 9.77946E+03 1.86669E+02-5.05451E+03-6.09186E-03-3.41441E+02 8.61932E+00
 -1      1020 9.80645E+03 1.86573E+02-5.05470E+03-2.01718E-02-3.41446E+02 8.84237E+00
 -1      1021 9.83356E+03 1.86431E+02-5.05495E+03-1.46539E-02-3.41454E+02 8.70984E+00
 -1      1022 9.85959E+03 1.86363E+02-5.05523E+03 2.30664E-02-3.41458E+02 8.19034E+00
 -1      1023 9.88414E+03 1.86485E+02-5.05516E+03 4.95748E-02-3.41426E+02 7.70337E+00
 -1      1024 9.91264E+03 1.88724E+02-5.05208E+03 1.25279E-01-3.41273E+02 9.60380E+00
 -1      1025 9.96932E+03 1.94201E+02-5.04085E+03-5.87338E-01-3.40838E+02 2.08262E+01
 -1      1026 1.00934E+04 1.97632E+02-5.02027E+03-1.36185E+00-3.40903E+02 5.45843E+01
 -1      1027 1.04333E+04 2.15641E+02-4.95877E+03-2.25495E+01-3.27095E+02 1.30449E+02
 -1      1028 1.07735E+04 7.29869E+01-5.10426E+03 5.31316E+01-3.93591E+02 1.23216E+02
 -1      1029 1.19841E+04 1.09326E+03-3.69357E+03-6.06773E+01-1.99840E+02-6.23886E+01
 -1      1030-5.44161E+02-5.44163E+02-1.26970E+03 1.25369E-03-4.01264E+02-5.00540E+02
 -1      1031-6.20683E+01-6.20690E+01-1.44827E+02 7.29566E-05-1.90522E+01 8.47735E+01
 -1      1032-3.87129E+02-3.87131E+02-9.03298E+02 1.54744E-03-3.28135E+02-4.92688E+02
 -1      1033-6.00020E+01-6.00026E+01-1.40006E+02 7.00582E-05-5.22517E+00 8.45823E+01
 -1      1034-4.36699E+02-4.36700E+02-1.01896E+03 2.26477E-03-3.06824E+02-5.38142E+02
 -1      1035-5.85734E+01-5.85738E+01-1.36672E+02 4.02074E-05 1.31396E+00 8.02726E+01
 -1      1036-5.11999E+02-5.12001E+02-1.19466E+03 2.44052E-03-2.70754E+02-6.09650E+02
 -1      1037-5.60747E+01-5.60751E+01-1.30842E+02 1.39147E-05 3.70566E+00 7.51887E+01
 -1      1038-5.86370E+02-5.86374E+02-1.36819E+03 2.04491E-03-2.04115E+02-6.82280E+02
 -1      1039-5.38132E+01-5.38136E+01-1.25565E+02 5.13625E-07 3.66879E+00 7.06835E+01
 -1      1040-6.38633E+02-6.38638E+02-1.49014E+03 1.16329E-03-1.09931E+02-7.34878E+02
 -1      1041-5.22253E+01-5.22256E+01-1.21860E+02-2.55552E-06 2.18109E+00 6.76355E+01
 -1      1042-6.57327E+02-6.57333E+02-1.53376E+03 3.40600E-12 8.73981E-06-7.53936E+02
 -1      1043-5.16564E+01-5.16567E+01-1.20533E+02-9.12950E-14-6.42733E-08 6.65625E+01
 -1      1044-6.38633E+02-6.38638E+02-1.49014E+03-1.16329E-03 1.09931E+02-7.34878E+02
 -1      1045-5.22253E+01-5.22256E+01-1.21860E+02 2.55552E-06-2.18109E+00 6.76355E+01
 -1      1046-5.86370E+02-5.86374E+02-1.36819E+03-2.04490E-03 2.04115E+02-6.82280E+02
 -1      1047-5.38132E+01-5.38136E+01-1.25565E+02-5.13625E-07-3.66879E+00 7.06835E+01
 -1      1048-5.11999E+02-5.12001E+02-1.19466E+03-2.44052E-03 2.70754E+02-6.09650E+02
 -1      1049-5.60747E+01-5.60751E+01-1.30842E+02-1.39147E-05-3.70566E+00 7.51887E+01
 -1      1050-4.36699E+02-4.36700E+02-1.01896E+03-2.26477E-03 3.06824E+02-5.38142E+02
 -1      1051-5.85734E+01-5.85738E+01-1.36672E+02-4.02074E-05-1.31396E+00 8.02726E+01
 -1      1052-3.87129E+02-3.87131E+02-9.03298E+02-1.54744E-03 3.28135E+02-4.92688E+02
 -1      1053-6.00020E+01-6.00026E+01-1.40006E+02-7.00582E-05 5.22517E+00 8.45823E+01
 -1      1054-5.44160E+02-5.44163E+02-1.26970E+03-1.25369E-03 4.01264E+02-5.00540E+02
 -1      1055-6.20683E+01-6.20690E+01-1.44827E+02-7.29566E-05 1.90522E+01 8.47735E+01
 -1      1056-1.52902E+02-4.43857E+01-6.28821E+02-3.57318E+01-1.64512E+02-3.84424E+02
 -1      1057-6.69820E+01-1.37700E+01-9.87516E+01-5.93433E-01-2.39948E+00 6.82100E+01
 -1      1058-1.29802E+02-9.73916E+01-6.04065E+02-5.93179E+01-2.29892E+02-3.66519E+02
 -1      1059-6.39545E+01-2.45873E+01-1.06256E+02 1.98917E-01 8.17630E-01 6.39094E+01
 -1      1060-1.76281E+02-1.96447E+02-7.27190E+02-9.50807E+01-2.88678E+02-4.10501E+02
 -1      1061-6.67675E+01-4.11767E+01-1.09189E+02-8.28692E-01 3.79718E+00 5.98033E+01
 -1      1062-1.99361E+02-1.85497E+02-8.64036E+02-1.01836E+02-2.64343E+02-4.77492E+02
 -1      1063-6.95485E+01-5.06367E+01-1.09445E+02-8.09117E-01 5.18440E+00 5.55511E+01
 -1      1064-2.14239E+02-1.51007E+02-9.86021E+02-8.36154E+01-2.02164E+02-5.44074E+02
 -1      1065-7.22308E+01-5.62856E+01-1.08781E+02-5.99167E-01 4.53003E+00 5.17930E+01
 -1      1066-2.23530E+02-1.22647E+02-1.06980E+03-4.67055E+01-1.09273E+02-5.91734E+02
 -1      1067-7.42463E+01-5.94841E+01-1.08136E+02-3.12840E-01 2.60171E+00 4.92357E+01
 -1      1068-2.26640E+02-1.11960E+02-1.09930E+03-1.20082E-06 1.18880E-05-6.08892E+02
 -1      1069-7.49896E+01-6.05298E+01-1.07873E+02 2.27851E-09-6.59126E-08 4.83318E+01
 -1      1070-2.23530E+02-1.22647E+02-1.06980E+03 4.67055E+01 1.09273E+02-5.91734E+02
 -1      1071-7.42463E+01-5.94841E+01-1.08136E+02 3.12840E-01-2.60171E+00 4.92357E+01
 -1      1072-2.14239E+02-1.51007E+02-9.86021E+02 8.36154E+01 2.02164E+02-5.44074E+02
 -1      1073-7.22308E+01-5.62856E+01-1.08781E+02 5.99167E-01-4.53003E+00 5.17930E+01
 -1      1074-1.99361E+02-1.85497E+02-8.64036E+02 1.01836E+02 2.64343E+02-4.77492E+02
 -1      1075-6.95485E+01-5.06367E+01-1.09445E+02 8.09117E-01-5.18440E+00 5.55511E+01
 -1      1076-1.76281E+02-1.96447E+02-7.27190E+02 9.50807E+01 2.88678E+02-4.10501E+02
 -1      1077-6.67675E+01-4.11767E+01-1.09189E+02 8.28692E-01-3.79719E+00 5.98033E+01
 -1      1078-1.29802E+02-9.73916E+01-6.04065E+02 5.93179E+01 2.29892E+02-3.66519E+02
 -1      1079-6.39545E+01-2.45873E+01-1.06256E+02-1.98917E-01-8.17630E-01 6.39094E+01
 -1      1080-1.52902E+02-4.43857E+01-6.28821E+02 3.57318E+01 1.64512E+02-3.84424E+02
 -1      1081-6.69820E+01-1.37700E+01-9.87516E+01 5.93433E-01 2.39948E+00 6.82100E+01
 -1      1082 2.07767E+01 2.61241E+01 5.89057E+00-8.91491E+01-4.40929E+01-2.15229E+02
 -1      1083-7.64488E+01-2.11454E+01-5.34816E+01 2.79058E+00 8.13968E+00 4.99606E+01
 -1      1084-2.13125E+01-2.84053E+01-2.65271E+02-1.14994E+02-1.33351E+02-2.06550E+02
 -1      1085-6.91623E+01-2.28333E+01-6.12453E+01 1.14370E+00 6.12418E+00 4.27923E+01
 -1      1086-9.34811E+00 2.13002E+01-3.63894E+02-1.59125E+02-1.97111E+02-2.49207E+02
 -1      1087-6.61597E+01-2.83303E+01-6.24653E+01-8.19064E-01 7.32634E+00 3.94401E+01
 -1      1088-9.69030E+00 8.04033E+01-4.77191E+02-1.66048E+02-1.98909E+02-3.11736E+02
 -1      1089-6.81177E+01-3.79707E+01-6.50280E+01-1.30286E+00 6.46579E+00 3.63920E+01
 -1      1090-2.97405E+00 1.63020E+02-5.70183E+02-1.34792E+02-1.55323E+02-3.72513E+02
 -1      1091-7.14670E+01-4.60738E+01-6.72499E+01-1.12915E+00 4.98278E+00 3.36709E+01
 -1      1092 4.56010E+00 2.28545E+02-6.29008E+02-7.48138E+01-8.42119E+01-4.14640E+02
 -1      1093-7.42889E+01-5.13278E+01-6.86639E+01-6.26565E-01 2.73151E+00 3.17551E+01
 -1      1094 7.81313E+00 2.53005E+02-6.48564E+02-2.70243E-07 1.54243E-05-4.29386E+02
 -1      1095-7.53747E+01-5.31461E+01-6.91442E+01 5.34642E-09-5.62483E-08 3.10565E+01
 -1      1096 4.56011E+00 2.28545E+02-6.29008E+02 7.48138E+01 8.42119E+01-4.14640E+02
 -1      1097-7.42889E+01-5.13278E+01-6.86639E+01 6.26565E-01-2.73151E+00 3.17551E+01
 -1      1098-2.97404E+00 1.63020E+02-5.70183E+02 1.34792E+02 1.55323E+02-3.72513E+02
 -1      1099-7.14670E+01-4.60738E+01-6.72499E+01 1.12915E+00-4.98278E+00 3.36709E+01
 -1      1100-9.69028E+00 8.04033E+01-4.77191E+02 1.66048E+02 1.98909E+02-3.11736E+02
 -1      1101-6.81177E+01-3.79707E+01-6.50280E+01 1.30286E+00-6.46579E+00 3.63920E+01
 -1      1102-9.34809E+00 2.13002E+01-3.63894E+02 1.59125E+02 1.97111E+02-2.49207E+02
 -1      1103-6.61597E+01-2.83303E+01-6.24653E+01 8.19064E-01-7.32634E+00 3.94401E+01
 -1      1104-2.13125E+01-2.84053E+01-2.65271E+02 1.14994E+02 1.33351E+02-2.06550E+02
 -1      1105-6.91623E+01-2.28333E+01-6.12453E+01-1.14370E+00-6.12418E+00 4.27923E+01
 -1      1106 2.07767E+01 2.61241E+01 5.89068E+00 8.91491E+01 4.40929E+01-2.15229E+02
 -1      1107-7.64488E+01-2.11454E+01-5.34816E+01-2.79058E+00-8.13968E+00 4.99606E+01
 -1      1108 1.00500E+02 6.89505E+01 2.88097E+02-1.02935E+02-1.76009E+01-8.85485E+01
 -1      1109-6.77445E+01-1.89846E+01-2.67296E+01 3.02337E+00 5.81283E+00 3.02081E+01
 -1      1110 5.36280E+01 2.06733E+01-1.53169E+00-1.40467E+02-5.49810E+01-1.00256E+02
 -1      1111-5.72612E+01-1.70488E+01-2.53059E+01 1.26812E+00 6.33005E+00 2.55574E+01
 -1      1112 6.51864E+01 1.00509E+02-1.28424E+02-1.97612E+02-1.04914E+02-1.48656E+02
 -1      1113-5.24210E+01-2.07415E+01-2.88494E+01-7.22248E-01 7.66647E+00 2.30088E+01
 -1      1114 8.54573E+01 2.10010E+02-2.08315E+02-2.05816E+02-1.21680E+02-2.19098E+02
 -1      1115-4.97096E+01-2.62818E+01-3.08961E+01-1.41694E+00 6.71097E+00 2.10203E+01
 -1      1116 1.04687E+02 3.18456E+02-2.68114E+02-1.65730E+02-1.00116E+02-2.87767E+02
 -1      1117-4.92174E+01-3.26951E+01-3.26975E+01-1.31721E+00 4.97686E+00 1.92807E+01
 -1      1118 1.21568E+02 3.99117E+02-2.97274E+02-9.05445E+01-5.39545E+01-3.31645E+02
 -1      1119-4.96347E+01-3.74053E+01-3.38758E+01-7.77988E-01 2.70859E+00 1.79682E+01
 -1      1120 1.28309E+02 4.28225E+02-3.04825E+02 3.96911E-06 2.17439E-05-3.45731E+02
 -1      1121-5.00031E+01-3.91856E+01-3.44248E+01 7.53189E-09-4.80175E-08 1.74808E+01
 -1      1122 1.21568E+02 3.99117E+02-2.97274E+02 9.05445E+01 5.39546E+01-3.31645E+02
 -1      1123-4.96347E+01-3.74053E+01-3.38758E+01 7.77988E-01-2.70859E+00 1.79682E+01
 -1      1124 1.04687E+02 3.18456E+02-2.68114E+02 1.65730E+02 1.00116E+02-2.87767E+02
 -1      1125-4.92174E+01-3.26951E+01-3.26975E+01 1.31721E+00-4.97686E+00 1.92807E+01
 -1      1126 8.54573E+01 2.10010E+02-2.08315E+02 2.05816E+02 1.21680E+02-2.19098E+02
 -1      1127-4.97096E+01-2.62818E+01-3.08961E+01 1.41694E+00-6.71097E+00 2.10203E+01
 -1      1128 6.51864E+01 1.00509E+02-1.28424E+02 1.97612E+02 1.04914E+02-1.48656E+02
 -1      1129-5.24210E+01-2.07415E+01-2.88494E+01 7.22248E-01-7.66647E+00 2.30088E+01
 -1      1130 5.36280E+01 2.06733E+01-1.53159E+00 1.40467E+02 5.49809E+01-1.00256E+02
 -1      1131-5.72612E+01-1.70488E+01-2.53059E+01-1.26812E+00-6.33005E+00 2.55574E+01
 -1      1132 1.00500E+02 6.89505E+01 2.88097E+02 1.02935E+02 1.76009E+01-8.85485E+01
 -1      1133-6.77445E+01-1.89846E+01-2.67296E+01-3.02337E+00-5.81283E+00 3.02081E+01
 -1      1134 1.03576E+02 5.34071E+01 3.01931E+02-8.69406E+01 5.88115E+00 2.11578E+01
 -1      1135-4.60500E+01-1.39085E+01-1.25975E+01 1.88545E+00 3.19642E+00 1.33401E+01
 -1      1136 7.50801E+01 2.51386E+01 9.31746E+01-1.28401E+02 5.12453E+00-2.01946E+01
 -1      1137-3.53026E+01-1.06890E+01-6.84390E+00 2.99011E-01 4.05389E+00 1.23476E+01
 -1      1138 8.93871E+01 1.02448E+02 5.04432E+00-1.94050E+02-1.61708E+01-6.69757E+01
 -1      1139-2.71698E+01-1.19318E+01-6.28828E+00-1.33475E+00 5.58803E+00 1.08895E+01
 -1      1140 1.11852E+02 2.14050E+02-4.15415E+01-2.09963E+02-3.79067E+01-1.47799E+02
 -1      1141-1.90109E+01-1.34873E+01-3.51360E+00-1.73126E+00 4.91445E+00 8.13612E+00
 -1      1142 1.33675E+02 3.21842E+02-6.33124E+01-1.65336E+02-3.40379E+01-2.27014E+02
 -1      1143-1.26461E+01-1.56593E+01 4.09198E-02-1.52718E+00 3.92684E+00 5.32895E+00
 -1      1144 1.51383E+02 3.92726E+02-6.19602E+01-8.48661E+01-1.61600E+01-2.66054E+02
 -1      1145-9.11195E+00-1.78754E+01 2.27074E+00-8.88644E-01 2.33397E+00 4.12080E+00
 -1      1146 1.58236E+02 4.15709E+02-5.78005E+01 1.73339E-05 2.58420E-05-2.76096E+02
 -1      1147-8.01444E+00-1.88874E+01 2.84786E+00 8.62160E-09-3.83656E-08 3.60461E+00
 -1      1148 1.51383E+02 3.92726E+02-6.19601E+01 8.48661E+01 1.61601E+01-2.66054E+02
 -1      1149-9.11195E+00-1.78754E+01 2.27074E+00 8.88644E-01-2.33397E+00 4.12080E+00
 -1      1150 1.33675E+02 3.21842E+02-6.33123E+01 1.65336E+02 3.40379E+01-2.27014E+02
 -1      1151-1.26461E+01-1.56593E+01 4.09198E-02 1.52718E+00-3.92684E+00 5.32895E+00
 -1      1152 1.11852E+02 2.14050E+02-4.15413E+01 2.09963E+02 3.79067E+01-1.47799E+02
 -1      1153-1.90109E+01-1.34873E+01-3.51360E+00 1.73126E+00-4.91445E+00 8.13612E+00
 -1      1154 8.93871E+01 1.02448E+02 5.04447E+00 1.94050E+02 1.61707E+01-6.69757E+01
 -1      1155-2.71698E+01-1.19318E+01-6.28828E+00 1.33475E+00-5.58803E+00 1.08895E+01
 -1      1156 7.50801E+01 2.51385E+01 9.31747E+01 1.28401E+02-5.12457E+00-2.01946E+01
 -1      1157-3.53026E+01-1.06890E+01-6.84390E+00-2.99011E-01-4.05389E+00 1.23476E+01
 -1      1158 1.03576E+02 5.34071E+01 3.01931E+02 8.69406E+01-5.88117E+00 2.11578E+01
 -1      1159-4.60500E+01-1.39085E+01-1.25975E+01-1.88545E+00-3.19642E+00 1.33401E+01
 -1      1160 8.47801E+01 3.99565E+01 1.77455E+02-3.47961E+01 1.79271E+01 6.77643E+01
 -1      1161-1.79954E+01-5.35292E+00-2.77099E+00-3.03495E-01 1.29710E+00 4.00302E+00
 -1      1162 7.25286E+01 2.32730E+01 7.56802E+01-5.47652E+01 3.64855E+01 2.02792E+01
 -1      1163-1.10377E+01-5.04568E+00 1.61131E+00-1.73761E+00 2.29735E+00 5.22757E+00
 -1      1164 8.58758E+01 5.95847E+01 3.11788E+01-1.09247E+02 3.91867E+01-9.00391E+00
 -1      1165-3.37207E+00-7.30726E+00 5.50770E+00-5.49431E+00 4.54493E+00 4.66480E+00
 -1      1166 9.65338E+01 1.20635E+02 1.06002E+01-1.40470E+02 2.50142E+01-9.51274E+01
 -1      1167-6.19210E+00-1.27340E+01 1.05271E-01-7.94290E+00 5.29778E+00 4.45775E+00
 -1      1168 1.04717E+02 1.78151E+02 9.02000E+00-9.53399E+01 1.80546E+01-1.80931E+02
 -1      1169-1.24231E+01-1.86649E+01-6.66583E+00-5.47007E+00 4.29740E+00 4.33861E+00
 -1      1170 1.13638E+02 2.06048E+02 1.83873E+01-3.42473E+01 1.25479E+01-2.05868E+02
 -1      1171-1.04885E+01-2.10990E+01-3.65927E+00-1.98184E+00 2.24230E+00 3.66551E+00
 -1      1172 1.15765E+02 2.10930E+02 2.33021E+01 4.83111E-05 1.86936E-05-2.06409E+02
 -1      1173-1.06096E+01-2.33340E+01-3.61898E+00 9.79903E-09-2.04203E-08 3.24024E+00
 -1      1174 1.13638E+02 2.06048E+02 1.83874E+01 3.42474E+01-1.25479E+01-2.05868E+02
 -1      1175-1.04885E+01-2.10990E+01-3.65927E+00 1.98184E+00-2.24230E+00 3.66551E+00
 -1      1176 1.04717E+02 1.78151E+02 9.02009E+00 9.53400E+01-1.80546E+01-1.80931E+02
 -1      1177-1.24231E+01-1.86649E+01-6.66583E+00 5.47007E+00-4.29740E+00 4.33861E+00
 -1      1178 9.65337E+01 1.20635E+02 1.06004E+01 1.40470E+02-2.50142E+01-9.51270E+01
 -1      1179-6.19210E+00-1.27340E+01 1.05271E-01 7.94290E+00-5.29778E+00 4.45775E+00
 -1      1180 8.58757E+01 5.95846E+01 3.11789E+01 1.09247E+02-3.91867E+01-9.00387E+00
 -1      1181-3.37207E+00-7.30726E+00 5.50770E+00 5.49431E+00-4.54493E+00 4.66480E+00
 -1      1182 7.25286E+01 2.32730E+01 7.56802E+01 5.47652E+01-3.64855E+01 2.02792E+01
 -1      1183-1.10377E+01-5.04568E+00 1.61131E+00 1.73761E+00-2.29735E+00 5.22757E+00
 -1      1184 8.47801E+01 3.99566E+01 1.77455E+02 3.47961E+01-1.79271E+01 6.77643E+01
 -1      1185-1.79954E+01-5.35292E+00-2.77099E+00 3.03495E-01-1.29710E+00 4.00302E+00
 -1      1186 7.56986E+01 3.64213E+01 9.88511E+01 5.83367E+01 1.69245E+01 6.58593E+01
 -1      1187 1.12543E+00-4.39633E-01 3.41146E+00-3.83676E+00 6.92993E-01 1.96472E+00
 -1      1188 8.37283E+01 3.47875E+01 5.54887E+01 8.73408E+01 3.61683E+01 1.95399E+01
 -1      1189 5.52431E+00-1.42828E+00 6.07876E+00-5.44070E+00 2.17938E+00 3.81887E+00
 -1      1190 1.23063E+02 4.63368E+01 3.58043E+01 1.34526E+02 4.84651E+01 1.45660E+01
 -1      1191 1.11779E+01-3.56768E+00 1.11739E+01-6.96478E+00 2.89145E+00 4.67455E+00
 -1      1192 1.74612E+02 3.56023E+01 2.57889E+01 1.44954E+02 4.41112E+01-1.26877E+02
 -1      1193 1.28079E+01-9.91396E+00 5.86624E-01-5.79735E+00 1.65854E+00 3.71799E+00
 -1      1194 2.27046E+02 1.81356E+01 3.15613E+01 1.08359E+02 3.47806E+01-2.62701E+02
 -1      1195 1.16538E+01-1.64210E+01-1.26219E+01-5.12530E+00 2.55583E+00 2.34336E+00
 -1      1196 2.62312E+02 1.48239E+01 4.44800E+01 5.10840E+01 2.01015E+01-2.55903E+02
 -1      1197 1.20537E+01-1.65486E+01-9.52722E+00-3.54021E+00 2.30399E+00 2.51972E+00
 -1      1198 2.76170E+02 1.88225E+01 5.30206E+01 1.89565E-04 2.42729E-05-2.51165E+02
 -1      1199 1.07246E+01-1.74011E+01-9.76860E+00 2.42951E-08-8.41424E-09 2.04215E+00
 -1      1200 2.62312E+02 1.48237E+01 4.44799E+01-5.10837E+01-2.01015E+01-2.55903E+02
 -1      1201 1.20537E+01-1.65486E+01-9.52722E+00 3.54021E+00-2.30399E+00 2.51972E+00
 -1      1202 2.27045E+02 1.81353E+01 3.15613E+01-1.08359E+02-3.47806E+01-2.62700E+02
 -1      1203 1.16538E+01-1.64210E+01-1.26219E+01 5.12530E+00-2.55583E+00 2.34336E+00
 -1      1204 1.74611E+02 3.56020E+01 2.57888E+01-1.44954E+02-4.41114E+01-1.26876E+02
 -1      1205 1.28079E+01-9.91396E+00 5.86624E-01 5.79735E+00-1.65854E+00 3.71799E+00
 -1      1206 1.23063E+02 4.63370E+01 3.58044E+01-1.34526E+02-4.84653E+01 1.45660E+01
 -1      1207 1.11779E+01-3.56768E+00 1.11739E+01 6.96478E+00-2.89145E+00 4.67455E+00
 -1      1208 8.37282E+01 3.47876E+01 5.54887E+01-8.73409E+01-3.61683E+01 1.95399E+01
 -1      1209 5.52431E+00-1.42828E+00 6.07876E+00 5.44070E+00-2.17938E+00 3.81887E+00
 -1      1210 7.56986E+01 3.64213E+01 9.88510E+01-5.83367E+01-1.69245E+01 6.58593E+01
 -1      1211 1.12543E+00-4.39633E-01 3.41146E+00 3.83676E+00-6.92993E-01 1.96472E+00
 -1      1212-5.19475E+02-5.19478E+02-1.21210E+03 1.87040E-03-5.32018E+02-4.43932E+02
 -1      1213-5.19475E+02-5.19478E+02-1.21210E+03-1.87040E-03 5.32018E+02-4.43932E+02
 -1      1214-8.98143E+02-8.98143E+02-2.09566E+03 2.67593E-03-8.90561E+02-4.12265E+02
 -1      1215-8.98143E+02-8.98143E+02-2.09566E+03-2.67593E-03 8.90561E+02-4.12265E+02
 -1      1216-1.13364E+03-1.13364E+03-2.64514E+03 1.76821E-03-1.13179E+03-2.51365E+02
 -1      1217-1.13364E+03-1.13364E+03-2.64514E+03-1.76821E-03 1.13179E+03-2.51365E+02
 -1      1218-1.22799E+03-1.22799E+03-2.86529E+03 7.29711E-04-1.23228E+03-1.09752E+02
 -1      1219-1.22799E+03-1.22799E+03-2.86529E+03-7.29711E-04 1.23228E+03-1.09752E+02
 -1      1220-1.24209E+03-1.24208E+03-2.89818E+03 1.56940E-04-1.25378E+03-3.13775E+01
 -1      1221-1.24209E+03-1.24208E+03-2.89818E+03-1.56940E-04 1.25378E+03-3.13775E+01
 -1      1222-1.23611E+03-1.23611E+03-2.88424E+03-3.67220E-05-1.25135E+03-2.85890E-01
 -1      1223-1.23611E+03-1.23611E+03-2.88424E+03 3.67221E-05 1.25135E+03-2.85888E-01
 -1      1224-1.23203E+03-1.23203E+03-2.87471E+03-8.67284E-05-1.24747E+03 1.02330E+01
 -1      1225-1.23203E+03-1.23203E+03-2.87471E+03 8.67284E-05 1.24747E+03 1.02330E+01
 -1      1226-1.23195E+03-1.23195E+03-2.87454E+03-1.07211E-04-1.24646E+03 1.48843E+01
 -1      1227-1.23195E+03-1.23195E+03-2.87454E+03 1.07211E-04 1.24646E+03 1.48843E+01
 -1      1228-1.23340E+03-1.23340E+03-2.87792E+03-1.26087E-04-1.24708E+03 1.82703E+01
 -1      1229-1.23340E+03-1.23340E+03-2.87792E+03 1.26087E-04 1.24708E+03 1.82703E+01
 -1      1230-1.23481E+03-1.23481E+03-2.88121E+03-1.44056E-04-1.24800E+03 2.11605E+01
 -1      1231-1.23481E+03-1.23481E+03-2.88121E+03 1.44056E-04 1.24800E+03 2.11605E+01
 -1      1232-1.23576E+03-1.23576E+03-2.88343E+03-1.61043E-04-1.24865E+03 2.38396E+01
 -1      1233-1.23576E+03-1.23576E+03-2.88343E+03 1.61043E-04 1.24865E+03 2.38396E+01
 -1      1234-1.23600E+03-1.23600E+03-2.88399E+03-1.82905E-04-1.24858E+03 2.71530E+01
 -1      1235-1.23600E+03-1.23600E+03-2.88399E+03 1.82905E-04 1.24858E+03 2.71530E+01
 -1      1236-1.23431E+03-1.23430E+03-2.88003E+03-2.21608E-04-1.24659E+03 3.24872E+01
 -1      1237-1.23431E+03-1.23430E+03-2.88003E+03 2.21608E-04 1.24659E+03 3.24872E+01
 -1      1238-1.22764E+03-1.22764E+03-2.86447E+03-2.82859E-04-1.24035E+03 4.01508E+01
 -1      1239-1.22764E+03-1.22764E+03-2.86447E+03 2.82859E-04 1.24035E+03 4.01508E+01
 -1      1240-1.21333E+03-1.21333E+03-2.83110E+03-3.26751E-04-1.22868E+03 4.50430E+01
 -1      1241-1.21333E+03-1.21333E+03-2.83110E+03 3.26751E-04 1.22868E+03 4.50430E+01
 -1      1242-1.19962E+03-1.19961E+03-2.79909E+03-2.40305E-04-1.21866E+03 3.52637E+01
 -1      1243-1.19962E+03-1.19961E+03-2.79909E+03 2.40305E-04 1.21866E+03 3.52637E+01
 -1      1244-1.21820E+03-1.21820E+03-2.84245E+03 1.42593E-05-1.23273E+03 1.51460E+01
 -1      1245-1.21820E+03-1.21820E+03-2.84245E+03-1.42593E-05 1.23273E+03 1.51460E+01
 -1      1246-1.28872E+03-1.28872E+03-3.00699E+03-1.73335E-04-1.28390E+03 5.90445E+01
 -1      1247-1.28872E+03-1.28872E+03-3.00699E+03 1.73335E-04 1.28390E+03 5.90445E+01
 -1      1248-1.28385E+03-1.28385E+03-2.99563E+03-2.10941E-03-1.26211E+03 2.72897E+02
 -1      1249-1.28385E+03-1.28385E+03-2.99563E+03 2.10941E-03 1.26211E+03 2.72897E+02
 -1      1250-9.18573E+02-9.18573E+02-2.14332E+03-3.56495E-03-9.13470E+02 5.15253E+02
 -1      1251-9.18573E+02-9.18573E+02-2.14332E+03 3.56495E-03 9.13470E+02 5.15253E+02
 -1      1252-3.63085E+02-3.63089E+02-8.47202E+02-1.87909E-03-3.89864E+02 4.91665E+02
 -1      1253-3.63085E+02-3.63089E+02-8.47202E+02 1.87909E-03 3.89864E+02 4.91665E+02
 -1      1254-7.21474E+01-7.21506E+01-1.68350E+02-3.49519E-04-1.05177E+02 2.79302E+02
 -1      1255-7.21474E+01-7.21506E+01-1.68350E+02 3.49519E-04 1.05177E+02 2.79302E+02
 -1      1256 3.81369E+00 3.81219E+00 8.89569E+00 2.58396E-05-1.78452E+01 1.23110E+02
 -1      1257 3.81369E+00 3.81219E+00 8.89569E+00-2.58396E-05 1.78452E+01 1.23110E+02
 -1      1258-1.84174E+02-4.89423E+01-6.92481E+02-3.72640E+01-2.53908E+02-4.22795E+02
 -1      1259-1.84174E+02-4.89423E+01-6.92481E+02 3.72640E+01 2.53908E+02-4.22795E+02
 -1      1260-2.99218E+02-1.05424E+02-1.17012E+03-3.83949E+01-4.31561E+02-3.98134E+02
 -1      1261-2.99218E+02-1.05424E+02-1.17012E+03 3.83949E+01 4.31561E+02-3.98134E+02
 -1      1262-3.51178E+02-1.32292E+02-1.47526E+03-2.20320E+01-5.49771E+02-2.42597E+02
 -1      1263-3.51178E+02-1.32292E+02-1.47526E+03 2.20320E+01 5.49771E+02-2.42597E+02
 -1      1264-4.24890E+02-1.40665E+02-1.59339E+03-7.10198E+00-5.94024E+02-1.04887E+02
 -1      1265-4.24890E+02-1.40665E+02-1.59339E+03 7.10198E+00 5.94024E+02-1.04887E+02
 -1      1266-4.80163E+02-1.46116E+02-1.61254E+03-2.84312E-01-6.02128E+02-2.96253E+01
 -1      1267-4.80163E+02-1.46116E+02-1.61254E+03 2.84312E-01 6.02128E+02-2.96253E+01
 -1      1268-5.08661E+02-1.48773E+02-1.60686E+03 1.22737E+00-6.00031E+02-1.25685E-01
 -1      1269-5.08661E+02-1.48773E+02-1.60686E+03-1.22737E+00 6.00031E+02-1.25683E-01
 -1      1270-5.19680E+02-1.50188E+02-1.60398E+03 9.98195E-01-5.97911E+02 9.89029E+00
 -1      1271-5.19680E+02-1.50188E+02-1.60398E+03-9.98195E-01 5.97911E+02 9.89030E+00
 -1      1272-5.23390E+02-1.50713E+02-1.60552E+03 6.07417E-01-5.97308E+02 1.44706E+01
 -1      1273-5.23390E+02-1.50713E+02-1.60552E+03-6.07417E-01 5.97308E+02 1.44706E+01
 -1      1274-5.25058E+02-1.50916E+02-1.60834E+03 4.11058E-01-5.97512E+02 1.78678E+01
 -1      1275-5.25058E+02-1.50916E+02-1.60834E+03-4.11058E-01 5.97512E+02 1.78678E+01
 -1      1276-5.26081E+02-1.51008E+02-1.61063E+03 3.59802E-01-5.97885E+02 2.07477E+01
 -1      1277-5.26081E+02-1.51008E+02-1.61063E+03-3.59802E-01 5.97885E+02 2.07477E+01
 -1      1278-5.26327E+02-1.51010E+02-1.61206E+03 3.91232E-01-5.98162E+02 2.33749E+01
 -1      1279-5.26327E+02-1.51010E+02-1.61206E+03-3.91232E-01 5.98162E+02 2.33749E+01
 -1      1280-5.25251E+02-1.50881E+02-1.61244E+03 5.38254E-01-5.98146E+02 2.65797E+01
 -1      1281-5.25251E+02-1.50881E+02-1.61244E+03-5.38254E-01 5.98146E+02 2.65797E+01
 -1      1282-5.22661E+02-1.50665E+02-1.61030E+03 9.12157E-01-5.97301E+02 3.17551E+01
 -1      1283-5.22661E+02-1.50665E+02-1.61030E+03-9.12157E-01 5.97301E+02 3.17551E+01
 -1      1284-5.20214E+02-1.50502E+02-1.60167E+03 1.52173E+00-5.94513E+02 3.93559E+01
 -1      1285-5.20214E+02-1.50502E+02-1.60167E+03-1.52173E+00 5.94513E+02 3.93559E+01
 -1      1286-5.21718E+02-1.49923E+02-1.58207E+03 1.75118E+00-5.88942E+02 4.46173E+01
 -1      1287-5.21718E+02-1.49923E+02-1.58207E+03-1.75118E+00 5.88942E+02 4.46173E+01
 -1      1288-5.25138E+02-1.46955E+02-1.56031E+03-2.26936E-01-5.83306E+02 3.54179E+01
 -1      1289-5.25138E+02-1.46955E+02-1.56031E+03 2.26936E-01 5.83306E+02 3.54179E+01
 -1      1290-5.05991E+02-1.41085E+02-1.57990E+03-4.52752E+00-5.88512E+02 1.38947E+01
 -1      1291-5.05991E+02-1.41085E+02-1.57990E+03 4.52752E+00 5.88512E+02 1.38947E+01
 -1      1292-4.34185E+02-1.42904E+02-1.67668E+03-6.16322E-01-6.16603E+02 5.23175E+01
 -1      1293-4.34185E+02-1.42904E+02-1.67668E+03 6.16322E-01 6.16603E+02 5.23175E+01
 -1      1294-3.55930E+02-1.56166E+02-1.68923E+03 2.60225E+01-6.18716E+02 2.62081E+02
 -1      1295-3.55930E+02-1.56166E+02-1.68923E+03-2.60225E+01 6.18717E+02 2.62081E+02
 -1      1296-3.01026E+02-1.14582E+02-1.20484E+03 5.66598E+01-4.45349E+02 5.04400E+02
 -1      1297-3.01026E+02-1.14582E+02-1.20484E+03-5.66598E+01 4.45349E+02 5.04400E+02
 -1      1298-2.50786E+02-3.81698E+01-4.56965E+02 5.33965E+01-1.75720E+02 4.79134E+02
 -1      1299-2.50786E+02-3.81698E+01-4.56965E+02-5.33965E+01 1.75720E+02 4.79134E+02
 -1      1300-1.90206E+02-1.74967E+01-8.41639E+01 2.55390E+01-4.29347E+01 2.67378E+02
 -1      1301-1.90206E+02-1.74967E+01-8.41639E+01-2.55390E+01 4.29347E+01 2.67378E+02
 -1      1302-8.79221E+01-1.25350E+01 4.48351E-01 4.32780E+00-7.54042E+00 1.15159E+02
 -1      1303-8.79221E+01-1.25350E+01 4.48351E-01-4.32780E+00 7.54042E+00 1.15159E+02
 -1      1304 2.46176E+01 6.72722E+01-1.58591E+02-6.92470E+01-1.24706E+02-2.95204E+02
 -1      1305 2.46176E+01 6.72722E+01-1.58591E+02 6.92470E+01 1.24706E+02-2.95204E+02
 -1      1306 1.20425E+02 9.14188E+01-2.02829E+02-6.50649E+01-2.23484E+02-2.67091E+02
 -1      1307 1.20425E+02 9.14188E+01-2.02829E+02 6.50649E+01 2.23484E+02-2.67091E+02
 -1      1308 1.64469E+02 1.19838E+02-2.56439E+02-3.62332E+01-2.84241E+02-1.63056E+02
 -1      1309 1.64469E+02 1.19838E+02-2.56439E+02 3.62332E+01 2.84241E+02-1.63056E+02
 -1      1310 1.15779E+02 1.33546E+02-2.59601E+02-1.10037E+01-3.00675E+02-7.07678E+01
 -1      1311 1.15779E+02 1.33546E+02-2.59601E+02 1.10037E+01 3.00675E+02-7.07678E+01
 -1      1312 4.48079E+01 1.32994E+02-2.48242E+02-1.05987E-01-3.01454E+02-2.09457E+01
 -1      1313 4.48079E+01 1.32994E+02-2.48242E+02 1.05987E-01 3.01454E+02-2.09457E+01
 -1      1314-1.15612E+00 1.28378E+02-2.42446E+02 2.24432E+00-2.99420E+02-2.96761E-01
 -1      1315-1.15612E+00 1.28378E+02-2.42446E+02-2.24432E+00 2.99420E+02-2.96760E-01
 -1      1316-2.17869E+01 1.25142E+02-2.43601E+02 1.86643E+00-2.98254E+02 8.34647E+00
 -1      1317-2.17869E+01 1.25142E+02-2.43601E+02-1.86643E+00 2.98254E+02 8.34647E+00
 -1      1318-2.93039E+01 1.23827E+02-2.46806E+02 1.24958E+00-2.97951E+02 1.33143E+01
 -1      1319-2.93039E+01 1.23827E+02-2.46806E+02-1.24958E+00 2.97951E+02 1.33143E+01
 -1      1320-3.22280E+01 1.23507E+02-2.49384E+02 9.39728E-01-2.98009E+02 1.69463E+01
 -1      1321-3.22280E+01 1.23507E+02-2.49384E+02-9.39728E-01 2.98009E+02 1.69463E+01
 -1      1322-3.36034E+01 1.23510E+02-2.50893E+02 8.59077E-01-2.98140E+02 1.97229E+01
 -1      1323-3.36034E+01 1.23510E+02-2.50893E+02-8.59077E-01 2.98140E+02 1.97229E+01
 -1      1324-3.37500E+01 1.23624E+02-2.51745E+02 9.09069E-01-2.98246E+02 2.19861E+01
 -1      1325-3.37500E+01 1.23624E+02-2.51745E+02-9.09069E-01 2.98246E+02 2.19861E+01
 -1      1326-3.22556E+01 1.23747E+02-2.52406E+02 1.14038E+00-2.98270E+02 2.44075E+01
 -1      1327-3.22556E+01 1.23747E+02-2.52406E+02-1.14038E+00 2.98270E+02 2.44075E+01
 -1      1328-2.95864E+01 1.23503E+02-2.52769E+02 1.72963E+00-2.98016E+02 2.80799E+01
 -1      1329-2.95864E+01 1.23503E+02-2.52769E+02-1.72963E+00 2.98016E+02 2.80799E+01
 -1      1330-2.93842E+01 1.22159E+02-2.50954E+02 2.71110E+00-2.96954E+02 3.38631E+01
 -1      1331-2.93842E+01 1.22159E+02-2.50954E+02-2.71110E+00 2.96954E+02 3.38631E+01
 -1      1332-3.76150E+01 1.20172E+02-2.42471E+02 3.24335E+00-2.94190E+02 3.95356E+01
 -1      1333-3.76150E+01 1.20172E+02-2.42471E+02-3.24335E+00 2.94190E+02 3.95356E+01
 -1      1334-4.69123E+01 1.22195E+02-2.27409E+02 4.72283E-01-2.89762E+02 3.62986E+01
 -1      1335-4.69123E+01 1.22195E+02-2.27409E+02-4.72283E-01 2.89762E+02 3.62986E+01
 -1      1336-8.99976E+00 1.34141E+02-2.32473E+02-7.07801E+00-2.89070E+02 2.03970E+01
 -1      1337-8.99976E+00 1.34141E+02-2.32473E+02 7.07801E+00 2.89070E+02 2.03970E+01
 -1      1338 1.25923E+02 1.43524E+02-2.93355E+02-3.10385E+00-3.07911E+02 3.61645E+01
 -1      1339 1.25923E+02 1.43524E+02-2.93355E+02 3.10385E+00 3.07911E+02 3.61645E+01
 -1      1340 2.26784E+02 1.15163E+02-3.48610E+02 4.20005E+01-3.32720E+02 1.71426E+02
 -1      1341 2.26784E+02 1.15163E+02-3.48610E+02-4.20005E+01 3.32720E+02 1.71426E+02
 -1      1342 9.87869E+01 8.13504E+01-2.26221E+02 9.71485E+01-2.35253E+02 3.37216E+02
 -1      1343 9.87869E+01 8.13504E+01-2.26221E+02-9.71485E+01 2.35253E+02 3.37216E+02
 -1      1344-1.39331E+02 5.52774E+01-1.27657E+01 8.99831E+01-6.67474E+01 3.16378E+02
 -1      1345-1.39331E+02 5.52774E+01-1.27657E+01-8.99831E+01 6.67474E+01 3.16378E+02
 -1      1346-2.14543E+02 7.29488E+00 6.05912E+01 4.05525E+01-9.74715E+00 1.73323E+02
 -1      1347-2.14543E+02 7.29488E+00 6.05912E+01-4.05525E+01 9.74715E+00 1.73323E+02
 -1      1348-1.21333E+02-1.22070E+01 2.30770E+01 9.05635E+00-2.20897E+00 8.21619E+01
 -1      1349-1.21333E+02-1.22070E+01 2.30770E+01-9.05635E+00 2.20897E+00 8.21619E+01
 -1      1350 1.31709E+02 1.07969E+02 1.30470E+02-8.50249E+01-7.47241E+01-1.29024E+02
 -1      1351 1.31709E+02 1.07969E+02 1.30470E+02 8.50249E+01 7.47241E+01-1.29024E+02
 -1      1352 3.26733E+02 1.57477E+02 3.10274E+02-7.44963E+01-1.52228E+02-1.23467E+02
 -1      1353 3.26733E+02 1.57477E+02 3.10274E+02 7.44963E+01 1.52228E+02-1.23467E+02
 -1      1354 4.15115E+02 2.09811E+02 3.96908E+02-3.85444E+01-1.88563E+02-7.44977E+01
 -1      1355 4.15115E+02 2.09811E+02 3.96908E+02 3.85444E+01 1.88563E+02-7.44977E+01
 -1      1356 3.76141E+02 2.31085E+02 4.38522E+02-1.01184E+01-1.93376E+02-3.32651E+01
 -1      1357 3.76141E+02 2.31085E+02 4.38522E+02 1.01184E+01 1.93376E+02-3.32651E+01
 -1      1358 3.02939E+02 2.32812E+02 4.58271E+02 1.12860E+00-1.90142E+02-1.10401E+01
 -1      1359 3.02939E+02 2.32812E+02 4.58271E+02-1.12860E+00 1.90142E+02-1.10401E+01
 -1      1360 2.51169E+02 2.28106E+02 4.61524E+02 3.22583E+00-1.87903E+02-4.78443E-01
 -1      1361 2.51169E+02 2.28106E+02 4.61524E+02-3.22583E+00 1.87903E+02-4.78442E-01
 -1      1362 2.25942E+02 2.24584E+02 4.58375E+02 2.67854E+00-1.87218E+02 6.18062E+00
 -1      1363 2.25942E+02 2.24584E+02 4.58375E+02-2.67854E+00 1.87218E+02 6.18062E+00
 -1      1364 2.15521E+02 2.23166E+02 4.54877E+02 2.00456E+00-1.87192E+02 1.11985E+01
 -1      1365 2.15521E+02 2.23166E+02 4.54877E+02-2.00456E+00 1.87192E+02 1.11985E+01
 -1      1366 2.11044E+02 2.22838E+02 4.52768E+02 1.69434E+00-1.87304E+02 1.48706E+01
 -1      1367 2.11044E+02 2.22838E+02 4.52768E+02-1.69434E+00 1.87304E+02 1.48706E+01
 -1      1368 2.08949E+02 2.22872E+02 4.51804E+02 1.62470E+00-1.87399E+02 1.74102E+01
 -1      1369 2.08949E+02 2.22872E+02 4.51804E+02-1.62470E+00 1.87399E+02 1.74102E+01
 -1      1370 2.08527E+02 2.23009E+02 4.51328E+02 1.68215E+00-1.87470E+02 1.91950E+01
 -1      1371 2.08527E+02 2.23009E+02 4.51328E+02-1.68215E+00 1.87470E+02 1.91950E+01
 -1      1372 2.09919E+02 2.23109E+02 4.50689E+02 1.92090E+00-1.87539E+02 2.07124E+01
 -1      1373 2.09919E+02 2.23109E+02 4.50689E+02-1.92090E+00 1.87539E+02 2.07124E+01
 -1      1374 2.12463E+02 2.22743E+02 4.49441E+02 2.54972E+00-1.87553E+02 2.27405E+01
 -1      1375 2.12463E+02 2.22743E+02 4.49441E+02-2.54972E+00 1.87553E+02 2.27405E+01
 -1      1376 2.12485E+02 2.21005E+02 4.48133E+02 3.66457E+00-1.87168E+02 2.65010E+01
 -1      1377 2.12485E+02 2.21005E+02 4.48133E+02-3.66457E+00 1.87168E+02 2.65010E+01
 -1      1378 2.03980E+02 2.18096E+02 4.49666E+02 4.54968E+00-1.85275E+02 3.22355E+01
 -1      1379 2.03980E+02 2.18096E+02 4.49666E+02-4.54968E+00 1.85275E+02 3.22355E+01
 -1      1380 1.93848E+02 2.18859E+02 4.56647E+02 2.17901E+00-1.80504E+02 3.45020E+01
 -1      1381 1.93848E+02 2.18859E+02 4.56647E+02-2.17901E+00 1.80504E+02 3.45020E+01
 -1      1382 2.32275E+02 2.31772E+02 4.54947E+02-7.26567E+00-1.76587E+02 2.46621E+01
 -1      1383 2.32275E+02 2.31772E+02 4.54947E+02 7.26567E+00 1.76587E+02 2.46621E+01
 -1      1384 3.82013E+02 2.47782E+02 4.27448E+02-8.01560E+00-1.93887E+02 1.83310E+01
 -1      1385 3.82013E+02 2.47782E+02 4.27448E+02 8.01560E+00 1.93887E+02 1.83310E+01
 -1      1386 4.94462E+02 2.09507E+02 3.97119E+02 4.47071E+01-2.36262E+02 7.17808E+01
 -1      1387 4.94462E+02 2.09507E+02 3.97119E+02-4.47071E+01 2.36262E+02 7.17808E+01
 -1      1388 2.85697E+02 1.47918E+02 3.04805E+02 1.16064E+02-1.61978E+02 1.50094E+02
 -1      1389 2.85697E+02 1.47918E+02 3.04805E+02-1.16064E+02 1.61978E+02 1.50094E+02
 -1      1390-7.94351E+01 9.41450E+01 1.72228E+02 1.03842E+02-1.77017E+01 1.36040E+02
 -1      1391-7.94351E+01 9.41450E+01 1.72228E+02-1.03842E+02 1.77017E+01 1.36040E+02
 -1      1392-2.03754E+02 1.52935E+01 1.03038E+02 4.12318E+01 7.17804E+00 7.13414E+01
 -1      1393-2.03754E+02 1.52935E+01 1.03038E+02-4.12318E+01-7.17804E+00 7.13414E+01
 -1      1394-1.18589E+02-1.14381E+01 2.71802E+01 8.92459E+00 1.73598E+00 4.03126E+01
 -1      1395-1.18589E+02-1.14381E+01 2.71802E+01-8.92459E+00-1.73598E+00 4.03126E+01
 -1      1396 1.40903E+02 5.06457E+01 2.07759E+02-7.45320E+01-2.66673E+01 2.49571E+01
 -1      1397 1.40903E+02 5.06457E+01 2.07759E+02 7.45320E+01 2.66673E+01 2.49571E+01
 -1      1398 3.19345E+02 3.73834E+01 4.34941E+02-6.15778E+01-6.67487E+01 1.51812E+01
 -1      1399 3.19345E+02 3.73834E+01 4.34941E+02 6.15778E+01 6.67487E+01 1.51812E+01
 -1      1400 4.01122E+02 7.13709E+01 5.55106E+02-2.78621E+01-7.92361E+01 1.36699E+00
 -1      1401 4.01122E+02 7.13709E+01 5.55106E+02 2.78621E+01 7.92361E+01 1.36700E+00
 -1      1402 3.69765E+02 8.76278E+01 5.97998E+02-4.85785E+00-7.51864E+01-3.87312E+00
 -1      1403 3.69765E+02 8.76278E+01 5.97998E+02 4.85785E+00 7.51864E+01-3.87312E+00
 -1      1404 3.08722E+02 9.07496E+01 6.12159E+02 3.09554E+00-7.02450E+01-4.44076E+00
 -1      1405 3.08722E+02 9.07496E+01 6.12159E+02-3.09554E+00 7.02450E+01-4.44076E+00
 -1      1406 2.62470E+02 8.83919E+01 6.12586E+02 4.19110E+00-6.85603E+01-1.43172E+00
 -1      1407 2.62470E+02 8.83919E+01 6.12586E+02-4.19110E+00 6.85603E+01-1.43172E+00
 -1      1408 2.36880E+02 8.62017E+01 6.09369E+02 3.57453E+00-6.84575E+01 3.46861E+00
 -1      1409 2.36880E+02 8.62017E+01 6.09369E+02-3.57453E+00 6.84575E+01 3.46861E+00
 -1      1410 2.24264E+02 8.51982E+01 6.06671E+02 3.04762E+00-6.86733E+01 8.03225E+00
 -1      1411 2.24264E+02 8.51982E+01 6.06671E+02-3.04762E+00 6.86733E+01 8.03226E+00
 -1      1412 2.18019E+02 8.48678E+01 6.05232E+02 2.85315E+00-6.88197E+01 1.12882E+01
 -1      1413 2.18019E+02 8.48678E+01 6.05232E+02-2.85315E+00 6.88197E+01 1.12882E+01
 -1      1414 2.14961E+02 8.48081E+01 6.04662E+02 2.83594E+00-6.88800E+01 1.33409E+01
 -1      1415 2.14961E+02 8.48081E+01 6.04662E+02-2.83594E+00 6.88800E+01 1.33409E+01
 -1      1416 2.13991E+02 8.48452E+01 6.04414E+02 2.89427E+00-6.89148E+01 1.45745E+01
 -1      1417 2.13991E+02 8.48452E+01 6.04414E+02-2.89427E+00 6.89148E+01 1.45745E+01
 -1      1418 2.14811E+02 8.48711E+01 6.03983E+02 3.07362E+00-6.89952E+01 1.52817E+01
 -1      1419 2.14811E+02 8.48711E+01 6.03983E+02-3.07362E+00 6.89952E+01 1.52817E+01
 -1      1420 2.16831E+02 8.46559E+01 6.02914E+02 3.56498E+00-6.91833E+01 1.58600E+01
 -1      1421 2.16831E+02 8.46559E+01 6.02914E+02-3.56498E+00 6.91833E+01 1.58600E+01
 -1      1422 2.17971E+02 8.37084E+01 6.01160E+02 4.51753E+00-6.93325E+01 1.74092E+01
 -1      1423 2.17971E+02 8.37084E+01 6.01160E+02-4.51753E+00 6.93325E+01 1.74092E+01
 -1      1424 2.14819E+02 8.21535E+01 5.99482E+02 5.50098E+00-6.85258E+01 2.15240E+01
 -1      1425 2.14819E+02 8.21535E+01 5.99482E+02-5.50098E+00 6.85258E+01 2.15240E+01
 -1      1426 2.11403E+02 8.37975E+01 5.99662E+02 4.36614E+00-6.45594E+01 2.67429E+01
 -1      1427 2.11403E+02 8.37975E+01 5.99662E+02-4.36614E+00 6.45594E+01 2.67429E+01
 -1      1428 2.39024E+02 9.39793E+01 5.95569E+02-4.33439E+00-5.88981E+01 2.66877E+01
 -1      1429 2.39024E+02 9.39793E+01 5.95569E+02 4.33439E+00 5.88981E+01 2.66877E+01
 -1      1430 3.56015E+02 1.11816E+02 5.97403E+02-1.11467E+01-7.17037E+01 1.58745E+01
 -1      1431 3.56015E+02 1.11816E+02 5.97403E+02 1.11467E+01 7.17037E+01 1.58745E+01
 -1      1432 4.36428E+02 3.83822E+01 6.01773E+02 3.37565E+01-1.14862E+02-1.16985E+01
 -1      1433 4.36428E+02 3.83822E+01 6.01773E+02-3.37565E+01 1.14862E+02-1.16985E+01
 -1      1434 2.58085E+02 2.86354E+01 4.39210E+02 1.02409E+02-7.31763E+01-4.10142E+01
 -1      1435 2.58085E+02 2.86354E+01 4.39210E+02-1.02409E+02 7.31763E+01-4.10142E+01
 -1      1436-3.97422E+01 8.80820E+01 1.83179E+02 8.71690E+01 1.78708E+01-3.75890E+01
 -1      1437-3.97422E+01 8.80820E+01 1.83179E+02-8.71690E+01-1.78708E+01-3.75890E+01
 -1      1438-1.50478E+02 8.22683E+00 7.76020E+01 2.79438E+01 1.71595E+01-1.06292E+01
 -1      1439-1.50478E+02 8.22683E+00 7.76020E+01-2.79438E+01-1.71595E+01-1.06292E+01
 -1      1440-8.36188E+01-7.94087E+00 1.98199E+01 4.80350E+00 3.31083E+00 7.94745E+00
 -1      1441-8.36188E+01-7.94087E+00 1.98199E+01-4.80350E+00-3.31083E+00 7.94745E+00
 -1      1442 1.12521E+02 1.82026E+01 1.38872E+02-2.70329E+01 1.60484E+01 9.36604E+01
 -1      1443 1.12521E+02 1.82026E+01 1.38872E+02 2.70329E+01-1.60484E+01 9.36604E+01
 -1      1444 2.18986E+02-5.84631E+00 2.81733E+02-1.76861E+01 2.69828E+01 8.14079E+01
 -1      1445 2.18986E+02-5.84630E+00 2.81733E+02 1.76861E+01-2.69828E+01 8.14079E+01
 -1      1446 2.68335E+02 1.50490E+01 3.61338E+02-3.63860E+00 3.20793E+01 3.46628E+01
 -1      1447 2.68335E+02 1.50490E+01 3.61338E+02 3.63860E+00-3.20793E+01 3.46628E+01
 -1      1448 2.54178E+02 2.70979E+01 3.85758E+02 2.58474E+00 3.99088E+01 6.49044E+00
 -1      1449 2.54178E+02 2.70979E+01 3.85758E+02-2.58474E+00-3.99088E+01 6.49045E+00
 -1      1450 2.18706E+02 3.06203E+01 3.92496E+02 4.29287E+00 4.35660E+01-2.39827E+00
 -1      1451 2.18706E+02 3.06203E+01 3.92496E+02-4.29287E+00-4.35660E+01-2.39827E+00
 -1      1452 1.85164E+02 3.05143E+01 3.92691E+02 4.26905E+00 4.39842E+01-2.09329E+00
 -1      1453 1.85164E+02 3.05143E+01 3.92691E+02-4.26905E+00-4.39842E+01-2.09329E+00
 -1      1454 1.61117E+02 2.97023E+01 3.91151E+02 3.98655E+00 4.35401E+01 1.07435E+00
 -1      1455 1.61117E+02 2.97023E+01 3.91151E+02-3.98655E+00-4.35401E+01 1.07435E+00
 -1      1456 1.46417E+02 2.90571E+01 3.89716E+02 3.88505E+00 4.31856E+01 4.09043E+00
 -1      1457 1.46417E+02 2.90571E+01 3.89716E+02-3.88505E+00-4.31856E+01 4.09043E+00
 -1      1458 1.38336E+02 2.86870E+01 3.88885E+02 3.92897E+00 4.30484E+01 6.12763E+00
 -1      1459 1.38336E+02 2.86870E+01 3.88885E+02-3.92897E+00-4.30484E+01 6.12763E+00
 -1      1460 1.34323E+02 2.85166E+01 3.88524E+02 4.00490E+00 4.30251E+01 7.32544E+00
 -1      1461 1.34323E+02 2.85166E+01 3.88524E+02-4.00490E+00-4.30251E+01 7.32544E+00
 -1      1462 1.32766E+02 2.84415E+01 3.88350E+02 4.06659E+00 4.30274E+01 7.96858E+00
 -1      1463 1.32766E+02 2.84415E+01 3.88350E+02-4.06659E+00-4.30275E+01 7.96858E+00
 -1      1464 1.32719E+02 2.83703E+01 3.88090E+02 4.13824E+00 4.29754E+01 8.18207E+00
 -1      1465 1.32719E+02 2.83703E+01 3.88090E+02-4.13824E+00-4.29754E+01 8.18206E+00
 -1      1466 1.33590E+02 2.82645E+01 3.87577E+02 4.32052E+00 4.27489E+01 8.03001E+00
 -1      1467 1.33590E+02 2.82645E+01 3.87577E+02-4.32052E+00-4.27489E+01 8.03001E+00
 -1      1468 1.35583E+02 2.81079E+01 3.86873E+02 4.67488E+00 4.23013E+01 7.92792E+00
 -1      1469 1.35583E+02 2.81079E+01 3.86873E+02-4.67487E+00-4.23013E+01 7.92792E+00
 -1      1470 1.40826E+02 2.79920E+01 3.85849E+02 5.11146E+00 4.21022E+01 8.95175E+00
 -1      1471 1.40826E+02 2.79920E+01 3.85849E+02-5.11146E+00-4.21022E+01 8.95175E+00
 -1      1472 1.51994E+02 2.86013E+01 3.82952E+02 5.05754E+00 4.38164E+01 1.23956E+01
 -1      1473 1.51994E+02 2.86013E+01 3.82952E+02-5.05754E+00-4.38164E+01 1.23956E+01
 -1      1474 1.69078E+02 3.23712E+01 3.76157E+02 2.34586E+00 4.89211E+01 2.17801E+01
 -1      1475 1.69078E+02 3.23712E+01 3.76157E+02-2.34586E+00-4.89211E+01 2.17801E+01
 -1      1476 2.08886E+02 4.50462E+01 3.85774E+02-4.73783E+00 3.96797E+01 2.37332E+01
 -1      1477 2.08886E+02 4.50462E+01 3.85774E+02 4.73783E+00-3.96797E+01 2.37332E+01
 -1      1478 2.22441E+02-1.20883E+01 4.04776E+02 8.12401E+00 2.45283E+01-4.37862E+01
 -1      1479 2.22441E+02-1.20883E+01 4.04776E+02-8.12401E+00-2.45283E+01-4.37862E+01
 -1      1480 1.37079E+02-5.33741E+00 2.90619E+02 3.56101E+01 2.34462E+01-1.39822E+02
 -1      1481 1.37079E+02-5.33741E+00 2.90619E+02-3.56101E+01-2.34462E+01-1.39822E+02
 -1      1482 1.07985E+01 6.13438E+01 1.03970E+02 2.57779E+01 2.51301E+01-1.21117E+02
 -1      1483 1.07985E+01 6.13438E+01 1.03970E+02-2.57779E+01-2.51301E+01-1.21117E+02
 -1      1484-4.69457E+01 6.85777E+00 3.73965E+01 2.77194E+00 1.90945E+01-3.88520E+01
 -1      1485-4.69457E+01 6.85777E+00 3.73965E+01-2.77194E+00-1.90945E+01-3.88520E+01
 -1      1486-2.80107E+01-1.53853E+00 1.17207E+01-5.23549E-01 2.44382E+00-2.78372E+00
 -1      1487-2.80107E+01-1.53854E+00 1.17207E+01 5.23549E-01-2.44382E+00-2.78372E+00
 -1      1488 1.41083E+02 1.30666E+02 1.25021E+02 8.50752E+01 1.34915E+01 9.28363E+01
 -1      1489 1.41083E+02 1.30666E+02 1.25021E+02-8.50752E+01-1.34915E+01 9.28363E+01
 -1      1490 2.61342E+02 2.84230E+02 2.65511E+02 8.57727E+01 2.68623E+01 8.45030E+01
 -1      1491 2.61342E+02 2.84230E+02 2.65511E+02-8.57727E+01-2.68623E+01 8.45030E+01
 -1      1492 3.01281E+02 3.48909E+02 3.27824E+02 4.11323E+01 3.33070E+01 3.60557E+01
 -1      1493 3.01281E+02 3.48909E+02 3.27824E+02-4.11323E+01-3.33070E+01 3.60557E+01
 -1      1494 3.07410E+02 3.57913E+02 3.43344E+02 1.20180E+01 3.97304E+01 5.83291E+00
 -1      1495 3.07410E+02 3.57913E+02 3.43344E+02-1.20180E+01-3.97304E+01 5.83291E+00
 -1      1496 2.97953E+02 3.54734E+02 3.48445E+02 3.11259E+00 4.20175E+01-2.02372E+00
 -1      1497 2.97953E+02 3.54734E+02 3.48445E+02-3.11259E+00-4.20175E+01-2.02372E+00
 -1      1498 2.74307E+02 3.52289E+02 3.49322E+02 1.98517E+00 4.19527E+01-1.53204E+00
 -1      1499 2.74307E+02 3.52289E+02 3.49322E+02-1.98517E+00-4.19527E+01-1.53204E+00
 -1      1500 2.49584E+02 3.50730E+02 3.48120E+02 2.85548E+00 4.14664E+01 5.46500E-01
 -1      1501 2.49584E+02 3.50730E+02 3.48120E+02-2.85548E+00-4.14664E+01 5.46500E-01
 -1      1502 2.32262E+02 3.49824E+02 3.46759E+02 3.74910E+00 4.11627E+01 2.24435E+00
 -1      1503 2.32262E+02 3.49824E+02 3.46759E+02-3.74910E+00-4.11627E+01 2.24435E+00
 -1      1504 2.22640E+02 3.49390E+02 3.45966E+02 4.30332E+00 4.10566E+01 3.29859E+00
 -1      1505 2.22640E+02 3.49390E+02 3.45966E+02-4.30332E+00-4.10566E+01 3.29859E+00
 -1      1506 2.18113E+02 3.49237E+02 3.45650E+02 4.58026E+00 4.10410E+01 3.89120E+00
 -1      1507 2.18113E+02 3.49237E+02 3.45650E+02-4.58026E+00-4.10410E+01 3.89120E+00
 -1      1508 2.16330E+02 3.49194E+02 3.45506E+02 4.66743E+00 4.10477E+01 4.19726E+00
 -1      1509 2.16330E+02 3.49194E+02 3.45506E+02-4.66743E+00-4.10477E+01 4.19726E+00
 -1      1510 2.15569E+02 3.49138E+02 3.45239E+02 4.55885E+00 4.10212E+01 4.26325E+00
 -1      1511 2.15569E+02 3.49138E+02 3.45239E+02-4.55885E+00-4.10212E+01 4.26325E+00
 -1      1512 2.14784E+02 3.49007E+02 3.44722E+02 4.13950E+00 4.08598E+01 4.00367E+00
 -1      1513 2.14784E+02 3.49007E+02 3.44722E+02-4.13950E+00-4.08598E+01 4.00366E+00
 -1      1514 2.15819E+02 3.48741E+02 3.44300E+02 3.20283E+00 4.04954E+01 3.28456E+00
 -1      1515 2.15819E+02 3.48741E+02 3.44300E+02-3.20283E+00-4.04954E+01 3.28456E+00
 -1      1516 2.27632E+02 3.47642E+02 3.44714E+02 2.00073E+00 4.01472E+01 2.18437E+00
 -1      1517 2.27632E+02 3.47642E+02 3.44714E+02-2.00073E+00-4.01472E+01 2.18437E+00
 -1      1518 2.56785E+02 3.40963E+02 3.42270E+02 2.31588E+00 4.12646E+01 3.08745E+00
 -1      1519 2.56785E+02 3.40963E+02 3.42270E+02-2.31588E+00-4.12646E+01 3.08745E+00
 -1      1520 2.66693E+02 3.26032E+02 3.29408E+02 1.29504E+01 4.52944E+01 1.67035E+01
 -1      1521 2.66693E+02 3.26032E+02 3.29408E+02-1.29504E+01-4.52944E+01 1.67035E+01
 -1      1522 2.26100E+02 3.46449E+02 3.28888E+02 2.38485E+01 3.97484E+01 2.89923E+01
 -1      1523 2.26100E+02 3.46449E+02 3.28888E+02-2.38485E+01-3.97484E+01 2.89923E+01
 -1      1524 2.15651E+02 4.46343E+02 3.91636E+02-4.02668E+01 2.92068E+01-4.11203E+01
 -1      1525 2.15651E+02 4.46343E+02 3.91636E+02 4.02668E+01-2.92068E+01-4.11203E+01
 -1      1526 1.59409E+02 3.04938E+02 2.76949E+02-1.41231E+02 2.56129E+01-1.48600E+02
 -1      1527 1.59409E+02 3.04938E+02 2.76949E+02 1.41231E+02-2.56129E+01-1.48600E+02
 -1      1528 6.91099E+01 2.06293E+01 5.37466E+01-1.20819E+02 2.04843E+01-1.25651E+02
 -1      1529 6.91099E+01 2.06293E+01 5.37466E+01 1.20819E+02-2.04843E+01-1.25651E+02
 -1      1530 6.41999E+01-1.07633E+00 3.22041E+01-3.75955E+01 1.34372E+01-3.44602E+01
 -1      1531 6.41999E+01-1.07633E+00 3.22041E+01 3.75955E+01-1.34372E+01-3.44602E+01
 -1      1532 2.56668E+01 5.99187E+00 1.67547E+01-7.37461E+00 1.42724E+00-1.05439E+00
 -1      1533 2.56668E+01 5.99187E+00 1.67547E+01 7.37461E+00-1.42724E+00-1.05439E+00
 -1      1534-2.88912E+02-2.88913E+02-6.74124E+02 2.08751E-03-4.49688E+02-3.99647E+02
 -1      1535 1.37728E+02 1.72927E+02 1.40125E+01 1.26309E+02 1.34318E+01 2.62864E+01
 -1      1536-5.27205E+02-5.27205E+02-1.23014E+03 2.59825E-03-7.61569E+02-3.50699E+02
 -1      1537 2.32775E+02 3.94373E+02 7.41539E+01 1.24276E+02 3.50088E+01 1.81845E+01
 -1      1538-6.56674E+02-6.56672E+02-1.53223E+03 1.64760E-03-9.71923E+02-2.16444E+02
 -1      1539 2.44119E+02 4.72993E+02 8.96234E+01 5.71784E+01 4.12044E+01 2.98646E+00
 -1      1540-7.02586E+02-7.02583E+02-1.63936E+03 6.33870E-04-1.05350E+03-9.65216E+01
 -1      1541 2.53115E+02 4.86005E+02 9.47479E+01 1.85959E+01 5.05730E+01-2.29844E+00
 -1      1542-7.03276E+02-7.03274E+02-1.64097E+03 1.09247E-04-1.06851E+03-2.84842E+01
 -1      1543 2.55345E+02 4.84737E+02 1.01912E+02 7.99790E+00 5.24318E+01-9.57188E-01
 -1      1544-6.96346E+02-6.96344E+02-1.62480E+03-5.67152E-05-1.06447E+03-1.10049E-01
 -1      1545 2.38291E+02 4.82270E+02 1.05831E+02 7.08487E+00 5.23714E+01 1.13688E+00
 -1      1546-6.93086E+02-6.93084E+02-1.61719E+03-9.23188E-05-1.06020E+03 1.04171E+01
 -1      1547 2.15572E+02 4.80277E+02 1.06166E+02 8.14919E+00 5.19286E+01 2.59563E+00
 -1      1548-6.93044E+02-6.93042E+02-1.61709E+03-1.04790E-04-1.05878E+03 1.54272E+01
 -1      1549 1.98419E+02 4.79086E+02 1.05262E+02 9.08602E+00 5.16861E+01 3.53821E+00
 -1      1550-6.93986E+02-6.93985E+02-1.61929E+03-1.18323E-04-1.05896E+03 1.89384E+01
 -1      1551 1.88684E+02 4.78588E+02 1.04513E+02 9.64525E+00 5.16041E+01 4.15164E+00
 -1      1552-6.94849E+02-6.94848E+02-1.62131E+03-1.32360E-04-1.05954E+03 2.17828E+01
 -1      1553 1.84119E+02 4.78473E+02 1.04138E+02 9.91662E+00 5.15893E+01 4.55444E+00
 -1      1554-6.95453E+02-6.95452E+02-1.62272E+03-1.46123E-04-1.06000E+03 2.43274E+01
 -1      1555 1.82269E+02 4.78474E+02 1.03917E+02 9.98693E+00 5.15916E+01 4.83031E+00
 -1      1556-6.95760E+02-6.95758E+02-1.62343E+03-1.64634E-04-1.05996E+03 2.73465E+01
 -1      1557 1.81222E+02 4.78385E+02 1.03588E+02 9.84013E+00 5.15654E+01 5.04902E+00
 -1      1558-6.95081E+02-6.95080E+02-1.62185E+03-1.98943E-04-1.05842E+03 3.20273E+01
 -1      1559 1.79910E+02 4.78023E+02 1.03176E+02 9.30003E+00 5.14345E+01 5.24964E+00
 -1      1560-6.91318E+02-6.91317E+02-1.61307E+03-2.54917E-04-1.05340E+03 3.86882E+01
 -1      1561 1.80943E+02 4.77311E+02 1.03574E+02 7.87747E+00 5.10016E+01 5.36839E+00
 -1      1562-6.81989E+02-6.81988E+02-1.59130E+03-2.94348E-04-1.04360E+03 4.31789E+01
 -1      1563 1.94716E+02 4.75600E+02 1.06191E+02 5.33688E+00 5.06001E+01 4.99997E+00
 -1      1564-6.71854E+02-6.71853E+02-1.56765E+03-2.02469E-04-1.03455E+03 3.57122E+01
 -1      1565 2.29301E+02 4.69295E+02 1.08336E+02 4.15299E+00 5.01873E+01 4.05211E+00
 -1      1566-6.84315E+02-6.84313E+02-1.59673E+03 5.49251E-05-1.04631E+03 2.14931E+01
 -1      1567 2.41389E+02 4.52582E+02 9.76359E+01 1.99582E+01 5.78675E+01 8.14358E+00
 -1      1568-7.38259E+02-7.38256E+02-1.72259E+03-1.41271E-04-1.09530E+03 6.33258E+01
 -1      1569 1.65074E+02 4.62963E+02 7.24892E+01 4.81267E+01 4.93209E+01 2.36623E+01
 -1      1570-7.52759E+02-7.52754E+02-1.75642E+03-1.95337E-03-1.08620E+03 2.37181E+02
 -1      1571 1.24947E+02 6.12477E+02 1.16411E+02-4.65893E+01 3.92459E+01 3.26578E+00
 -1      1572-5.30946E+02-5.30946E+02-1.23887E+03-3.47023E-03-7.83785E+02 4.26539E+02
 -1      1573 1.09588E+02 4.27070E+02 9.20286E+01-2.15502E+02 3.44411E+01-4.79623E+01
 -1      1574-1.83735E+02-1.83738E+02-4.28719E+02-2.18978E-03-3.22880E+02 4.10346E+02
 -1      1575 8.45604E+01 1.60375E+01 5.15239E-01-1.77884E+02 2.13388E+01-3.30956E+01
 -1      1576-1.67905E+01-1.67934E+01-3.91839E+01-6.19997E-04-8.02478E+01 2.42837E+02
 -1      1577 1.07960E+02 1.39619E+01 3.55087E+01-4.46800E+01 1.81187E+01 5.40893E+00
 -1      1578 1.48398E+01 1.48384E+01 3.46231E+01-4.24162E-05-1.25730E+01 1.13083E+02
 -1      1579 3.99434E+01 1.03281E+01 1.83696E+01-8.30647E+00-1.79475E+00 6.05886E+00
 -1      1580-3.75595E+02-3.75596E+02-8.76385E+02 2.74685E-03-4.16623E+02-4.21822E+02
 -1      1581 1.82200E+02 2.29474E+02 1.62133E+01 1.99049E+02-1.89478E+02 3.08488E+01
 -1      1582-6.97679E+02-6.97678E+02-1.62791E+03 3.13065E-03-7.17761E+02-3.60484E+02
 -1      1583 2.87730E+02 5.50125E+02 1.68800E+02 1.94302E+02-4.60417E+02 1.83814E+01
 -1      1584-8.67781E+02-8.67778E+02-2.02481E+03 1.91508E-03-9.15734E+02-2.12495E+02
 -1      1585 2.74334E+02 6.48949E+02 1.62907E+02 8.88361E+01-5.10155E+02-6.05202E+00
 -1      1586-9.21102E+02-9.21099E+02-2.14922E+03 6.75034E-04-9.90835E+02-8.99940E+01
 -1      1587 3.09397E+02 6.82952E+02 1.71838E+02 3.70050E+01-4.98623E+02-4.06597E+00
 -1      1588-9.18424E+02-9.18422E+02-2.14298E+03 7.13899E-05-1.00317E+03-2.36907E+01
 -1      1589 3.29660E+02 6.88684E+02 1.77290E+02 2.47001E+01-4.84325E+02 3.84621E-01
 -1      1590-9.08033E+02-9.08031E+02-2.11873E+03-9.75710E-05-9.98366E+02 2.60080E+00
 -1      1591 3.20162E+02 6.86522E+02 1.81405E+02 2.45647E+01-4.77789E+02 3.25823E+00
 -1      1592-9.02992E+02-9.02990E+02-2.10697E+03-1.19208E-04-9.93777E+02 1.21435E+01
 -1      1593 2.99220E+02 6.83220E+02 1.81738E+02 2.61774E+01-4.76084E+02 4.70432E+00
 -1      1594-9.02221E+02-9.02219E+02-2.10517E+03-1.21058E-04-9.92093E+02 1.68339E+01
 -1      1595 2.81994E+02 6.81207E+02 1.80885E+02 2.73438E+01-4.75926E+02 5.48850E+00
 -1      1596-9.02885E+02-9.02883E+02-2.10672E+03-1.29053E-04-9.92026E+02 2.02373E+01
 -1      1597 2.71963E+02 6.80455E+02 1.80148E+02 2.80145E+01-4.76086E+02 5.98982E+00
 -1      1598-9.03645E+02-9.03644E+02-2.10850E+03-1.40405E-04-9.92426E+02 2.30030E+01
 -1      1599 2.67213E+02 6.80339E+02 1.79763E+02 2.83436E+01-4.76225E+02 6.33331E+00
 -1      1600-9.04237E+02-9.04235E+02-2.10988E+03-1.52842E-04-9.92789E+02 2.54484E+01
 -1      1601 2.65182E+02 6.80385E+02 1.79532E+02 2.84391E+01-4.76356E+02 6.59367E+00
 -1      1602-9.04581E+02-9.04579E+02-2.11068E+03-1.71446E-04-9.92752E+02 2.83296E+01
 -1      1603 2.63729E+02 6.80194E+02 1.79175E+02 2.82828E+01-4.76561E+02 6.84296E+00
 -1      1604-9.03875E+02-9.03873E+02-2.10903E+03-2.08928E-04-9.91404E+02 3.28838E+01
 -1      1605 2.61675E+02 6.79328E+02 1.78830E+02 2.76134E+01-4.76814E+02 7.13622E+00
 -1      1606-8.99603E+02-8.99601E+02-2.09906E+03-2.72807E-04-9.86881E+02 3.97144E+01
 -1      1607 2.61770E+02 6.77258E+02 1.78851E+02 2.55723E+01-4.76517E+02 7.42464E+00
 -1      1608-8.88350E+02-8.88348E+02-2.07281E+03-3.16739E-04-9.77834E+02 4.50263E+01
 -1      1609 2.76435E+02 6.74906E+02 1.82282E+02 2.09751E+01-4.73425E+02 6.98216E+00
 -1      1610-8.74501E+02-8.74500E+02-2.04049E+03-1.91640E-04-9.69215E+02 3.78051E+01
 -1      1611 3.16299E+02 6.69938E+02 1.80161E+02 1.73196E+01-4.61218E+02 4.95316E+00
 -1      1612-8.87131E+02-8.87129E+02-2.06996E+03 1.49766E-04-9.80169E+02 1.91147E+01
 -1      1613 3.47960E+02 6.65151E+02 1.81580E+02 3.73038E+01-4.40264E+02 1.13628E+00
 -1      1614-9.59619E+02-9.59615E+02-2.23910E+03-7.32860E-05-1.02808E+03 5.24025E+01
 -1      1615 1.92561E+02 6.33471E+02 9.10920E+01 1.02937E+02-4.27107E+02 4.21605E+01
 -1      1616-9.97534E+02-9.97529E+02-2.32756E+03-2.26836E-03-1.02633E+03 2.34835E+02
 -1      1617 1.17158E+02 8.43159E+02 2.64141E+02-2.99489E+01-7.28028E+02 3.00304E+01
 -1      1618-7.02123E+02-7.02122E+02-1.63828E+03-4.23334E-03-7.40197E+02 4.45596E+02
 -1      1619 1.37056E+02 6.18938E+02 2.04906E+02-3.34626E+02-4.77372E+02-7.08501E+01
 -1      1620-2.23530E+02-2.23533E+02-5.21575E+02-2.91171E-03-2.97041E+02 4.22765E+02
 -1      1621 1.31779E+02 2.15504E+01-9.73414E+01-2.69708E+02 1.25358E+02-3.07650E+01
 -1      1622-1.52736E+01-1.52762E+01-3.56448E+01-1.00286E-03-7.13262E+01 2.36971E+02
 -1      1623 2.12246E+02 7.05309E+01 7.98797E+01-4.35496E+01 1.17626E+01 3.11416E+01
 -1      1624 1.66174E+01 1.66163E+01 3.87709E+01-1.44005E-04-1.02901E+01 1.05262E+02
 -1      1625 5.61512E+01 1.36852E+01 1.16379E+01-1.01094E+01 1.02363E+00 5.98795E+00
 -1      1626-5.00495E+02-5.00497E+02-1.16782E+03 2.85987E-03-3.60055E+02-4.76381E+02
 -1      1627-3.43691E+02-4.64022E+02-1.17095E+03 2.22230E+02-3.76768E+02-1.12169E+02
 -1      1628-9.40035E+02-9.40037E+02-2.19340E+03 3.18996E-03-6.29804E+02-3.98805E+02
 -1      1629-1.10814E+03-1.12405E+03-2.74284E+03 2.19521E+02-9.56657E+02-7.57784E+01
 -1      1630-1.17012E+03-1.17012E+03-2.73025E+03 1.90858E-03-8.03048E+02-2.24148E+02
 -1      1631-1.29212E+03-1.21593E+03-3.03722E+03 1.01032E+02-1.07511E+03-1.56893E+01
 -1      1632-1.23735E+03-1.23735E+03-2.88712E+03 6.38650E-04-8.67947E+02-8.71936E+01
 -1      1633-1.23271E+03-1.16955E+03-3.03636E+03 4.75452E+01-1.06630E+03 1.76066E+01
 -1      1634-1.23200E+03-1.23200E+03-2.87464E+03 3.75188E-05-8.78012E+02-1.84565E+01
 -1      1635-1.16040E+03-1.11382E+03-2.96019E+03 3.67908E+01-1.04295E+03 2.72626E+01
 -1      1636-1.21767E+03-1.21767E+03-2.84122E+03-1.17338E-04-8.73348E+02 6.39606E+00
 -1      1637-1.14524E+03-1.09205E+03-2.91926E+03 3.77620E+01-1.03040E+03 2.76968E+01
 -1      1638-1.21056E+03-1.21056E+03-2.82462E+03-1.28123E-04-8.69065E+02 1.46161E+01
 -1      1639-1.15835E+03-1.08826E+03-2.90578E+03 3.96459E+01-1.02647E+03 2.70547E+01
 -1      1640-1.20901E+03-1.20902E+03-2.82101E+03-1.23403E-04-8.67411E+02 1.87097E+01
 -1      1641-1.17430E+03-1.08935E+03-2.90382E+03 4.07511E+01-1.02578E+03 2.69095E+01
 -1      1642-1.20945E+03-1.20945E+03-2.82204E+03-1.27477E-04-8.67231E+02 2.19009E+01
 -1      1643-1.18468E+03-1.09050E+03-2.90472E+03 4.13357E+01-1.02597E+03 2.71246E+01
 -1      1644-1.21018E+03-1.21018E+03-2.82373E+03-1.36316E-04-8.67508E+02 2.45758E+01
 -1      1645-1.18991E+03-1.09102E+03-2.90571E+03 4.16212E+01-1.02623E+03 2.73967E+01
 -1      1646-1.21080E+03-1.21081E+03-2.82519E+03-1.46922E-04-8.67791E+02 2.69468E+01
 -1      1647-1.19247E+03-1.09139E+03-2.90666E+03 4.17192E+01-1.02651E+03 2.76370E+01
 -1      1648-1.21119E+03-1.21119E+03-2.82610E+03-1.63971E-04-8.67757E+02 2.97776E+01
 -1      1649-1.19471E+03-1.09224E+03-2.90790E+03 4.16094E+01-1.02688E+03 2.79390E+01
 -1      1650-1.21036E+03-1.21036E+03-2.82415E+03-2.00135E-04-8.66622E+02 3.44567E+01
 -1      1651-1.19779E+03-1.09395E+03-2.90888E+03 4.09835E+01-1.02714E+03 2.86711E+01
 -1      1652-1.20519E+03-1.20520E+03-2.81210E+03-2.63752E-04-8.62767E+02 4.19583E+01
 -1      1653-1.19640E+03-1.09390E+03-2.90365E+03 3.87655E+01-1.02586E+03 3.03711E+01
 -1      1654-1.19106E+03-1.19106E+03-2.77913E+03-3.08155E-04-8.54956E+02 4.85420E+01
 -1      1655-1.17261E+03-1.08415E+03-2.88210E+03 3.31222E+01-1.01923E+03 3.33330E+01
 -1      1656-1.17208E+03-1.17208E+03-2.73484E+03-1.75059E-04-8.47414E+02 4.04352E+01
 -1      1657-1.08991E+03-1.03991E+03-2.80569E+03 2.80164E+01-9.95637E+02 3.30963E+01
 -1      1658-1.18515E+03-1.18515E+03-2.76534E+03 1.94419E-04-8.56814E+02 1.27155E+01
 -1      1659-1.00569E+03-9.97162E+02-2.75358E+03 4.80920E+01-9.66646E+02 1.70088E+01
 -1      1660-1.28273E+03-1.28273E+03-2.99301E+03 9.27896E-07-8.99602E+02 3.73688E+01
 -1      1661-1.13945E+03-9.96690E+02-2.66672E+03 1.36660E+02-9.30156E+02 2.67531E+00
 -1      1662-1.34968E+03-1.34968E+03-3.14922E+03-2.26896E-03-9.02900E+02 2.49199E+02
 -1      1663-2.13563E+03-1.73049E+03-4.17579E+03 3.93893E+00-1.51728E+03 8.88989E+01
 -1      1664-9.50489E+02-9.50491E+02-2.21780E+03-4.34932E-03-6.51576E+02 5.08296E+02
 -1      1665-1.34678E+03-1.07072E+03-2.73548E+03-3.69810E+02-1.06372E+03 1.75885E+02
 -1      1666-2.88232E+02-2.88237E+02-6.72547E+02-2.99739E-03-2.56330E+02 4.75316E+02
 -1      1667 5.00456E+02 3.42091E+02 5.05028E+02-2.99430E+02 2.33829E+02 1.22817E+02
 -1      1668-1.77253E+01-1.77284E+01-4.13660E+01-1.07864E-03-6.05177E+01 2.47069E+02
 -1      1669 2.69887E+02 8.38748E+01-1.64182E+01-2.82842E+01-9.33132E+00 4.03313E+01
 -1      1670 1.82464E+01 1.82452E+01 4.25718E+01-1.86878E-04-8.25047E+00 1.00023E+02
 -1      1671 8.12760E+01 3.38706E+01 4.19767E+01-8.47881E+00 5.75549E+00 4.32107E+00
 -1      1672-6.20801E+02-6.20805E+02-1.44853E+03 2.36545E-03-2.67117E+02-5.35891E+02
 -1      1673-8.42068E+02-1.16524E+03-2.25711E+03 1.69740E+02-1.72033E+02-2.55841E+02
 -1      1674-1.17464E+03-1.17464E+03-2.74080E+03 2.63378E-03-4.72413E+02-4.42595E+02
 -1      1675-2.52638E+03-2.90805E+03-5.62878E+03 1.69831E+02-5.00473E+02-1.78909E+02
 -1      1676-1.46364E+03-1.46364E+03-3.41512E+03 1.55664E-03-6.02279E+02-2.40234E+02
 -1      1677-2.93083E+03-3.27253E+03-6.30484E+03 7.49511E+01-5.84712E+02-3.02433E+01
 -1      1678-1.54513E+03-1.54514E+03-3.60527E+03 5.01502E-04-6.50474E+02-8.65333E+01
 -1      1679-2.84782E+03-3.22040E+03-6.30580E+03 3.19429E+01-5.80745E+02 3.89193E+01
 -1      1680-1.53765E+03-1.53765E+03-3.58781E+03 1.23232E-05-6.57723E+02-1.38349E+01
 -1      1681-2.73176E+03-3.12063E+03-6.17208E+03 2.42900E+01-5.69168E+02 5.38143E+01
 -1      1682-1.51975E+03-1.51976E+03-3.54606E+03-1.06751E-04-6.54057E+02 1.00853E+01
 -1      1683-2.69370E+03-3.07389E+03-6.09542E+03 2.54553E+01-5.62722E+02 5.22954E+01
 -1      1684-1.51075E+03-1.51076E+03-3.52506E+03-1.09974E-04-6.50742E+02 1.70761E+01
 -1      1685-2.69939E+03-3.06210E+03-6.06913E+03 2.69919E+01-5.60652E+02 4.96450E+01
 -1      1686-1.50853E+03-1.50854E+03-3.51987E+03-1.02961E-04-6.49428E+02 2.05547E+01
 -1      1687-2.71389E+03-3.06176E+03-6.06410E+03 2.78046E+01-5.60294E+02 4.85789E+01
 -1      1688-1.50880E+03-1.50881E+03-3.52051E+03-1.04475E-04-6.49242E+02 2.35241E+01
 -1      1689-2.72450E+03-3.06316E+03-6.06506E+03 2.82121E+01-5.60409E+02 4.85038E+01
 -1      1690-1.50952E+03-1.50953E+03-3.52220E+03-1.10545E-04-6.49417E+02 2.61171E+01
 -1      1691-2.73018E+03-3.06410E+03-6.06668E+03 2.84122E+01-5.60574E+02 4.87052E+01
 -1      1692-1.51020E+03-1.51020E+03-3.52377E+03-1.18355E-04-6.49614E+02 2.84367E+01
 -1      1693-2.73325E+03-3.06493E+03-6.06840E+03 2.84864E+01-5.60742E+02 4.89308E+01
 -1      1694-1.51063E+03-1.51064E+03-3.52478E+03-1.31533E-04-6.49588E+02 3.12629E+01
 -1      1695-2.73621E+03-3.06645E+03-6.07055E+03 2.84175E+01-5.60949E+02 4.93054E+01
 -1      1696-1.50965E+03-1.50966E+03-3.52249E+03-1.60461E-04-6.48757E+02 3.61505E+01
 -1      1697-2.74001E+03-3.06867E+03-6.07182E+03 2.79577E+01-5.61049E+02 5.04967E+01
 -1      1698-1.50358E+03-1.50359E+03-3.50833E+03-2.12515E-04-6.45917E+02 4.44181E+01
 -1      1699-2.73714E+03-3.06576E+03-6.06136E+03 2.61684E+01-5.60389E+02 5.36250E+01
 -1      1700-1.48662E+03-1.48662E+03-3.46875E+03-2.49700E-04-6.40124E+02 5.22430E+01
 -1      1701-2.70386E+03-3.04196E+03-6.02050E+03 2.17018E+01-5.56434E+02 5.96570E+01
 -1      1702-1.46266E+03-1.46267E+03-3.41284E+03-1.37861E-04-6.34487E+02 4.28322E+01
 -1      1703-2.58244E+03-2.95085E+03-5.87494E+03 1.70451E+01-5.45909E+02 6.10365E+01
 -1      1704-1.47621E+03-1.47622E+03-3.44447E+03 1.82012E-04-6.41377E+02 5.73444E+00
 -1      1705-2.44333E+03-2.86005E+03-5.77000E+03 3.63653E+01-5.24032E+02 3.09604E+01
 -1      1706-1.59835E+03-1.59836E+03-3.72946E+03 4.95873E-05-6.73936E+02 2.34361E+01
 -1      1707-2.57091E+03-2.86544E+03-5.54721E+03 1.07261E+02-5.33817E+02-4.31381E+01
 -1      1708-1.69354E+03-1.69354E+03-3.95155E+03-1.85613E-03-6.79179E+02 2.68111E+02
 -1      1709-4.50259E+03-4.57701E+03-8.76374E+03 3.88093E+00-8.37345E+02 1.33523E+02
 -1      1710-1.19417E+03-1.19418E+03-2.78638E+03-3.61917E-03-4.90620E+02 5.78245E+02
 -1      1711-3.08433E+03-3.14603E+03-6.14017E+03-2.93470E+02-6.72522E+02 4.38844E+02
 -1      1712-3.52591E+02-3.52597E+02-8.22718E+02-2.45178E-03-1.90237E+02 5.35647E+02
 -1      1713 8.94433E+02 6.69089E+02 1.20422E+03-2.41901E+02 1.31624E+02 2.98490E+02
 -1      1714-2.06713E+01-2.06751E+01-4.82408E+01-8.86881E-04-4.44018E+01 2.62395E+02
 -1      1715 3.11801E+02 8.95815E+01-1.32049E+02-2.04044E+01 5.42972E+00 4.76473E+01
 -1      1716 1.98234E+01 1.98221E+01 4.62512E+01-1.65532E-04-5.86338E+00 9.68872E+01
 -1      1717 1.02773E+02 5.64905E+01 7.75352E+01-4.12683E+00 1.66152E+00 2.10672E+00
 -1      1718-7.04829E+02-7.04834E+02-1.64459E+03 1.33879E-03-1.42562E+02-5.80028E+02
 -1      1719-7.60674E+02-1.15668E+03-2.06710E+03 8.08551E+01 1.78487E+01-2.48585E+02
 -1      1720-1.33963E+03-1.33963E+03-3.12577E+03 1.49499E-03-2.53770E+02-4.75529E+02
 -1      1721-2.52110E+03-3.01579E+03-5.46224E+03 8.24929E+01-2.06156E+01-1.85134E+02
 -1      1722-1.67048E+03-1.67049E+03-3.89776E+03 8.78184E-04-3.23569E+02-2.53003E+02
 -1      1723-2.97855E+03-3.46179E+03-6.18345E+03 3.46442E+01-4.15606E+01-4.07566E+01
 -1      1724-1.76218E+03-1.76219E+03-4.11171E+03 2.76378E-04-3.49320E+02-8.66901E+01
 -1      1725-2.88716E+03-3.41753E+03-6.19971E+03 1.15550E+01-4.18332E+01 3.69293E+01
 -1      1726-1.75326E+03-1.75327E+03-4.09091E+03 8.81454E-07-3.53135E+02-1.06953E+01
 -1      1727-2.76118E+03-3.31076E+03-6.06926E+03 7.68725E+00-4.05659E+01 5.49936E+01
 -1      1728-1.73289E+03-1.73290E+03-4.04338E+03-6.38843E-05-3.51124E+02 1.27197E+01
 -1      1729-2.72049E+03-3.26124E+03-5.99550E+03 8.33372E+00-4.02542E+01 5.40103E+01
 -1      1730-1.72259E+03-1.72260E+03-4.01935E+03-6.39266E-05-3.49317E+02 1.88574E+01
 -1      1731-2.72531E+03-3.24852E+03-5.96938E+03 9.10536E+00-4.01856E+01 5.13906E+01
 -1      1732-1.71992E+03-1.71993E+03-4.01310E+03-5.89918E-05-3.48591E+02 2.18916E+01
 -1      1733-2.73972E+03-3.24814E+03-5.96425E+03 9.50182E+00-4.02123E+01 5.02241E+01
 -1      1734-1.72008E+03-1.72009E+03-4.01349E+03-5.93042E-05-3.48476E+02 2.46989E+01
 -1      1735-2.75036E+03-3.24959E+03-5.96503E+03 9.69897E+00-4.02531E+01 5.00904E+01
 -1      1736-1.72081E+03-1.72082E+03-4.01519E+03-6.23877E-05-3.48562E+02 2.72357E+01
 -1      1737-2.75610E+03-3.25054E+03-5.96656E+03 9.79859E+00-4.02839E+01 5.02665E+01
 -1      1738-1.72152E+03-1.72153E+03-4.01685E+03-6.65391E-05-3.48663E+02 2.95251E+01
 -1      1739-2.75923E+03-3.25137E+03-5.96821E+03 9.83571E+00-4.03093E+01 5.04903E+01
 -1      1740-1.72199E+03-1.72200E+03-4.01793E+03-7.37481E-05-3.48649E+02 3.23616E+01
 -1      1741-2.76232E+03-3.25297E+03-5.97027E+03 9.80285E+00-4.03307E+01 5.08958E+01
 -1      1742-1.72090E+03-1.72091E+03-4.01540E+03-8.98946E-05-3.48208E+02 3.74224E+01
 -1      1743-2.76636E+03-3.25521E+03-5.97121E+03 9.57395E+00-4.03544E+01 5.21681E+01
 -1      1744-1.71419E+03-1.71420E+03-3.99975E+03-1.19340E-04-3.46697E+02 4.62657E+01
 -1      1745-2.76406E+03-3.25213E+03-5.96116E+03 8.64205E+00-4.03227E+01 5.54446E+01
 -1      1746-1.69522E+03-1.69523E+03-3.95549E+03-1.40746E-04-3.43607E+02 5.49614E+01
 -1      1747-2.73007E+03-3.22517E+03-5.91882E+03 6.46329E+00-3.99514E+01 6.12841E+01
 -1      1748-1.66774E+03-1.66775E+03-3.89136E+03-7.67663E-05-3.40585E+02 4.44774E+01
 -1      1749-2.60780E+03-3.13159E+03-5.78586E+03 3.77713E+00-4.01624E+01 6.20313E+01
 -1      1750-1.68164E+03-1.68165E+03-3.92380E+03 1.10369E-04-3.44230E+02 5.89144E-01
 -1      1751-2.43960E+03-3.02112E+03-5.65405E+03 1.67845E+01-3.18697E+01 2.06163E+01
 -1      1752-1.82144E+03-1.82145E+03-4.24999E+03 4.57347E-05-3.61905E+02 1.38120E+01
 -1      1753-2.67152E+03-3.14793E+03-5.57605E+03 4.94652E+01-6.13422E+01-3.48009E+01
 -1      1754-1.93717E+03-1.93717E+03-4.52000E+03-1.04892E-03-3.65648E+02 2.82881E+02
 -1      1755-4.62592E+03-4.84418E+03-8.62666E+03-4.81108E+00-7.77233E+01 1.40965E+02
 -1      1756-1.36746E+03-1.36747E+03-3.19072E+03-2.06576E-03-2.64366E+02 6.30317E+02
 -1      1757-3.33730E+03-3.53248E+03-6.41950E+03-1.48167E+02-1.23870E+02 4.25460E+02
 -1      1758-3.98142E+02-3.98149E+02-9.29003E+02-1.37780E-03-1.01622E+02 5.81073E+02
 -1      1759 9.36595E+02 6.32883E+02 1.19354E+03-1.25685E+02 1.33480E+01 3.18141E+02
 -1      1760-2.25912E+01-2.25955E+01-5.27214E+01-4.96295E-04-2.35465E+01 2.74910E+02
 -1      1761 3.89720E+02 1.47717E+02-9.34876E+01-1.36320E+01 1.55854E+01 6.83416E+01
 -1      1762 2.10150E+01 2.10136E+01 4.90314E+01-9.55913E-05-3.06170E+00 9.52809E+01
 -1      1763 1.04866E+02 6.06019E+01 7.29139E+01-6.32152E-01-1.65587E+00-7.84186E-01
 -1      1764-7.34829E+02-7.34835E+02-1.71459E+03 2.14868E-11-6.06358E-06-5.96160E+02
 -1      1765-7.28998E+02-1.12497E+03-2.01787E+03 5.84650E-05-2.72075E-05-2.44575E+02
 -1      1766-1.39875E+03-1.39875E+03-3.26371E+03-1.67380E-11-7.58268E-06-4.87626E+02
 -1      1767-2.51567E+03-2.99492E+03-5.45411E+03 2.05813E-05-5.39890E-08-1.85793E+02
 -1      1768-1.74469E+03-1.74470E+03-4.07091E+03-3.26833E-11-4.76539E-06-2.57781E+02
 -1      1769-2.99033E+03-3.46196E+03-6.19297E+03 4.23666E-06-2.91703E-07-4.36817E+01
 -1      1770-1.84008E+03-1.84009E+03-4.29347E+03-2.11825E-11-2.86015E-06-8.68364E+01
 -1      1771-2.89751E+03-3.42246E+03-6.21554E+03 1.49346E-06-9.95297E-07 3.60718E+01
 -1      1772-1.83066E+03-1.83067E+03-4.27149E+03-1.06250E-11-1.99831E-06-9.58676E+00
 -1      1773-2.76805E+03-3.31440E+03-6.08497E+03 3.86311E-07-1.65698E-06 5.52688E+01
 -1      1774-1.80941E+03-1.80942E+03-4.22191E+03-5.28196E-12-1.65325E-06 1.36709E+01
 -1      1775-2.72635E+03-3.26446E+03-6.01111E+03-7.90067E-08-1.96709E-06 5.44865E+01
 -1      1776-1.79865E+03-1.79866E+03-4.19680E+03-2.68306E-12-1.55393E-06 1.95051E+01
 -1      1777-2.73095E+03-3.25174E+03-5.98501E+03-3.72346E-07-2.23369E-06 5.18856E+01
 -1      1778-1.79581E+03-1.79582E+03-4.19018E+03-1.31395E-12-1.57236E-06 2.23785E+01
 -1      1779-2.74530E+03-3.25138E+03-5.97974E+03-5.18291E-07-2.48804E-06 5.07059E+01
 -1      1780-1.79594E+03-1.79595E+03-4.19049E+03-4.83690E-13-1.63619E-06 2.51268E+01
 -1      1781-2.75596E+03-3.25285E+03-5.98051E+03-5.34070E-07-2.70974E-06 5.05548E+01
 -1      1782-1.79667E+03-1.79668E+03-4.19219E+03 1.55011E-13-1.68783E-06 2.76436E+01
 -1      1783-2.76172E+03-3.25380E+03-5.98202E+03-4.48858E-07-2.86883E-06 5.07242E+01
 -1      1784-1.79739E+03-1.79741E+03-4.19388E+03 7.29305E-13-1.65393E-06 2.99232E+01
 -1      1785-2.76488E+03-3.25463E+03-5.98366E+03-8.22822E-08-3.24075E-06 5.09478E+01
 -1      1786-1.79787E+03-1.79788E+03-4.19499E+03 1.20653E-12-1.42070E-06 3.27653E+01
 -1      1787-2.76801E+03-3.25622E+03-5.98569E+03 8.25068E-07-3.27759E-06 5.13612E+01
 -1      1788-1.79675E+03-1.79676E+03-4.19237E+03 1.67558E-12-9.21751E-07 3.78919E+01
 -1      1789-2.77218E+03-3.25853E+03-5.98668E+03 3.60684E-06-5.05079E-06 5.26647E+01
 -1      1790-1.78981E+03-1.78982E+03-4.17618E+03 1.87285E-12-3.46790E-07 4.69466E+01
 -1      1791-2.76982E+03-3.25521E+03-5.97618E+03 3.48204E-06 2.23922E-06 5.59155E+01
 -1      1792-1.77012E+03-1.77013E+03-4.13024E+03 1.72739E-12 1.35548E-07 5.59524E+01
 -1      1793-2.73650E+03-3.22843E+03-5.93480E+03 8.43261E-07 4.86181E-07 6.18456E+01
 -1      1794-1.74137E+03-1.74138E+03-4.06316E+03 1.35987E-12 3.96086E-07 4.50601E+01
 -1      1795-2.61111E+03-3.13261E+03-5.79951E+03 3.39638E-07 5.78772E-07 6.17637E+01
 -1      1796-1.75540E+03-1.75541E+03-4.09590E+03 7.71813E-13 5.23696E-07-1.28503E+00
 -1      1797-2.43956E+03-3.02353E+03-5.66972E+03 4.51275E-07 2.41185E-07 1.81399E+01
 -1      1798-1.90161E+03-1.90162E+03-4.43705E+03 3.43527E-13 5.55223E-07 1.03938E+01
 -1      1799-2.69529E+03-3.18216E+03-5.61087E+03 4.59186E-07 7.75027E-07-3.31807E+01
 -1      1800-2.02483E+03-2.02484E+03-4.72456E+03 5.78551E-13 4.65958E-07 2.88368E+02
 -1      1801-4.67821E+03-4.86836E+03-8.68874E+03-9.08774E-07 1.87101E-06 1.43265E+02
 -1      1802-1.42996E+03-1.42997E+03-3.33654E+03 5.27134E-13 3.09167E-07 6.49359E+02
 -1      1803-3.40482E+03-3.59725E+03-6.52217E+03-1.43754E-06 4.31273E-08 4.20379E+02
 -1      1804-4.14531E+02-4.14539E+02-9.67245E+02-1.25289E-13 1.57178E-07 5.97766E+02
 -1      1805 9.47742E+02 6.08192E+02 1.19820E+03-4.85365E-07-1.16860E-07 3.20611E+02
 -1      1806-2.32487E+01-2.32532E+01-5.42556E+01-3.24643E-13 5.32692E-08 2.79643E+02
 -1      1807 4.14356E+02 1.66764E+02-8.54894E+01-4.95516E-08 6.78926E-08 7.47526E+01
 -1      1808 2.14561E+01 2.14546E+01 5.00604E+01-1.78948E-13-3.21779E-09 9.47945E+01
 -1      1809 1.06932E+02 6.33972E+01 7.36074E+01-2.56059E-09-3.84862E-09-1.23905E+00
 -1      1810-7.04829E+02-7.04834E+02-1.64459E+03-1.33879E-03 1.42562E+02-5.80028E+02
 -1      1811-7.60675E+02-1.15668E+03-2.06710E+03-8.08550E+01-1.78488E+01-2.48585E+02
 -1      1812-1.33963E+03-1.33963E+03-3.12577E+03-1.49499E-03 2.53770E+02-4.75529E+02
 -1      1813-2.52110E+03-3.01579E+03-5.46225E+03-8.24929E+01 2.06156E+01-1.85134E+02
 -1      1814-1.67048E+03-1.67049E+03-3.89776E+03-8.78184E-04 3.23569E+02-2.53003E+02
 -1      1815-2.97855E+03-3.46179E+03-6.18345E+03-3.46442E+01 4.15606E+01-4.07566E+01
 -1      1816-1.76218E+03-1.76219E+03-4.11171E+03-2.76378E-04 3.49320E+02-8.66901E+01
 -1      1817-2.88716E+03-3.41753E+03-6.19971E+03-1.15550E+01 4.18332E+01 3.69293E+01
 -1      1818-1.75326E+03-1.75327E+03-4.09091E+03-8.81473E-07 3.53135E+02-1.06953E+01
 -1      1819-2.76118E+03-3.31076E+03-6.06926E+03-7.68724E+00 4.05659E+01 5.49936E+01
 -1      1820-1.73289E+03-1.73290E+03-4.04338E+03 6.38843E-05 3.51124E+02 1.27197E+01
 -1      1821-2.72049E+03-3.26124E+03-5.99550E+03-8.33372E+00 4.02542E+01 5.40103E+01
 -1      1822-1.72259E+03-1.72260E+03-4.01935E+03 6.39266E-05 3.49317E+02 1.88574E+01
 -1      1823-2.72531E+03-3.24852E+03-5.96938E+03-9.10536E+00 4.01856E+01 5.13906E+01
 -1      1824-1.71992E+03-1.71993E+03-4.01310E+03 5.89918E-05 3.48591E+02 2.18916E+01
 -1      1825-2.73972E+03-3.24814E+03-5.96425E+03-9.50182E+00 4.02123E+01 5.02241E+01
 -1      1826-1.72008E+03-1.72009E+03-4.01349E+03 5.93042E-05 3.48476E+02 2.46989E+01
 -1      1827-2.75036E+03-3.24959E+03-5.96503E+03-9.69897E+00 4.02530E+01 5.00904E+01
 -1      1828-1.72081E+03-1.72082E+03-4.01519E+03 6.23877E-05 3.48562E+02 2.72357E+01
 -1      1829-2.75610E+03-3.25054E+03-5.96656E+03-9.79859E+00 4.02839E+01 5.02665E+01
 -1      1830-1.72152E+03-1.72153E+03-4.01685E+03 6.65391E-05 3.48663E+02 2.95251E+01
 -1      1831-2.75923E+03-3.25137E+03-5.96821E+03-9.83571E+00 4.03093E+01 5.04903E+01
 -1      1832-1.72199E+03-1.72200E+03-4.01793E+03 7.37482E-05 3.48649E+02 3.23616E+01
 -1      1833-2.76232E+03-3.25297E+03-5.97027E+03-9.80285E+00 4.03307E+01 5.08958E+01
 -1      1834-1.72090E+03-1.72091E+03-4.01540E+03 8.98946E-05 3.48208E+02 3.74224E+01
 -1      1835-2.76636E+03-3.25521E+03-5.97121E+03-9.57395E+00 4.03544E+01 5.21681E+01
 -1      1836-1.71419E+03-1.71420E+03-3.99975E+03 1.19340E-04 3.46697E+02 4.62657E+01
 -1      1837-2.76406E+03-3.25213E+03-5.96116E+03-8.64204E+00 4.03227E+01 5.54446E+01
 -1      1838-1.69522E+03-1.69523E+03-3.95549E+03 1.40746E-04 3.43607E+02 5.49614E+01
 -1      1839-2.73007E+03-3.22517E+03-5.91882E+03-6.46329E+00 3.99514E+01 6.12841E+01
 -1      1840-1.66774E+03-1.66775E+03-3.89136E+03 7.67663E-05 3.40585E+02 4.44774E+01
 -1      1841-2.60780E+03-3.13159E+03-5.78586E+03-3.77712E+00 4.01624E+01 6.20313E+01
 -1      1842-1.68164E+03-1.68165E+03-3.92380E+03-1.10369E-04 3.44230E+02 5.89144E-01
 -1      1843-2.43960E+03-3.02112E+03-5.65405E+03-1.67845E+01 3.18697E+01 2.06163E+01
 -1      1844-1.82144E+03-1.82145E+03-4.24999E+03-4.57347E-05 3.61905E+02 1.38120E+01
 -1      1845-2.67152E+03-3.14793E+03-5.57605E+03-4.94652E+01 6.13422E+01-3.48009E+01
 -1      1846-1.93717E+03-1.93717E+03-4.52000E+03 1.04892E-03 3.65648E+02 2.82881E+02
 -1      1847-4.62592E+03-4.84418E+03-8.62666E+03 4.81107E+00 7.77233E+01 1.40965E+02
 -1      1848-1.36746E+03-1.36747E+03-3.19072E+03 2.06576E-03 2.64366E+02 6.30317E+02
 -1      1849-3.33730E+03-3.53248E+03-6.41950E+03 1.48167E+02 1.23870E+02 4.25460E+02
 -1      1850-3.98142E+02-3.98149E+02-9.29003E+02 1.37780E-03 1.01622E+02 5.81073E+02
 -1      1851 9.36595E+02 6.32883E+02 1.19354E+03 1.25685E+02-1.33480E+01 3.18141E+02
 -1      1852-2.25912E+01-2.25955E+01-5.27214E+01 4.96295E-04 2.35465E+01 2.74910E+02
 -1      1853 3.89720E+02 1.47717E+02-9.34876E+01 1.36320E+01-1.55854E+01 6.83416E+01
 -1      1854 2.10150E+01 2.10136E+01 4.90314E+01 9.55913E-05 3.06170E+00 9.52809E+01
 -1      1855 1.04866E+02 6.06019E+01 7.29139E+01 6.32152E-01 1.65587E+00-7.84186E-01
 -1      1856-6.20801E+02-6.20805E+02-1.44853E+03-2.36545E-03 2.67117E+02-5.35891E+02
 -1      1857-8.42069E+02-1.16524E+03-2.25711E+03-1.69740E+02 1.72033E+02-2.55841E+02
 -1      1858-1.17464E+03-1.17464E+03-2.74080E+03-2.63378E-03 4.72413E+02-4.42595E+02
 -1      1859-2.52638E+03-2.90805E+03-5.62878E+03-1.69831E+02 5.00473E+02-1.78909E+02
 -1      1860-1.46364E+03-1.46364E+03-3.41512E+03-1.55664E-03 6.02279E+02-2.40234E+02
 -1      1861-2.93083E+03-3.27253E+03-6.30484E+03-7.49511E+01 5.84712E+02-3.02433E+01
 -1      1862-1.54513E+03-1.54514E+03-3.60527E+03-5.01502E-04 6.50474E+02-8.65333E+01
 -1      1863-2.84782E+03-3.22040E+03-6.30580E+03-3.19429E+01 5.80745E+02 3.89193E+01
 -1      1864-1.53765E+03-1.53765E+03-3.58781E+03-1.23232E-05 6.57723E+02-1.38349E+01
 -1      1865-2.73176E+03-3.12063E+03-6.17208E+03-2.42900E+01 5.69168E+02 5.38143E+01
 -1      1866-1.51975E+03-1.51976E+03-3.54606E+03 1.06751E-04 6.54057E+02 1.00853E+01
 -1      1867-2.69370E+03-3.07389E+03-6.09542E+03-2.54553E+01 5.62722E+02 5.22954E+01
 -1      1868-1.51075E+03-1.51076E+03-3.52506E+03 1.09974E-04 6.50742E+02 1.70761E+01
 -1      1869-2.69939E+03-3.06210E+03-6.06913E+03-2.69919E+01 5.60652E+02 4.96450E+01
 -1      1870-1.50853E+03-1.50854E+03-3.51987E+03 1.02961E-04 6.49428E+02 2.05547E+01
 -1      1871-2.71389E+03-3.06176E+03-6.06410E+03-2.78046E+01 5.60294E+02 4.85789E+01
 -1      1872-1.50880E+03-1.50881E+03-3.52051E+03 1.04475E-04 6.49242E+02 2.35241E+01
 -1      1873-2.72450E+03-3.06316E+03-6.06506E+03-2.82121E+01 5.60409E+02 4.85038E+01
 -1      1874-1.50952E+03-1.50953E+03-3.52220E+03 1.10545E-04 6.49417E+02 2.61171E+01
 -1      1875-2.73018E+03-3.06410E+03-6.06668E+03-2.84122E+01 5.60574E+02 4.87052E+01
 -1      1876-1.51020E+03-1.51020E+03-3.52377E+03 1.18355E-04 6.49614E+02 2.84367E+01
 -1      1877-2.73325E+03-3.06493E+03-6.06840E+03-2.84864E+01 5.60742E+02 4.89308E+01
 -1      1878-1.51063E+03-1.51064E+03-3.52478E+03 1.31533E-04 6.49588E+02 3.12629E+01
 -1      1879-2.73621E+03-3.06645E+03-6.07055E+03-2.84175E+01 5.60949E+02 4.93054E+01
 -1      1880-1.50965E+03-1.50966E+03-3.52249E+03 1.60461E-04 6.48757E+02 3.61505E+01
 -1      1881-2.74001E+03-3.06867E+03-6.07182E+03-2.79577E+01 5.61049E+02 5.04967E+01
 -1      1882-1.50358E+03-1.50359E+03-3.50833E+03 2.12515E-04 6.45917E+02 4.44181E+01
 -1      1883-2.73714E+03-3.06576E+03-6.06136E+03-2.61684E+01 5.60389E+02 5.36250E+01
 -1      1884-1.48662E+03-1.48662E+03-3.46875E+03 2.49700E-04 6.40124E+02 5.22430E+01
 -1      1885-2.70386E+03-3.04196E+03-6.02050E+03-2.17018E+01 5.56434E+02 5.96570E+01
 -1      1886-1.46266E+03-1.46267E+03-3.41284E+03 1.37861E-04 6.34487E+02 4.28322E+01
 -1      1887-2.58244E+03-2.95085E+03-5.87494E+03-1.70451E+01 5.45909E+02 6.10365E+01
 -1      1888-1.47621E+03-1.47622E+03-3.44447E+03-1.82012E-04 6.41377E+02 5.73444E+00
 -1      1889-2.44333E+03-2.86005E+03-5.77000E+03-3.63653E+01 5.24032E+02 3.09604E+01
 -1      1890-1.59835E+03-1.59836E+03-3.72946E+03-4.95873E-05 6.73936E+02 2.34361E+01
 -1      1891-2.57091E+03-2.86544E+03-5.54721E+03-1.07261E+02 5.33817E+02-4.31381E+01
 -1      1892-1.69354E+03-1.69354E+03-3.95155E+03 1.85613E-03 6.79179E+02 2.68111E+02
 -1      1893-4.50259E+03-4.57701E+03-8.76374E+03-3.88094E+00 8.37345E+02 1.33523E+02
 -1      1894-1.19417E+03-1.19418E+03-2.78638E+03 3.61917E-03 4.90620E+02 5.78245E+02
 -1      1895-3.08433E+03-3.14603E+03-6.14017E+03 2.93470E+02 6.72522E+02 4.38844E+02
 -1      1896-3.52591E+02-3.52597E+02-8.22718E+02 2.45178E-03 1.90237E+02 5.35647E+02
 -1      1897 8.94433E+02 6.69089E+02 1.20422E+03 2.41901E+02-1.31624E+02 2.98490E+02
 -1      1898-2.06713E+01-2.06751E+01-4.82408E+01 8.86881E-04 4.44018E+01 2.62395E+02
 -1      1899 3.11801E+02 8.95815E+01-1.32049E+02 2.04044E+01-5.42972E+00 4.76473E+01
 -1      1900 1.98234E+01 1.98221E+01 4.62512E+01 1.65532E-04 5.86338E+00 9.68872E+01
 -1      1901 1.02773E+02 5.64905E+01 7.75352E+01 4.12683E+00-1.66152E+00 2.10672E+00
 -1      1902-5.00495E+02-5.00497E+02-1.16782E+03-2.85987E-03 3.60055E+02-4.76381E+02
 -1      1903-3.43691E+02-4.64022E+02-1.17095E+03-2.22230E+02 3.76768E+02-1.12169E+02
 -1      1904-9.40035E+02-9.40037E+02-2.19340E+03-3.18996E-03 6.29804E+02-3.98805E+02
 -1      1905-1.10814E+03-1.12405E+03-2.74284E+03-2.19521E+02 9.56657E+02-7.57784E+01
 -1      1906-1.17012E+03-1.17012E+03-2.73025E+03-1.90858E-03 8.03048E+02-2.24148E+02
 -1      1907-1.29212E+03-1.21593E+03-3.03722E+03-1.01032E+02 1.07511E+03-1.56893E+01
 -1      1908-1.23735E+03-1.23735E+03-2.88712E+03-6.38650E-04 8.67947E+02-8.71936E+01
 -1      1909-1.23271E+03-1.16955E+03-3.03636E+03-4.75452E+01 1.06630E+03 1.76066E+01
 -1      1910-1.23200E+03-1.23200E+03-2.87464E+03-3.75189E-05 8.78012E+02-1.84565E+01
 -1      1911-1.16040E+03-1.11382E+03-2.96019E+03-3.67908E+01 1.04295E+03 2.72626E+01
 -1      1912-1.21767E+03-1.21767E+03-2.84122E+03 1.17338E-04 8.73348E+02 6.39606E+00
 -1      1913-1.14524E+03-1.09205E+03-2.91926E+03-3.77620E+01 1.03040E+03 2.76968E+01
 -1      1914-1.21056E+03-1.21056E+03-2.82462E+03 1.28123E-04 8.69065E+02 1.46161E+01
 -1      1915-1.15835E+03-1.08826E+03-2.90578E+03-3.96459E+01 1.02647E+03 2.70547E+01
 -1      1916-1.20901E+03-1.20902E+03-2.82101E+03 1.23403E-04 8.67411E+02 1.87097E+01
 -1      1917-1.17430E+03-1.08935E+03-2.90382E+03-4.07511E+01 1.02578E+03 2.69095E+01
 -1      1918-1.20945E+03-1.20945E+03-2.82204E+03 1.27477E-04 8.67231E+02 2.19009E+01
 -1      1919-1.18468E+03-1.09050E+03-2.90472E+03-4.13357E+01 1.02597E+03 2.71246E+01
 -1      1920-1.21018E+03-1.21018E+03-2.82373E+03 1.36316E-04 8.67508E+02 2.45758E+01
 -1      1921-1.18991E+03-1.09102E+03-2.90571E+03-4.16212E+01 1.02623E+03 2.73967E+01
 -1      1922-1.21080E+03-1.21081E+03-2.82519E+03 1.46922E-04 8.67791E+02 2.69468E+01
 -1      1923-1.19247E+03-1.09139E+03-2.90666E+03-4.17192E+01 1.02651E+03 2.76370E+01
 -1      1924-1.21119E+03-1.21119E+03-2.82610E+03 1.63971E-04 8.67757E+02 2.97776E+01
 -1      1925-1.19471E+03-1.09224E+03-2.90790E+03-4.16094E+01 1.02688E+03 2.79390E+01
 -1      1926-1.21036E+03-1.21036E+03-2.82415E+03 2.00135E-04 8.66622E+02 3.44567E+01
 -1      1927-1.19779E+03-1.09395E+03-2.90888E+03-4.09835E+01 1.02714E+03 2.86711E+01
 -1      1928-1.20519E+03-1.20520E+03-2.81210E+03 2.63752E-04 8.62767E+02 4.19583E+01
 -1      1929-1.19640E+03-1.09390E+03-2.90365E+03-3.87655E+01 1.02586E+03 3.03711E+01
 -1      1930-1.19106E+03-1.19106E+03-2.77913E+03 3.08155E-04 8.54956E+02 4.85420E+01
 -1      1931-1.17261E+03-1.08415E+03-2.88210E+03-3.31221E+01 1.01923E+03 3.33330E+01
 -1      1932-1.17208E+03-1.17208E+03-2.73484E+03 1.75059E-04 8.47414E+02 4.04352E+01
 -1      1933-1.08991E+03-1.03991E+03-2.80569E+03-2.80164E+01 9.95637E+02 3.30963E+01
 -1      1934-1.18515E+03-1.18515E+03-2.76534E+03-1.94419E-04 8.56814E+02 1.27155E+01
 -1      1935-1.00569E+03-9.97162E+02-2.75358E+03-4.80920E+01 9.66646E+02 1.70088E+01
 -1      1936-1.28273E+03-1.28273E+03-2.99301E+03-9.27895E-07 8.99602E+02 3.73688E+01
 -1      1937-1.13945E+03-9.96690E+02-2.66672E+03-1.36660E+02 9.30156E+02 2.67531E+00
 -1      1938-1.34968E+03-1.34968E+03-3.14922E+03 2.26896E-03 9.02900E+02 2.49199E+02
 -1      1939-2.13563E+03-1.73049E+03-4.17579E+03-3.93893E+00 1.51728E+03 8.88989E+01
 -1      1940-9.50489E+02-9.50491E+02-2.21780E+03 4.34932E-03 6.51576E+02 5.08296E+02
 -1      1941-1.34678E+03-1.07072E+03-2.73548E+03 3.69810E+02 1.06372E+03 1.75885E+02
 -1      1942-2.88232E+02-2.88237E+02-6.72547E+02 2.99739E-03 2.56330E+02 4.75316E+02
 -1      1943 5.00456E+02 3.42091E+02 5.05028E+02 2.99430E+02-2.33829E+02 1.22817E+02
 -1      1944-1.77253E+01-1.77284E+01-4.13660E+01 1.07864E-03 6.05177E+01 2.47069E+02
 -1      1945 2.69887E+02 8.38748E+01-1.64182E+01 2.82842E+01 9.33132E+00 4.03313E+01
 -1      1946 1.82464E+01 1.82452E+01 4.25718E+01 1.86878E-04 8.25047E+00 1.00023E+02
 -1      1947 8.12760E+01 3.38706E+01 4.19767E+01 8.47881E+00-5.75549E+00 4.32107E+00
 -1      1948-3.75595E+02-3.75596E+02-8.76385E+02-2.74685E-03 4.16623E+02-4.21822E+02
 -1      1949 1.82200E+02 2.29474E+02 1.62133E+01-1.99049E+02 1.89478E+02 3.08488E+01
 -1      1950-6.97679E+02-6.97679E+02-1.62791E+03-3.13065E-03 7.17761E+02-3.60484E+02
 -1      1951 2.87729E+02 5.50125E+02 1.68800E+02-1.94302E+02 4.60417E+02 1.83814E+01
 -1      1952-8.67781E+02-8.67778E+02-2.02481E+03-1.91508E-03 9.15734E+02-2.12495E+02
 -1      1953 2.74334E+02 6.48949E+02 1.62907E+02-8.88361E+01 5.10155E+02-6.05201E+00
 -1      1954-9.21102E+02-9.21099E+02-2.14922E+03-6.75034E-04 9.90835E+02-8.99940E+01
 -1      1955 3.09397E+02 6.82952E+02 1.71838E+02-3.70050E+01 4.98623E+02-4.06597E+00
 -1      1956-9.18424E+02-9.18422E+02-2.14298E+03-7.13899E-05 1.00317E+03-2.36907E+01
 -1      1957 3.29660E+02 6.88684E+02 1.77290E+02-2.47001E+01 4.84325E+02 3.84622E-01
 -1      1958-9.08033E+02-9.08030E+02-2.11873E+03 9.75710E-05 9.98366E+02 2.60080E+00
 -1      1959 3.20162E+02 6.86522E+02 1.81405E+02-2.45647E+01 4.77789E+02 3.25823E+00
 -1      1960-9.02992E+02-9.02990E+02-2.10697E+03 1.19208E-04 9.93777E+02 1.21435E+01
 -1      1961 2.99220E+02 6.83220E+02 1.81738E+02-2.61774E+01 4.76084E+02 4.70432E+00
 -1      1962-9.02221E+02-9.02219E+02-2.10517E+03 1.21058E-04 9.92093E+02 1.68339E+01
 -1      1963 2.81994E+02 6.81207E+02 1.80885E+02-2.73438E+01 4.75926E+02 5.48850E+00
 -1      1964-9.02885E+02-9.02883E+02-2.10672E+03 1.29053E-04 9.92026E+02 2.02373E+01
 -1      1965 2.71963E+02 6.80455E+02 1.80148E+02-2.80145E+01 4.76086E+02 5.98982E+00
 -1      1966-9.03645E+02-9.03644E+02-2.10850E+03 1.40405E-04 9.92426E+02 2.30030E+01
 -1      1967 2.67213E+02 6.80339E+02 1.79763E+02-2.83436E+01 4.76225E+02 6.33331E+00
 -1      1968-9.04237E+02-9.04235E+02-2.10988E+03 1.52842E-04 9.92789E+02 2.54484E+01
 -1      1969 2.65182E+02 6.80385E+02 1.79532E+02-2.84391E+01 4.76356E+02 6.59367E+00
 -1      1970-9.04581E+02-9.04579E+02-2.11068E+03 1.71446E-04 9.92752E+02 2.83296E+01
 -1      1971 2.63729E+02 6.80194E+02 1.79175E+02-2.82828E+01 4.76561E+02 6.84296E+00
 -1      1972-9.03875E+02-9.03873E+02-2.10903E+03 2.08928E-04 9.91404E+02 3.28838E+01
 -1      1973 2.61675E+02 6.79328E+02 1.78830E+02-2.76134E+01 4.76814E+02 7.13622E+00
 -1      1974-8.99603E+02-8.99601E+02-2.09906E+03 2.72807E-04 9.86881E+02 3.97144E+01
 -1      1975 2.61770E+02 6.77258E+02 1.78851E+02-2.55723E+01 4.76517E+02 7.42464E+00
 -1      1976-8.88350E+02-8.88348E+02-2.07281E+03 3.16739E-04 9.77834E+02 4.50263E+01
 -1      1977 2.76435E+02 6.74906E+02 1.82282E+02-2.09751E+01 4.73425E+02 6.98215E+00
 -1      1978-8.74501E+02-8.74500E+02-2.04049E+03 1.91640E-04 9.69215E+02 3.78051E+01
 -1      1979 3.16299E+02 6.69938E+02 1.80161E+02-1.73196E+01 4.61218E+02 4.95316E+00
 -1      1980-8.87131E+02-8.87129E+02-2.06996E+03-1.49766E-04 9.80169E+02 1.91147E+01
 -1      1981 3.47960E+02 6.65151E+02 1.81580E+02-3.73038E+01 4.40264E+02 1.13628E+00
 -1      1982-9.59619E+02-9.59615E+02-2.23910E+03 7.32860E-05 1.02808E+03 5.24025E+01
 -1      1983 1.92561E+02 6.33471E+02 9.10920E+01-1.02937E+02 4.27107E+02 4.21605E+01
 -1      1984-9.97534E+02-9.97529E+02-2.32756E+03 2.26836E-03 1.02633E+03 2.34835E+02
 -1      1985 1.17158E+02 8.43159E+02 2.64141E+02 2.99489E+01 7.28028E+02 3.00304E+01
 -1      1986-7.02123E+02-7.02122E+02-1.63828E+03 4.23334E-03 7.40197E+02 4.45596E+02
 -1      1987 1.37056E+02 6.18938E+02 2.04906E+02 3.34626E+02 4.77372E+02-7.08501E+01
 -1      1988-2.23530E+02-2.23533E+02-5.21575E+02 2.91171E-03 2.97041E+02 4.22765E+02
 -1      1989 1.31779E+02 2.15504E+01-9.73414E+01 2.69708E+02-1.25358E+02-3.07650E+01
 -1      1990-1.52736E+01-1.52762E+01-3.56448E+01 1.00286E-03 7.13262E+01 2.36971E+02
 -1      1991 2.12246E+02 7.05309E+01 7.98797E+01 4.35496E+01-1.17626E+01 3.11416E+01
 -1      1992 1.66174E+01 1.66163E+01 3.87709E+01 1.44005E-04 1.02901E+01 1.05262E+02
 -1      1993 5.61512E+01 1.36852E+01 1.16379E+01 1.01094E+01-1.02363E+00 5.98795E+00
 -1      1994-2.88912E+02-2.88913E+02-6.74124E+02-2.08751E-03 4.49688E+02-3.99647E+02
 -1      1995 1.37728E+02 1.72927E+02 1.40125E+01-1.26309E+02-1.34318E+01 2.62864E+01
 -1      1996-5.27205E+02-5.27205E+02-1.23014E+03-2.59825E-03 7.61569E+02-3.50699E+02
 -1      1997 2.32775E+02 3.94373E+02 7.41539E+01-1.24276E+02-3.50088E+01 1.81845E+01
 -1      1998-6.56674E+02-6.56672E+02-1.53223E+03-1.64760E-03 9.71923E+02-2.16444E+02
 -1      1999 2.44119E+02 4.72993E+02 8.96234E+01-5.71784E+01-4.12044E+01 2.98646E+00
 -1      2000-7.02586E+02-7.02583E+02-1.63936E+03-6.33870E-04 1.05350E+03-9.65216E+01
 -1      2001 2.53115E+02 4.86005E+02 9.47479E+01-1.85959E+01-5.05730E+01-2.29844E+00
 -1      2002-7.03276E+02-7.03274E+02-1.64097E+03-1.09247E-04 1.06851E+03-2.84842E+01
 -1      2003 2.55345E+02 4.84737E+02 1.01912E+02-7.99790E+00-5.24318E+01-9.57187E-01
 -1      2004-6.96346E+02-6.96344E+02-1.62480E+03 5.67152E-05 1.06447E+03-1.10047E-01
 -1      2005 2.38291E+02 4.82270E+02 1.05831E+02-7.08487E+00-5.23714E+01 1.13688E+00
 -1      2006-6.93086E+02-6.93084E+02-1.61719E+03 9.23188E-05 1.06020E+03 1.04171E+01
 -1      2007 2.15572E+02 4.80277E+02 1.06166E+02-8.14919E+00-5.19286E+01 2.59563E+00
 -1      2008-6.93044E+02-6.93042E+02-1.61709E+03 1.04790E-04 1.05878E+03 1.54272E+01
 -1      2009 1.98419E+02 4.79086E+02 1.05262E+02-9.08602E+00-5.16861E+01 3.53821E+00
 -1      2010-6.93986E+02-6.93985E+02-1.61929E+03 1.18323E-04 1.05896E+03 1.89384E+01
 -1      2011 1.88684E+02 4.78588E+02 1.04513E+02-9.64525E+00-5.16041E+01 4.15164E+00
 -1      2012-6.94849E+02-6.94848E+02-1.62131E+03 1.32360E-04 1.05954E+03 2.17828E+01
 -1      2013 1.84119E+02 4.78473E+02 1.04138E+02-9.91662E+00-5.15893E+01 4.55444E+00
 -1      2014-6.95453E+02-6.95452E+02-1.62272E+03 1.46123E-04 1.06000E+03 2.43274E+01
 -1      2015 1.82269E+02 4.78474E+02 1.03917E+02-9.98693E+00-5.15916E+01 4.83031E+00
 -1      2016-6.95760E+02-6.95758E+02-1.62343E+03 1.64634E-04 1.05996E+03 2.73465E+01
 -1      2017 1.81222E+02 4.78385E+02 1.03588E+02-9.84012E+00-5.15654E+01 5.04902E+00
 -1      2018-6.95081E+02-6.95080E+02-1.62185E+03 1.98943E-04 1.05842E+03 3.20273E+01
 -1      2019 1.79910E+02 4.78023E+02 1.03176E+02-9.30003E+00-5.14345E+01 5.24964E+00
 -1      2020-6.91318E+02-6.91317E+02-1.61307E+03 2.54917E-04 1.05340E+03 3.86882E+01
 -1      2021 1.80943E+02 4.77311E+02 1.03574E+02-7.87747E+00-5.10016E+01 5.36839E+00
 -1      2022-6.81989E+02-6.81988E+02-1.59130E+03 2.94348E-04 1.04360E+03 4.31789E+01
 -1      2023 1.94716E+02 4.75600E+02 1.06191E+02-5.33688E+00-5.06001E+01 4.99997E+00
 -1      2024-6.71854E+02-6.71853E+02-1.56765E+03 2.02469E-04 1.03455E+03 3.57122E+01
 -1      2025 2.29301E+02 4.69295E+02 1.08336E+02-4.15299E+00-5.01873E+01 4.05211E+00
 -1      2026-6.84315E+02-6.84313E+02-1.59673E+03-5.49251E-05 1.04631E+03 2.14931E+01
 -1      2027 2.41389E+02 4.52582E+02 9.76359E+01-1.99582E+01-5.78675E+01 8.14358E+00
 -1      2028-7.38259E+02-7.38256E+02-1.72259E+03 1.41271E-04 1.09530E+03 6.33258E+01
 -1      2029 1.65074E+02 4.62963E+02 7.24892E+01-4.81267E+01-4.93209E+01 2.36623E+01
 -1      2030-7.52759E+02-7.52754E+02-1.75642E+03 1.95337E-03 1.08620E+03 2.37181E+02
 -1      2031 1.24947E+02 6.12477E+02 1.16411E+02 4.65893E+01-3.92459E+01 3.26578E+00
 -1      2032-5.30946E+02-5.30946E+02-1.23887E+03 3.47023E-03 7.83785E+02 4.26539E+02
 -1      2033 1.09588E+02 4.27070E+02 9.20286E+01 2.15502E+02-3.44411E+01-4.79623E+01
 -1      2034-1.83735E+02-1.83738E+02-4.28719E+02 2.18978E-03 3.22880E+02 4.10346E+02
 -1      2035 8.45604E+01 1.60375E+01 5.15239E-01 1.77884E+02-2.13388E+01-3.30956E+01
 -1      2036-1.67905E+01-1.67934E+01-3.91839E+01 6.19997E-04 8.02478E+01 2.42837E+02
 -1      2037 1.07960E+02 1.39619E+01 3.55087E+01 4.46800E+01-1.81187E+01 5.40893E+00
 -1      2038 1.48398E+01 1.48384E+01 3.46231E+01 4.24162E-05 1.25730E+01 1.13083E+02
 -1      2039 3.99434E+01 1.03281E+01 1.83696E+01 8.30647E+00 1.79475E+00 6.05886E+00
 -1      2040-1.52997E+02-8.49343E+01-6.30149E+02-6.11833E+01-3.38988E+02-3.65375E+02
 -1      2041-3.12294E+02-2.00565E+02-1.10504E+03-6.11479E+01-5.89694E+02-3.26599E+02
 -1      2042-3.79362E+02-2.48039E+02-1.38364E+03-2.92204E+01-7.50773E+02-1.99310E+02
 -1      2043-4.39711E+02-2.60921E+02-1.47628E+03-6.21903E+00-8.08014E+02-8.79200E+01
 -1      2044-4.81203E+02-2.62735E+02-1.48053E+03 2.01608E+00-8.16130E+02-2.54858E+01
 -1      2045-5.02578E+02-2.62566E+02-1.46888E+03 2.82925E+00-8.11769E+02 3.23094E-01
 -1      2046-5.11216E+02-2.62705E+02-1.46379E+03 1.90258E+00-8.08145E+02 1.01789E+01
 -1      2047-5.14474E+02-2.62947E+02-1.46427E+03 1.17990E+00-8.06923E+02 1.51343E+01
 -1      2048-5.16108E+02-2.63173E+02-1.46636E+03 8.57510E-01-8.06947E+02 1.86685E+01
 -1      2049-5.17115E+02-2.63334E+02-1.46816E+03 7.48832E-01-8.07302E+02 2.14843E+01
 -1      2050-5.17422E+02-2.63413E+02-1.46936E+03 7.34872E-01-8.07611E+02 2.39353E+01
 -1      2051-5.16642E+02-2.63381E+02-1.46988E+03 8.50817E-01-8.07610E+02 2.67651E+01
 -1      2052-5.14562E+02-2.63162E+02-1.46842E+03 1.29079E+00-8.06596E+02 3.11419E+01
 -1      2053-5.12216E+02-2.62467E+02-1.46102E+03 2.25270E+00-8.03044E+02 3.75673E+01
 -1      2054-5.12075E+02-2.60240E+02-1.44237E+03 3.13362E+00-7.95571E+02 4.24696E+01
 -1      2055-5.11749E+02-2.55082E+02-1.41942E+03 8.17626E-01-7.87446E+02 3.61469E+01
 -1      2056-4.94898E+02-2.51546E+02-1.43800E+03-8.14192E+00-7.94347E+02 2.09492E+01
 -1      2057-4.50863E+02-2.66939E+02-1.54748E+03-9.96867E+00-8.36611E+02 5.51786E+01
 -1      2058-4.07772E+02-2.93057E+02-1.59082E+03 3.28884E+01-8.48159E+02 2.18354E+02
 -1      2059-3.24588E+02-2.09041E+02-1.12304E+03 9.23903E+01-6.08617E+02 4.00977E+02
 -1      2060-2.11206E+02-5.71519E+01-3.81522E+02 8.28059E+01-2.29361E+02 3.83218E+02
 -1      2061-1.44387E+02-1.14493E+01-4.04598E+01 3.05529E+01-5.05959E+01 2.22219E+02
 -1      2062-6.57676E+01-5.46091E+00 1.48271E+01 3.57989E+00-7.30187E+00 1.01089E+02
 -1      2063-2.48855E+02-2.18442E+02-8.67688E+02-1.06856E+02-4.18714E+02-3.99174E+02
 -1      2064-5.14293E+02-4.52306E+02-1.56436E+03-1.07238E+02-7.39958E+02-3.46713E+02
 -1      2065-6.34930E+02-5.56220E+02-1.95091E+03-4.93647E+01-9.40422E+02-2.00323E+02
 -1      2066-7.16879E+02-5.94258E+02-2.06805E+03-9.90871E+00-1.01067E+03-8.20155E+01
 -1      2067-7.59972E+02-6.00340E+02-2.06664E+03 3.75876E+00-1.01960E+03-2.02857E+01
 -1      2068-7.78459E+02-5.99284E+02-2.04733E+03 4.81867E+00-1.01359E+03 3.52188E+00
 -1      2069-7.84750E+02-5.98365E+02-2.03802E+03 3.14506E+00-1.00880E+03 1.22466E+01
 -1      2070-7.87053E+02-5.98378E+02-2.03681E+03 1.93299E+00-1.00711E+03 1.67768E+01
 -1      2071-7.88477E+02-5.98801E+02-2.03836E+03 1.42571E+00-1.00702E+03 2.01519E+01
 -1      2072-7.89521E+02-5.99227E+02-2.04003E+03 1.26922E+00-1.00739E+03 2.28700E+01
 -1      2073-7.89922E+02-5.99491E+02-2.04126E+03 1.25517E+00-1.00775E+03 2.52185E+01
 -1      2074-7.89176E+02-5.99457E+02-2.04186E+03 1.44635E+00-1.00775E+03 2.79271E+01
 -1      2075-7.86731E+02-5.98727E+02-2.04014E+03 2.19320E+00-1.00654E+03 3.22401E+01
 -1      2076-7.82990E+02-5.96406E+02-2.03109E+03 3.89662E+00-1.00226E+03 3.89713E+01
 -1      2077-7.80387E+02-5.91112E+02-2.00741E+03 5.62567E+00-9.93012E+02 4.49131E+01
 -1      2078-7.78782E+02-5.83013E+02-1.97549E+03 1.97212E+00-9.82567E+02 3.88160E+01
 -1      2079-7.66327E+02-5.81695E+02-1.99380E+03-1.41998E+01-9.90766E+02 1.75203E+01
 -1      2080-7.33353E+02-6.09560E+02-2.14654E+03-2.06714E+01-1.04490E+03 4.11162E+01
 -1      2081-6.98954E+02-6.46722E+02-2.25106E+03 5.39897E+01-1.06710E+03 2.21140E+02
 -1      2082-5.33872E+02-4.64308E+02-1.58671E+03 1.62426E+02-7.65828E+02 4.39172E+02
 -1      2083-2.82330E+02-1.46240E+02-4.93512E+02 1.43964E+02-2.80001E+02 4.11609E+02
 -1      2084-1.62467E+02-3.69031E+01-4.60383E+01 4.99084E+01-5.99524E+01 2.20401E+02
 -1      2085-6.53903E+01-8.83453E+00 1.72111E+01 5.57690E+00-7.85868E+00 9.41553E+01
 -1      2086-3.33933E+02-2.54708E+02-1.16295E+03-1.16877E+02-3.76745E+02-4.64522E+02
 -1      2087-6.89305E+02-5.28033E+02-2.13398E+03-1.14889E+02-6.78237E+02-3.95843E+02
 -1      2088-8.57302E+02-6.47714E+02-2.66005E+03-5.35608E+01-8.61167E+02-2.16170E+02
 -1      2089-9.59692E+02-6.87891E+02-2.80818E+03-1.07639E+01-9.23703E+02-7.95869E+01
 -1      2090-1.00805E+03-6.93799E+02-2.80155E+03 4.02768E+00-9.30687E+02-1.45125E+01
 -1      2091-1.02548E+03-6.92189E+02-2.77383E+03 5.23354E+00-9.24669E+02 7.81118E+00
 -1      2092-1.02997E+03-6.91034E+02-2.75996E+03 3.45594E+00-9.20083E+02 1.50758E+01
 -1      2093-1.03126E+03-6.91021E+02-2.75702E+03 2.16608E+00-9.18410E+02 1.89205E+01
 -1      2094-1.03234E+03-6.91507E+02-2.75808E+03 1.62721E+00-9.18242E+02 2.20477E+01
 -1      2095-1.03333E+03-6.91998E+02-2.75970E+03 1.46368E+00-9.18522E+02 2.46639E+01
 -1      2096-1.03375E+03-6.92307E+02-2.76103E+03 1.45249E+00-9.18815E+02 2.69374E+01
 -1      2097-1.03295E+03-6.92285E+02-2.76171E+03 1.66138E+00-9.18825E+02 2.96092E+01
 -1      2098-1.03005E+03-6.91464E+02-2.75963E+03 2.46491E+00-9.17788E+02 3.41012E+01
 -1      2099-1.02510E+03-6.88823E+02-2.74849E+03 4.29623E+00-9.14003E+02 4.16353E+01
 -1      2100-1.02109E+03-6.82870E+02-2.71855E+03 6.16714E+00-9.05630E+02 4.91259E+01
 -1      2101-1.02004E+03-6.73364E+02-2.67500E+03 2.20378E+00-8.95811E+02 4.23186E+01
 -1      2102-1.00958E+03-6.69759E+02-2.69106E+03-1.53884E+01-9.02733E+02 1.02288E+01
 -1      2103-9.77898E+02-7.02580E+02-2.89866E+03-2.21644E+01-9.54100E+02 2.18145E+01
 -1      2104-9.48986E+02-7.58811E+02-3.08469E+03 5.79764E+01-9.82964E+02 2.39608E+02
 -1      2105-7.17427E+02-5.43221E+02-2.17481E+03 1.74087E+02-7.06019E+02 5.22227E+02
 -1      2106-3.50380E+02-1.56501E+02-6.34105E+02 1.54952E+02-2.48950E+02 4.80546E+02
 -1      2107-1.90013E+02-3.79907E+01-5.32955E+01 5.40593E+01-5.08534E+01 2.33516E+02
 -1      2108-7.20235E+01-1.03027E+01 1.84986E+01 6.51688E+00-5.91287E+00 8.92774E+01
 -1      2109-4.08823E+02-2.71224E+02-1.43773E+03-9.65404E+01-2.84787E+02-5.33029E+02
 -1      2110-8.41714E+02-5.64228E+02-2.66853E+03-9.42232E+01-5.19423E+02-4.49054E+02
 -1      2111-1.05113E+03-6.90334E+02-3.32774E+03-4.41047E+01-6.59524E+02-2.35608E+02
 -1      2112-1.17232E+03-7.29148E+02-3.50557E+03-8.98925E+00-7.06600E+02-7.90298E+01
 -1      2113-1.22662E+03-7.33941E+02-3.49433E+03 3.28341E+00-7.11447E+02-9.35333E+00
 -1      2114-1.24394E+03-7.32016E+02-3.45909E+03 4.32542E+00-7.06633E+02 1.19486E+01
 -1      2115-1.24706E+03-7.30795E+02-3.44118E+03 2.89211E+00-7.03036E+02 1.78558E+01
 -1      2116-1.24747E+03-7.30793E+02-3.43674E+03 1.84102E+00-7.01702E+02 2.10160E+01
 -1      2117-1.24821E+03-7.31303E+02-3.43741E+03 1.40080E+00-7.01533E+02 2.38965E+01
 -1      2118-1.24913E+03-7.31810E+02-3.43902E+03 1.26783E+00-7.01722E+02 2.64246E+01
 -1      2119-1.24955E+03-7.32131E+02-3.44045E+03 1.26072E+00-7.01933E+02 2.86467E+01
 -1      2120-1.24866E+03-7.32118E+02-3.44121E+03 1.43478E+00-7.01943E+02 3.13234E+01
 -1      2121-1.24532E+03-7.31288E+02-3.43877E+03 2.09460E+00-7.01178E+02 3.60665E+01
 -1      2122-1.23932E+03-7.28603E+02-3.42568E+03 3.59252E+00-6.98342E+02 4.44775E+01
 -1      2123-1.23441E+03-7.22524E+02-3.38986E+03 5.11473E+00-6.91986E+02 5.34749E+01
 -1      2124-1.23427E+03-7.11932E+02-3.33511E+03 1.81227E+00-6.84375E+02 4.55984E+01
 -1      2125-1.22466E+03-7.05604E+02-3.34856E+03-1.26382E+01-6.89384E+02 2.47467E+00
 -1      2126-1.19147E+03-7.41228E+02-3.60932E+03-1.80788E+01-7.29809E+02 3.53188E+00
 -1      2127-1.16676E+03-8.14436E+02-3.87613E+03 4.73944E+01-7.56520E+02 2.61410E+02
 -1      2128-8.79370E+02-5.81335E+02-2.73633E+03 1.42502E+02-5.44344E+02 6.10315E+02
 -1      2129-4.12464E+02-1.52471E+02-7.66181E+02 1.27250E+02-1.87274E+02 5.55380E+02
 -1      2130-2.18480E+02-3.52547E+01-5.92451E+01 4.46499E+01-3.69850E+01 2.50909E+02
 -1      2131-8.06751E+01-1.15817E+01 1.95847E+01 5.64077E+00-3.96991E+00 8.60910E+01
 -1      2132-4.60054E+02-2.79384E+02-1.62874E+03-5.41080E+01-1.52979E+02-5.82968E+02
 -1      2133-9.45756E+02-5.82346E+02-3.04253E+03-5.26840E+01-2.81140E+02-4.88277E+02
 -1      2134-1.18369E+03-7.11019E+02-3.79626E+03-2.46989E+01-3.57130E+02-2.50531E+02
 -1      2135-1.31818E+03-7.48463E+02-3.99544E+03-5.07936E+00-3.82417E+02-7.91744E+01
 -1      2136-1.37700E+03-7.52400E+02-3.98116E+03 1.82341E+00-3.84915E+02-5.82255E+00
 -1      2137-1.39453E+03-7.50311E+02-3.94078E+03 2.42917E+00-3.82257E+02 1.48924E+01
 -1      2138-1.39679E+03-7.49095E+02-3.92010E+03 1.63659E+00-3.80286E+02 1.98586E+01
 -1      2139-1.39660E+03-7.49108E+02-3.91464E+03 1.05190E+00-3.79548E+02 2.25300E+01
 -1      2140-1.39710E+03-7.49631E+02-3.91507E+03 8.06183E-01-3.79445E+02 2.52337E+01
 -1      2141-1.39796E+03-7.50142E+02-3.91668E+03 7.32103E-01-3.79539E+02 2.77023E+01
 -1      2142-1.39838E+03-7.50465E+02-3.91819E+03 7.28776E-01-3.79650E+02 2.98943E+01
 -1      2143-1.39742E+03-7.50458E+02-3.91901E+03 8.27005E-01-3.79656E+02 3.25866E+01
 -1      2144-1.39376E+03-7.49631E+02-3.91631E+03 1.19592E+00-3.79249E+02 3.75292E+01
 -1      2145-1.38705E+03-7.46964E+02-3.90183E+03 2.03118E+00-3.77731E+02 4.65881E+01
 -1      2146-1.38161E+03-7.40883E+02-3.86189E+03 2.87341E+00-3.74309E+02 5.66418E+01
 -1      2147-1.38223E+03-7.29603E+02-3.79925E+03 1.00994E+00-3.70172E+02 4.78703E+01
 -1      2148-1.37298E+03-7.21368E+02-3.81091E+03-7.06320E+00-3.72805E+02-3.21680E+00
 -1      2149-1.33816E+03-7.58308E+02-4.10995E+03-1.00908E+01-3.95107E+02-9.25229E+00
 -1      2150-1.31598E+03-8.42290E+02-4.43478E+03 2.63857E+01-4.10996E+02 2.77796E+02
 -1      2151-9.91329E+02-6.00100E+02-3.13504E+03 7.95623E+01-2.96237E+02 6.74616E+02
 -1      2152-4.56184E+02-1.47476E+02-8.59771E+02 7.11968E+01-1.00559E+02 6.10644E+02
 -1      2153-2.39360E+02-3.30265E+01-6.31373E+01 2.50509E+01-1.94482E+01 2.64624E+02
 -1      2154-8.74602E+01-1.25045E+01 2.03704E+01 3.24167E+00-1.99969E+00 8.43094E+01
 -1      2155-4.77992E+02-2.81635E+02-1.69634E+03-9.81763E-07-7.85822E-06-6.01077E+02
 -1      2156-9.82212E+02-5.87458E+02-3.17534E+03 2.39732E-06-8.42826E-06-5.02566E+02
 -1      2157-1.23022E+03-7.16674E+02-3.96298E+03 2.24730E-06-4.74738E-06-2.56056E+02
 -1      2158-1.36948E+03-7.53563E+02-4.16986E+03 1.17473E-06-2.72908E-06-7.93076E+01
 -1      2159-1.42997E+03-7.57195E+02-4.15454E+03 5.57605E-07-1.89084E-06-4.57322E+00
 -1      2160-1.44762E+03-7.55061E+02-4.11235E+03 2.75189E-07-1.54801E-06 1.59533E+01
 -1      2161-1.44960E+03-7.53856E+02-4.09069E+03 1.36205E-07-1.43984E-06 2.05852E+01
 -1      2162-1.44920E+03-7.53877E+02-4.08488E+03 6.35008E-08-1.44872E-06 2.30806E+01
 -1      2163-1.44961E+03-7.54403E+02-4.08522E+03 1.92337E-08-1.50281E-06 2.57205E+01
 -1      2164-1.45045E+03-7.54915E+02-4.08683E+03-1.37379E-08-1.54481E-06 2.81681E+01
 -1      2165-1.45087E+03-7.55238E+02-4.08837E+03-4.40617E-08-1.50621E-06 3.03502E+01
 -1      2166-1.44989E+03-7.55233E+02-4.08921E+03-8.38331E-08-1.28748E-06 3.30500E+01
 -1      2167-1.44611E+03-7.54409E+02-4.08642E+03-1.41544E-07-8.25248E-07 3.80672E+01
 -1      2168-1.43914E+03-7.51756E+02-4.07145E+03-1.44902E-07-3.28545E-07 4.73624E+01
 -1      2169-1.43354E+03-7.45688E+02-4.03004E+03-9.35387E-08 1.11435E-07 5.77916E+01
 -1      2170-1.43444E+03-7.34183E+02-3.96460E+03-6.11849E-08 3.53119E-07 4.86748E+01
 -1      2171-1.42530E+03-7.25274E+02-3.97564E+03-4.53136E-08 4.74526E-07-5.29051E+00
 -1      2172-1.38982E+03-7.62549E+02-4.28855E+03-2.44185E-08 5.00215E-07-1.38086E+01
 -1      2173-1.36841E+03-8.50096E+02-4.63421E+03 2.00778E-08 4.11550E-07 2.83793E+02
 -1      2174-1.03090E+03-6.05289E+02-3.27792E+03 4.92475E-08 2.79553E-07 6.97926E+02
 -1      2175-4.71830E+02-1.45347E+02-8.93385E+02 3.54170E-08 1.56366E-07 6.30799E+02
 -1      2176-2.46954E+02-3.22035E+01-6.44616E+01 1.56958E-08 5.73510E-08 2.69760E+02
 -1      2177-8.99900E+01-1.28388E+01 2.06590E+01 3.85693E-09 1.28017E-10 8.37419E+01
 -1      2178-4.60054E+02-2.79384E+02-1.62874E+03 5.41080E+01 1.52979E+02-5.82968E+02
 -1      2179-9.45756E+02-5.82346E+02-3.04253E+03 5.26841E+01 2.81140E+02-4.88277E+02
 -1      2180-1.18369E+03-7.11019E+02-3.79626E+03 2.46989E+01 3.57130E+02-2.50531E+02
 -1      2181-1.31818E+03-7.48463E+02-3.99544E+03 5.07936E+00 3.82417E+02-7.91744E+01
 -1      2182-1.37700E+03-7.52400E+02-3.98116E+03-1.82341E+00 3.84915E+02-5.82255E+00
 -1      2183-1.39453E+03-7.50311E+02-3.94078E+03-2.42917E+00 3.82257E+02 1.48924E+01
 -1      2184-1.39679E+03-7.49095E+02-3.92010E+03-1.63659E+00 3.80286E+02 1.98586E+01
 -1      2185-1.39660E+03-7.49108E+02-3.91464E+03-1.05190E+00 3.79548E+02 2.25300E+01
 -1      2186-1.39710E+03-7.49631E+02-3.91507E+03-8.06183E-01 3.79445E+02 2.52337E+01
 -1      2187-1.39796E+03-7.50142E+02-3.91668E+03-7.32103E-01 3.79539E+02 2.77023E+01
 -1      2188-1.39838E+03-7.50465E+02-3.91819E+03-7.28776E-01 3.79650E+02 2.98943E+01
 -1      2189-1.39742E+03-7.50458E+02-3.91901E+03-8.27005E-01 3.79656E+02 3.25866E+01
 -1      2190-1.39376E+03-7.49631E+02-3.91631E+03-1.19592E+00 3.79249E+02 3.75292E+01
 -1      2191-1.38705E+03-7.46964E+02-3.90183E+03-2.03118E+00 3.77731E+02 4.65881E+01
 -1      2192-1.38161E+03-7.40883E+02-3.86189E+03-2.87341E+00 3.74309E+02 5.66418E+01
 -1      2193-1.38223E+03-7.29603E+02-3.79925E+03-1.00994E+00 3.70172E+02 4.78703E+01
 -1      2194-1.37298E+03-7.21368E+02-3.81091E+03 7.06320E+00 3.72805E+02-3.21680E+00
 -1      2195-1.33816E+03-7.58308E+02-4.10995E+03 1.00908E+01 3.95107E+02-9.25229E+00
 -1      2196-1.31598E+03-8.42290E+02-4.43478E+03-2.63857E+01 4.10996E+02 2.77796E+02
 -1      2197-9.91329E+02-6.00100E+02-3.13504E+03-7.95623E+01 2.96237E+02 6.74616E+02
 -1      2198-4.56184E+02-1.47476E+02-8.59771E+02-7.11968E+01 1.00559E+02 6.10644E+02
 -1      2199-2.39360E+02-3.30265E+01-6.31373E+01-2.50509E+01 1.94482E+01 2.64624E+02
 -1      2200-8.74602E+01-1.25045E+01 2.03704E+01-3.24167E+00 1.99969E+00 8.43094E+01
 -1      2201-4.08823E+02-2.71224E+02-1.43773E+03 9.65404E+01 2.84787E+02-5.33029E+02
 -1      2202-8.41714E+02-5.64228E+02-2.66853E+03 9.42232E+01 5.19423E+02-4.49054E+02
 -1      2203-1.05113E+03-6.90334E+02-3.32774E+03 4.41047E+01 6.59524E+02-2.35608E+02
 -1      2204-1.17232E+03-7.29148E+02-3.50557E+03 8.98926E+00 7.06600E+02-7.90298E+01
 -1      2205-1.22662E+03-7.33941E+02-3.49433E+03-3.28341E+00 7.11447E+02-9.35333E+00
 -1      2206-1.24394E+03-7.32016E+02-3.45909E+03-4.32542E+00 7.06633E+02 1.19486E+01
 -1      2207-1.24706E+03-7.30795E+02-3.44118E+03-2.89211E+00 7.03036E+02 1.78558E+01
 -1      2208-1.24747E+03-7.30793E+02-3.43674E+03-1.84102E+00 7.01702E+02 2.10160E+01
 -1      2209-1.24821E+03-7.31303E+02-3.43741E+03-1.40080E+00 7.01533E+02 2.38965E+01
 -1      2210-1.24913E+03-7.31810E+02-3.43902E+03-1.26783E+00 7.01722E+02 2.64246E+01
 -1      2211-1.24955E+03-7.32131E+02-3.44045E+03-1.26072E+00 7.01933E+02 2.86467E+01
 -1      2212-1.24866E+03-7.32118E+02-3.44121E+03-1.43478E+00 7.01943E+02 3.13234E+01
 -1      2213-1.24532E+03-7.31288E+02-3.43877E+03-2.09460E+00 7.01178E+02 3.60665E+01
 -1      2214-1.23932E+03-7.28603E+02-3.42568E+03-3.59252E+00 6.98342E+02 4.44775E+01
 -1      2215-1.23441E+03-7.22524E+02-3.38986E+03-5.11473E+00 6.91986E+02 5.34749E+01
 -1      2216-1.23427E+03-7.11932E+02-3.33511E+03-1.81227E+00 6.84375E+02 4.55984E+01
 -1      2217-1.22466E+03-7.05604E+02-3.34856E+03 1.26382E+01 6.89384E+02 2.47467E+00
 -1      2218-1.19147E+03-7.41228E+02-3.60932E+03 1.80788E+01 7.29809E+02 3.53188E+00
 -1      2219-1.16676E+03-8.14436E+02-3.87613E+03-4.73944E+01 7.56520E+02 2.61410E+02
 -1      2220-8.79370E+02-5.81335E+02-2.73633E+03-1.42502E+02 5.44344E+02 6.10315E+02
 -1      2221-4.12464E+02-1.52471E+02-7.66181E+02-1.27250E+02 1.87274E+02 5.55380E+02
 -1      2222-2.18480E+02-3.52547E+01-5.92451E+01-4.46499E+01 3.69850E+01 2.50909E+02
 -1      2223-8.06751E+01-1.15817E+01 1.95847E+01-5.64077E+00 3.96991E+00 8.60910E+01
 -1      2224-3.33933E+02-2.54708E+02-1.16295E+03 1.16877E+02 3.76745E+02-4.64522E+02
 -1      2225-6.89305E+02-5.28033E+02-2.13398E+03 1.14889E+02 6.78237E+02-3.95843E+02
 -1      2226-8.57302E+02-6.47714E+02-2.66005E+03 5.35608E+01 8.61167E+02-2.16170E+02
 -1      2227-9.59692E+02-6.87891E+02-2.80818E+03 1.07639E+01 9.23703E+02-7.95869E+01
 -1      2228-1.00805E+03-6.93799E+02-2.80155E+03-4.02767E+00 9.30687E+02-1.45125E+01
 -1      2229-1.02548E+03-6.92189E+02-2.77383E+03-5.23354E+00 9.24669E+02 7.81118E+00
 -1      2230-1.02997E+03-6.91034E+02-2.75996E+03-3.45594E+00 9.20083E+02 1.50758E+01
 -1      2231-1.03126E+03-6.91021E+02-2.75702E+03-2.16608E+00 9.18410E+02 1.89205E+01
 -1      2232-1.03234E+03-6.91507E+02-2.75808E+03-1.62721E+00 9.18242E+02 2.20477E+01
 -1      2233-1.03333E+03-6.91998E+02-2.75970E+03-1.46368E+00 9.18522E+02 2.46639E+01
 -1      2234-1.03375E+03-6.92307E+02-2.76103E+03-1.45249E+00 9.18815E+02 2.69374E+01
 -1      2235-1.03295E+03-6.92285E+02-2.76171E+03-1.66138E+00 9.18825E+02 2.96092E+01
 -1      2236-1.03005E+03-6.91464E+02-2.75963E+03-2.46491E+00 9.17788E+02 3.41012E+01
 -1      2237-1.02510E+03-6.88823E+02-2.74849E+03-4.29623E+00 9.14003E+02 4.16353E+01
 -1      2238-1.02109E+03-6.82870E+02-2.71855E+03-6.16714E+00 9.05630E+02 4.91259E+01
 -1      2239-1.02004E+03-6.73364E+02-2.67500E+03-2.20378E+00 8.95811E+02 4.23186E+01
 -1      2240-1.00958E+03-6.69759E+02-2.69106E+03 1.53884E+01 9.02733E+02 1.02288E+01
 -1      2241-9.77898E+02-7.02580E+02-2.89866E+03 2.21644E+01 9.54100E+02 2.18145E+01
 -1      2242-9.48986E+02-7.58811E+02-3.08469E+03-5.79764E+01 9.82964E+02 2.39608E+02
 -1      2243-7.17427E+02-5.43221E+02-2.17481E+03-1.74087E+02 7.06019E+02 5.22227E+02
 -1      2244-3.50380E+02-1.56501E+02-6.34105E+02-1.54952E+02 2.48950E+02 4.80546E+02
 -1      2245-1.90013E+02-3.79907E+01-5.32955E+01-5.40593E+01 5.08534E+01 2.33516E+02
 -1      2246-7.20235E+01-1.03027E+01 1.84986E+01-6.51688E+00 5.91287E+00 8.92774E+01
 -1      2247-2.48855E+02-2.18442E+02-8.67688E+02 1.06856E+02 4.18714E+02-3.99174E+02
 -1      2248-5.14293E+02-4.52306E+02-1.56436E+03 1.07238E+02 7.39958E+02-3.46713E+02
 -1      2249-6.34930E+02-5.56220E+02-1.95091E+03 4.93647E+01 9.40422E+02-2.00323E+02
 -1      2250-7.16879E+02-5.94258E+02-2.06805E+03 9.90871E+00 1.01067E+03-8.20155E+01
 -1      2251-7.59972E+02-6.00340E+02-2.06664E+03-3.75876E+00 1.01960E+03-2.02857E+01
 -1      2252-7.78459E+02-5.99284E+02-2.04733E+03-4.81867E+00 1.01359E+03 3.52188E+00
 -1      2253-7.84750E+02-5.98365E+02-2.03802E+03-3.14506E+00 1.00880E+03 1.22466E+01
 -1      2254-7.87053E+02-5.98378E+02-2.03681E+03-1.93299E+00 1.00711E+03 1.67768E+01
 -1      2255-7.88477E+02-5.98801E+02-2.03836E+03-1.42571E+00 1.00702E+03 2.01519E+01
 -1      2256-7.89521E+02-5.99227E+02-2.04003E+03-1.26922E+00 1.00739E+03 2.28700E+01
 -1      2257-7.89922E+02-5.99491E+02-2.04126E+03-1.25517E+00 1.00775E+03 2.52185E+01
 -1      2258-7.89176E+02-5.99457E+02-2.04186E+03-1.44635E+00 1.00775E+03 2.79271E+01
 -1      2259-7.86731E+02-5.98727E+02-2.04014E+03-2.19320E+00 1.00654E+03 3.22401E+01
 -1      2260-7.82990E+02-5.96406E+02-2.03109E+03-3.89662E+00 1.00226E+03 3.89713E+01
 -1      2261-7.80387E+02-5.91112E+02-2.00741E+03-5.62567E+00 9.93012E+02 4.49131E+01
 -1      2262-7.78782E+02-5.83013E+02-1.97549E+03-1.97212E+00 9.82567E+02 3.88160E+01
 -1      2263-7.66327E+02-5.81695E+02-1.99380E+03 1.41998E+01 9.90766E+02 1.75203E+01
 -1      2264-7.33353E+02-6.09560E+02-2.14654E+03 2.06714E+01 1.04490E+03 4.11162E+01
 -1      2265-6.98954E+02-6.46722E+02-2.25106E+03-5.39897E+01 1.06710E+03 2.21140E+02
 -1      2266-5.33872E+02-4.64308E+02-1.58671E+03-1.62426E+02 7.65828E+02 4.39172E+02
 -1      2267-2.82330E+02-1.46240E+02-4.93512E+02-1.43964E+02 2.80001E+02 4.11609E+02
 -1      2268-1.62467E+02-3.69031E+01-4.60383E+01-4.99084E+01 5.99524E+01 2.20401E+02
 -1      2269-6.53903E+01-8.83453E+00 1.72111E+01-5.57690E+00 7.85868E+00 9.41553E+01
 -1      2270-1.52997E+02-8.49343E+01-6.30149E+02 6.11833E+01 3.38988E+02-3.65375E+02
 -1      2271-3.12294E+02-2.00565E+02-1.10504E+03 6.11479E+01 5.89694E+02-3.26599E+02
 -1      2272-3.79362E+02-2.48039E+02-1.38364E+03 2.92204E+01 7.50773E+02-1.99310E+02
 -1      2273-4.39711E+02-2.60921E+02-1.47628E+03 6.21903E+00 8.08014E+02-8.79200E+01
 -1      2274-4.81203E+02-2.62735E+02-1.48053E+03-2.01608E+00 8.16130E+02-2.54858E+01
 -1      2275-5.02578E+02-2.62566E+02-1.46888E+03-2.82925E+00 8.11769E+02 3.23095E-01
 -1      2276-5.11216E+02-2.62705E+02-1.46378E+03-1.90258E+00 8.08145E+02 1.01789E+01
 -1      2277-5.14474E+02-2.62947E+02-1.46427E+03-1.17990E+00 8.06923E+02 1.51343E+01
 -1      2278-5.16108E+02-2.63173E+02-1.46636E+03-8.57510E-01 8.06947E+02 1.86685E+01
 -1      2279-5.17115E+02-2.63334E+02-1.46816E+03-7.48832E-01 8.07302E+02 2.14843E+01
 -1      2280-5.17422E+02-2.63413E+02-1.46936E+03-7.34872E-01 8.07611E+02 2.39353E+01
 -1      2281-5.16642E+02-2.63381E+02-1.46988E+03-8.50817E-01 8.07610E+02 2.67651E+01
 -1      2282-5.14562E+02-2.63162E+02-1.46842E+03-1.29079E+00 8.06596E+02 3.11419E+01
 -1      2283-5.12216E+02-2.62467E+02-1.46102E+03-2.25270E+00 8.03044E+02 3.75673E+01
 -1      2284-5.12075E+02-2.60240E+02-1.44237E+03-3.13362E+00 7.95571E+02 4.24696E+01
 -1      2285-5.11749E+02-2.55082E+02-1.41942E+03-8.17626E-01 7.87446E+02 3.61469E+01
 -1      2286-4.94898E+02-2.51546E+02-1.43800E+03 8.14192E+00 7.94347E+02 2.09492E+01
 -1      2287-4.50863E+02-2.66939E+02-1.54748E+03 9.96867E+00 8.36611E+02 5.51786E+01
 -1      2288-4.07772E+02-2.93057E+02-1.59082E+03-3.28884E+01 8.48159E+02 2.18354E+02
 -1      2289-3.24588E+02-2.09041E+02-1.12304E+03-9.23903E+01 6.08617E+02 4.00977E+02
 -1      2290-2.11206E+02-5.71519E+01-3.81522E+02-8.28059E+01 2.29361E+02 3.83218E+02
 -1      2291-1.44387E+02-1.14493E+01-4.04598E+01-3.05529E+01 5.05959E+01 2.22219E+02
 -1      2292-6.57676E+01-5.46091E+00 1.48271E+01-3.57989E+00 7.30187E+00 1.01089E+02
 -1      2293-1.10869E+02-6.04218E+01-6.05563E+02-1.16981E+02-2.49657E+02-2.72822E+02
 -1      2294-1.91149E+02-1.51479E+02-9.76759E+02-1.12948E+02-4.56269E+02-2.40340E+02
 -1      2295-2.50441E+02-1.88840E+02-1.23239E+03-5.41507E+01-5.75648E+02-1.43038E+02
 -1      2296-3.13855E+02-1.92547E+02-1.29749E+03-1.17590E+01-6.10413E+02-6.10723E+01
 -1      2297-3.73249E+02-1.91932E+02-1.28892E+03 3.37906E+00-6.11883E+02-1.72029E+01
 -1      2298-4.08788E+02-1.92676E+02-1.27392E+03 5.11473E+00-6.07401E+02 1.22258E+00
 -1      2299-4.24822E+02-1.93749E+02-1.26867E+03 3.60471E+00-6.04673E+02 9.44305E+00
 -1      2300-4.31272E+02-1.94409E+02-1.26932E+03 2.37631E+00-6.03851E+02 1.43710E+01
 -1      2301-4.34258E+02-1.94712E+02-1.27134E+03 1.83833E+00-6.03879E+02 1.79353E+01
 -1      2302-4.35860E+02-1.94838E+02-1.27295E+03 1.67689E+00-6.04114E+02 2.05962E+01
 -1      2303-4.36273E+02-1.94863E+02-1.27404E+03 1.68410E+00-6.04326E+02 2.27174E+01
 -1      2304-4.35137E+02-1.94820E+02-1.27473E+03 1.92923E+00-6.04377E+02 2.49194E+01
 -1      2305-4.32511E+02-1.94793E+02-1.27403E+03 2.76010E+00-6.03835E+02 2.81948E+01
 -1      2306-4.30482E+02-1.94750E+02-1.26809E+03 4.50090E+00-6.01613E+02 3.34499E+01
 -1      2307-4.32921E+02-1.93433E+02-1.25048E+03 6.14406E+00-5.96031E+02 3.90883E+01
 -1      2308-4.33910E+02-1.87296E+02-1.22446E+03 2.45369E+00-5.87599E+02 3.71113E+01
 -1      2309-4.01994E+02-1.78369E+02-1.23781E+03-1.36486E+01-5.87752E+02 2.25900E+01
 -1      2310-3.20962E+02-1.91970E+02-1.36032E+03-1.91935E+01-6.25462E+02 3.54634E+01
 -1      2311-2.66837E+02-2.40859E+02-1.44295E+03 6.00903E+01-6.70985E+02 1.54756E+02
 -1      2312-2.38877E+02-1.70497E+02-1.00354E+03 1.73653E+02-4.75523E+02 3.00595E+02
 -1      2313-2.10676E+02-1.87141E+01-2.86035E+02 1.53945E+02-1.38714E+02 2.81182E+02
 -1      2314-1.87241E+02-4.60047E-02 1.20431E+01 5.52104E+01-2.14065E+01 1.54091E+02
 -1      2315-1.01013E+02-9.47661E+00 1.83204E+01 7.99673E+00-2.66603E+00 7.29375E+01
 -1      2316-1.81671E+02-8.58322E+01-9.01224E+02-1.85584E+02-3.58449E+02-3.20665E+02
 -1      2317-3.55213E+02-2.10476E+02-1.53596E+03-1.76069E+02-6.68181E+02-2.73565E+02
 -1      2318-4.65765E+02-2.55843E+02-1.91965E+03-8.00033E+01-8.40948E+02-1.49156E+02
 -1      2319-5.47461E+02-2.60745E+02-2.00832E+03-1.46631E+01-8.89434E+02-5.52502E+01
 -1      2320-6.08225E+02-2.60889E+02-1.99242E+03 7.01531E+00-8.90182E+02-1.12317E+01
 -1      2321-6.40291E+02-2.61794E+02-1.96881E+03 8.58636E+00-8.83128E+02 5.22541E+00
 -1      2322-6.53612E+02-2.62938E+02-1.95897E+03 5.86559E+00-8.79028E+02 1.22000E+01
 -1      2323-6.58885E+02-2.63649E+02-1.95779E+03 3.93292E+00-8.77782E+02 1.66125E+01
 -1      2324-6.61553E+02-2.64031E+02-1.95921E+03 3.14201E+00-8.77790E+02 1.99704E+01
 -1      2325-6.63131E+02-2.64224E+02-1.96068E+03 2.91345E+00-8.78107E+02 2.25161E+01
 -1      2326-6.63617E+02-2.64288E+02-1.96182E+03 2.90735E+00-8.78407E+02 2.45360E+01
 -1      2327-6.62537E+02-2.64237E+02-1.96260E+03 3.22776E+00-8.78497E+02 2.66387E+01
 -1      2328-6.59606E+02-2.64102E+02-1.96161E+03 4.44409E+00-8.77768E+02 2.99121E+01
 -1      2329-6.56274E+02-2.63815E+02-1.95391E+03 7.20038E+00-8.74651E+02 3.55994E+01
 -1      2330-6.56683E+02-2.62266E+02-1.93081E+03 1.01866E+01-8.66542E+02 4.25912E+01
 -1      2331-6.57853E+02-2.55646E+02-1.89343E+03 5.09040E+00-8.53723E+02 4.14299E+01
 -1      2332-6.30411E+02-2.43560E+02-1.90028E+03-2.16655E+01-8.53400E+02 1.90735E+01
 -1      2333-5.54435E+02-2.54569E+02-2.07180E+03-3.74559E+01-9.10380E+02 1.55499E+01
 -1      2334-5.17380E+02-3.31982E+02-2.25867E+03 8.65174E+01-9.87336E+02 1.62845E+02
 -1      2335-4.18922E+02-2.36575E+02-1.57226E+03 2.74192E+02-7.00576E+02 3.67803E+02
 -1      2336-2.60699E+02-1.44963E+01-3.93853E+02 2.39597E+02-1.92768E+02 3.31516E+02
 -1      2337-2.03263E+02-4.71218E+00 9.89208E+00 7.80332E+01-2.64498E+01 1.55067E+02
 -1      2338-9.96822E+01-1.23680E+01 1.86905E+01 8.35844E+00-1.89803E+00 6.68087E+01
 -1      2339-2.85360E+02-1.28074E+02-1.28132E+03-1.99091E+02-3.58488E+02-3.99186E+02
 -1      2340-5.65329E+02-2.88966E+02-2.27096E+03-1.85897E+02-6.82427E+02-3.35270E+02
 -1      2341-7.37331E+02-3.50068E+02-2.82625E+03-8.44270E+01-8.58008E+02-1.67687E+02
 -1      2342-8.45891E+02-3.55325E+02-2.94512E+03-1.49949E+01-9.05204E+02-5.16096E+01
 -1      2343-9.15268E+02-3.56032E+02-2.92059E+03 7.87490E+00-9.04588E+02-4.22329E+00
 -1      2344-9.46545E+02-3.57243E+02-2.88690E+03 9.41385E+00-8.96934E+02 1.04361E+01
 -1      2345-9.57560E+02-3.58560E+02-2.87191E+03 6.49344E+00-8.92638E+02 1.58187E+01
 -1      2346-9.61506E+02-3.59437E+02-2.86886E+03 4.44364E+00-8.91321E+02 1.94991E+01
 -1      2347-9.63726E+02-3.59973E+02-2.86981E+03 3.61185E+00-8.91291E+02 2.25996E+01
 -1      2348-9.65248E+02-3.60277E+02-2.87128E+03 3.37324E+00-8.91587E+02 2.50438E+01
 -1      2349-9.65776E+02-3.60399E+02-2.87255E+03 3.36528E+00-8.91881E+02 2.69932E+01
 -1      2350-9.64610E+02-3.60345E+02-2.87345E+03 3.69752E+00-8.91987E+02 2.90660E+01
 -1      2351-9.61050E+02-3.60086E+02-2.87209E+03 4.97403E+00-8.91304E+02 3.25481E+01
 -1      2352-9.56040E+02-3.59468E+02-2.86202E+03 7.89044E+00-8.88252E+02 3.91351E+01
 -1      2353-9.54892E+02-3.57556E+02-2.83167E+03 1.11099E+01-8.80046E+02 4.81001E+01
 -1      2354-9.58357E+02-3.49733E+02-2.77855E+03 5.70697E+00-8.66567E+02 4.74428E+01
 -1      2355-9.33123E+02-3.32207E+02-2.77366E+03-2.32367E+01-8.65516E+02 1.24861E+01
 -1      2356-8.50532E+02-3.44308E+02-3.01128E+03-4.05686E+01-9.26160E+02-1.29965E+01
 -1      2357-8.26672E+02-4.54603E+02-3.35307E+03 9.03704E+01-1.01639E+03 1.82811E+02
 -1      2358-6.47992E+02-3.22879E+02-2.34037E+03 2.89833E+02-7.23728E+02 4.82765E+02
 -1      2359-3.39517E+02-1.39019E+01-5.26095E+02 2.54017E+02-1.86828E+02 4.22572E+02
 -1      2360-2.44738E+02-7.26906E+00 1.00970E+01 8.21283E+01-2.18079E+01 1.66715E+02
 -1      2361-1.10084E+02-1.69495E+01 1.80386E+01 8.35769E+00-3.50109E-01 6.13049E+01
 -1      2362-3.71604E+02-1.32197E+02-1.62941E+03-1.63544E+02-2.80434E+02-4.78095E+02
 -1      2363-7.39684E+02-2.96199E+02-2.95872E+03-1.51564E+02-5.42251E+02-3.98886E+02
 -1      2364-9.63034E+02-3.54550E+02-3.67773E+03-6.89242E+01-6.82584E+02-1.88225E+02
 -1      2365-1.09545E+03-3.53769E+02-3.82426E+03-1.22520E+01-7.19157E+02-4.91977E+01
 -1      2366-1.17421E+03-3.53312E+02-3.79114E+03 6.54310E+00-7.18028E+02 2.27299E+00
 -1      2367-1.20606E+03-3.55122E+02-3.74821E+03 7.83387E+00-7.11715E+02 1.54532E+01
 -1      2368-1.21541E+03-3.56940E+02-3.72860E+03 5.46717E+00-7.08232E+02 1.93384E+01
 -1      2369-1.21821E+03-3.58090E+02-3.72394E+03 3.79854E+00-7.07150E+02 2.23128E+01
 -1      2370-1.21998E+03-3.58752E+02-3.72453E+03 3.11944E+00-7.07101E+02 2.51742E+01
 -1      2371-1.22142E+03-3.59106E+02-3.72602E+03 2.92453E+00-7.07318E+02 2.75373E+01
 -1      2372-1.22195E+03-3.59242E+02-3.72743E+03 2.91867E+00-7.07544E+02 2.94382E+01
 -1      2373-1.22066E+03-3.59193E+02-3.72846E+03 3.19072E+00-7.07633E+02 3.15116E+01
 -1      2374-1.21649E+03-3.58956E+02-3.72677E+03 4.22950E+00-7.07120E+02 3.52503E+01
 -1      2375-1.21008E+03-3.58461E+02-3.71453E+03 6.59846E+00-7.04756E+02 4.27768E+01
 -1      2376-1.20816E+03-3.57036E+02-3.67744E+03 9.20698E+00-6.98273E+02 5.36668E+01
 -1      2377-1.21448E+03-3.48568E+02-3.60902E+03 4.71434E+00-6.87405E+02 5.32719E+01
 -1      2378-1.18971E+03-3.25267E+02-3.59199E+03-1.90228E+01-6.86246E+02 5.54826E+00
 -1      2379-1.09671E+03-3.34996E+02-3.89543E+03-3.32248E+01-7.36616E+02-4.11245E+01
 -1      2380-1.08444E+03-4.72723E+02-4.39479E+03 7.29582E+01-8.14764E+02 2.03420E+02
 -1      2381-8.43240E+02-3.33505E+02-3.07958E+03 2.36014E+02-5.83384E+02 5.99302E+02
 -1      2382-4.07605E+02 1.22944E+01-6.43568E+02 2.07641E+02-1.44427E+02 5.16684E+02
 -1      2383-2.86809E+02-2.39838E+00 1.47825E+01 6.71708E+01-1.44079E+01 1.80592E+02
 -1      2384-1.23136E+02-2.00108E+01 1.79736E+01 6.93356E+00 4.81945E-01 5.66035E+01
 -1      2385-4.25339E+02-1.22675E+02-1.86145E+03-9.13052E+01-1.51939E+02-5.33943E+02
 -1      2386-8.48347E+02-2.76884E+02-3.42192E+03-8.44461E+01-2.96321E+02-4.44602E+02
 -1      2387-1.10507E+03-3.26922E+02-4.25508E+03-3.84666E+01-3.73769E+02-2.03581E+02
 -1      2388-1.25391E+03-3.20253E+02-4.42134E+03-6.88407E+00-3.93719E+02-4.79049E+01
 -1      2389-1.33980E+03-3.18699E+02-4.38259E+03 3.65848E+00-3.92992E+02 6.75982E+00
 -1      2390-1.37256E+03-3.21081E+02-4.33350E+03 4.41163E+00-3.89489E+02 1.90045E+01
 -1      2391-1.38094E+03-3.23385E+02-4.31083E+03 3.10376E+00-3.87562E+02 2.18574E+01
 -1      2392-1.38297E+03-3.24764E+02-4.30510E+03 2.17641E+00-3.86957E+02 2.43362E+01
 -1      2393-1.38444E+03-3.25511E+02-4.30545E+03 1.79733E+00-3.86921E+02 2.70307E+01
 -1      2394-1.38580E+03-3.25885E+02-4.30696E+03 1.68832E+00-3.87035E+02 2.93412E+01
 -1      2395-1.38632E+03-3.26017E+02-4.30847E+03 1.68553E+00-3.87156E+02 3.12134E+01
 -1      2396-1.38492E+03-3.25971E+02-4.30958E+03 1.83828E+00-3.87205E+02 3.32975E+01
 -1      2397-1.38032E+03-3.25786E+02-4.30765E+03 2.41665E+00-3.86930E+02 3.72325E+01
 -1      2398-1.37301E+03-3.25512E+02-4.29395E+03 3.73252E+00-3.85647E+02 4.54370E+01
 -1      2399-1.37082E+03-3.24686E+02-4.25226E+03 5.16702E+00-3.82110E+02 5.76687E+01
 -1      2400-1.37947E+03-3.16059E+02-4.17346E+03 2.61951E+00-3.76152E+02 5.73055E+01
 -1      2401-1.35478E+03-2.88837E+02-4.14842E+03-1.06219E+01-3.75508E+02 3.36733E-01
 -1      2402-1.25346E+03-2.95297E+02-4.49965E+03-1.84917E+01-4.03997E+02-6.08029E+01
 -1      2403-1.24664E+03-4.48218E+02-5.10680E+03 4.03464E+01-4.48304E+02 2.18063E+02
 -1      2404-9.69295E+02-3.14482E+02-3.59208E+03 1.31236E+02-3.22679E+02 6.81909E+02
 -1      2405-4.54036E+02 3.76185E+01-7.26103E+02 1.15859E+02-7.86778E+01 5.84658E+02
 -1      2406-3.17247E+02 2.55518E+00 1.92859E+01 3.75771E+01-7.10589E+00 1.91494E+02
 -1      2407-1.33325E+02-2.18457E+01 1.81031E+01 3.94876E+00 4.59319E-01 5.34810E+01
 -1      2408-4.42886E+02-1.17207E+02-1.94063E+03 1.37576E-06-1.25027E-05-5.53715E+02
 -1      2409-8.83830E+02-2.65854E+02-3.58063E+03 5.67680E-06-9.72089E-06-4.60938E+02
 -1      2410-1.15190E+03-3.11837E+02-4.45399E+03 4.13664E-06-4.30393E-06-2.09192E+02
 -1      2411-1.30657E+03-3.02831E+02-4.62738E+03 1.98198E-06-2.41084E-06-4.75183E+01
 -1      2412-1.39510E+03-3.00864E+02-4.58677E+03 9.46800E-07-1.77531E-06 8.34322E+00
 -1      2413-1.42828E+03-3.03480E+02-4.53559E+03 4.56897E-07-1.50554E-06 2.02744E+01
 -1      2414-1.43636E+03-3.05980E+02-4.51186E+03 2.09219E-07-1.42355E-06 2.27648E+01
 -1      2415-1.43813E+03-3.07448E+02-4.50577E+03 8.12030E-08-1.44316E-06 2.50675E+01
 -1      2416-1.43948E+03-3.08225E+02-4.50604E+03 7.74164E-09-1.49845E-06 2.77026E+01
 -1      2417-1.44081E+03-3.08604E+02-4.50756E+03-3.56904E-08-1.53381E-06 2.99948E+01
 -1      2418-1.44133E+03-3.08733E+02-4.50910E+03-5.34675E-08-1.48876E-06 3.18577E+01
 -1      2419-1.43989E+03-3.08688E+02-4.51024E+03-5.51473E-08-1.28599E-06 3.39470E+01
 -1      2420-1.43513E+03-3.08526E+02-4.50822E+03-9.22702E-08-8.14587E-07 3.79545E+01
 -1      2421-1.42751E+03-3.08352E+02-4.49401E+03-1.02200E-07-3.22292E-07 4.64005E+01
 -1      2422-1.42528E+03-3.07781E+02-4.45074E+03-7.05755E-08 1.00939E-07 5.91074E+01
 -1      2423-1.43484E+03-2.99147E+02-4.36837E+03-6.10044E-08 3.24005E-07 5.87120E+01
 -1      2424-1.41019E+03-2.70592E+02-4.34072E+03-5.31498E-08 4.50581E-07-1.59712E+00
 -1      2425-1.30574E+03-2.75550E+02-4.70919E+03-4.30654E-08 4.91333E-07-6.77107E+01
 -1      2426-1.30004E+03-4.33008E+02-5.35317E+03-4.85857E-09 4.00087E-07 2.23261E+02
 -1      2427-1.01160E+03-3.03090E+02-3.77120E+03 3.30181E-08 2.60499E-07 7.11137E+02
 -1      2428-4.70445E+02 4.76656E+01-7.55819E+02 2.69435E-08 1.69778E-07 6.09027E+02
 -1      2429-3.28273E+02 4.48409E+00 2.10116E+01 1.21051E-08 7.11285E-08 1.95610E+02
 -1      2430-1.37120E+02-2.24510E+01 1.81894E+01 6.93777E-09 8.00445E-09 5.23998E+01
 -1      2431-4.25339E+02-1.22675E+02-1.86145E+03 9.13052E+01 1.51939E+02-5.33943E+02
 -1      2432-8.48347E+02-2.76884E+02-3.42192E+03 8.44461E+01 2.96320E+02-4.44602E+02
 -1      2433-1.10507E+03-3.26922E+02-4.25508E+03 3.84666E+01 3.73769E+02-2.03581E+02
 -1      2434-1.25391E+03-3.20253E+02-4.42134E+03 6.88407E+00 3.93719E+02-4.79049E+01
 -1      2435-1.33980E+03-3.18699E+02-4.38259E+03-3.65848E+00 3.92992E+02 6.75982E+00
 -1      2436-1.37256E+03-3.21081E+02-4.33350E+03-4.41163E+00 3.89489E+02 1.90045E+01
 -1      2437-1.38094E+03-3.23385E+02-4.31083E+03-3.10376E+00 3.87562E+02 2.18574E+01
 -1      2438-1.38297E+03-3.24764E+02-4.30510E+03-2.17641E+00 3.86957E+02 2.43362E+01
 -1      2439-1.38444E+03-3.25511E+02-4.30545E+03-1.79733E+00 3.86921E+02 2.70307E+01
 -1      2440-1.38580E+03-3.25885E+02-4.30696E+03-1.68832E+00 3.87035E+02 2.93412E+01
 -1      2441-1.38632E+03-3.26017E+02-4.30847E+03-1.68553E+00 3.87156E+02 3.12134E+01
 -1      2442-1.38492E+03-3.25971E+02-4.30958E+03-1.83828E+00 3.87205E+02 3.32975E+01
 -1      2443-1.38032E+03-3.25786E+02-4.30765E+03-2.41665E+00 3.86930E+02 3.72325E+01
 -1      2444-1.37301E+03-3.25512E+02-4.29395E+03-3.73252E+00 3.85647E+02 4.54370E+01
 -1      2445-1.37082E+03-3.24686E+02-4.25226E+03-5.16702E+00 3.82110E+02 5.76687E+01
 -1      2446-1.37947E+03-3.16059E+02-4.17346E+03-2.61951E+00 3.76152E+02 5.73055E+01
 -1      2447-1.35478E+03-2.88837E+02-4.14842E+03 1.06219E+01 3.75508E+02 3.36733E-01
 -1      2448-1.25346E+03-2.95297E+02-4.49965E+03 1.84917E+01 4.03997E+02-6.08029E+01
 -1      2449-1.24664E+03-4.48218E+02-5.10680E+03-4.03464E+01 4.48304E+02 2.18063E+02
 -1      2450-9.69295E+02-3.14482E+02-3.59208E+03-1.31236E+02 3.22679E+02 6.81909E+02
 -1      2451-4.54036E+02 3.76185E+01-7.26103E+02-1.15859E+02 7.86778E+01 5.84658E+02
 -1      2452-3.17247E+02 2.55518E+00 1.92859E+01-3.75771E+01 7.10589E+00 1.91494E+02
 -1      2453-1.33325E+02-2.18457E+01 1.81031E+01-3.94876E+00-4.59319E-01 5.34810E+01
 -1      2454-3.71604E+02-1.32197E+02-1.62941E+03 1.63544E+02 2.80434E+02-4.78095E+02
 -1      2455-7.39684E+02-2.96199E+02-2.95872E+03 1.51564E+02 5.42251E+02-3.98886E+02
 -1      2456-9.63034E+02-3.54550E+02-3.67773E+03 6.89242E+01 6.82584E+02-1.88225E+02
 -1      2457-1.09545E+03-3.53769E+02-3.82426E+03 1.22520E+01 7.19157E+02-4.91977E+01
 -1      2458-1.17421E+03-3.53312E+02-3.79114E+03-6.54310E+00 7.18028E+02 2.27299E+00
 -1      2459-1.20606E+03-3.55122E+02-3.74821E+03-7.83387E+00 7.11715E+02 1.54532E+01
 -1      2460-1.21541E+03-3.56940E+02-3.72860E+03-5.46717E+00 7.08232E+02 1.93384E+01
 -1      2461-1.21821E+03-3.58090E+02-3.72394E+03-3.79854E+00 7.07150E+02 2.23128E+01
 -1      2462-1.21998E+03-3.58752E+02-3.72453E+03-3.11944E+00 7.07101E+02 2.51742E+01
 -1      2463-1.22142E+03-3.59106E+02-3.72602E+03-2.92453E+00 7.07318E+02 2.75373E+01
 -1      2464-1.22195E+03-3.59242E+02-3.72743E+03-2.91867E+00 7.07544E+02 2.94382E+01
 -1      2465-1.22066E+03-3.59193E+02-3.72846E+03-3.19072E+00 7.07633E+02 3.15116E+01
 -1      2466-1.21649E+03-3.58956E+02-3.72677E+03-4.22950E+00 7.07120E+02 3.52503E+01
 -1      2467-1.21008E+03-3.58461E+02-3.71453E+03-6.59846E+00 7.04756E+02 4.27768E+01
 -1      2468-1.20816E+03-3.57036E+02-3.67744E+03-9.20698E+00 6.98273E+02 5.36668E+01
 -1      2469-1.21448E+03-3.48568E+02-3.60902E+03-4.71434E+00 6.87405E+02 5.32719E+01
 -1      2470-1.18971E+03-3.25267E+02-3.59199E+03 1.90228E+01 6.86246E+02 5.54826E+00
 -1      2471-1.09671E+03-3.34996E+02-3.89543E+03 3.32248E+01 7.36616E+02-4.11245E+01
 -1      2472-1.08444E+03-4.72723E+02-4.39479E+03-7.29582E+01 8.14764E+02 2.03420E+02
 -1      2473-8.43240E+02-3.33505E+02-3.07958E+03-2.36014E+02 5.83384E+02 5.99302E+02
 -1      2474-4.07605E+02 1.22944E+01-6.43568E+02-2.07641E+02 1.44427E+02 5.16684E+02
 -1      2475-2.86809E+02-2.39838E+00 1.47825E+01-6.71708E+01 1.44079E+01 1.80592E+02
 -1      2476-1.23136E+02-2.00108E+01 1.79736E+01-6.93356E+00-4.81945E-01 5.66035E+01
 -1      2477-2.85360E+02-1.28074E+02-1.28132E+03 1.99091E+02 3.58488E+02-3.99186E+02
 -1      2478-5.65329E+02-2.88966E+02-2.27096E+03 1.85897E+02 6.82427E+02-3.35270E+02
 -1      2479-7.37331E+02-3.50068E+02-2.82625E+03 8.44270E+01 8.58008E+02-1.67687E+02
 -1      2480-8.45891E+02-3.55325E+02-2.94512E+03 1.49949E+01 9.05204E+02-5.16096E+01
 -1      2481-9.15268E+02-3.56032E+02-2.92059E+03-7.87489E+00 9.04588E+02-4.22329E+00
 -1      2482-9.46545E+02-3.57243E+02-2.88690E+03-9.41385E+00 8.96934E+02 1.04361E+01
 -1      2483-9.57560E+02-3.58560E+02-2.87191E+03-6.49344E+00 8.92638E+02 1.58187E+01
 -1      2484-9.61506E+02-3.59437E+02-2.86886E+03-4.44364E+00 8.91321E+02 1.94991E+01
 -1      2485-9.63726E+02-3.59973E+02-2.86981E+03-3.61185E+00 8.91291E+02 2.25996E+01
 -1      2486-9.65248E+02-3.60277E+02-2.87128E+03-3.37324E+00 8.91587E+02 2.50438E+01
 -1      2487-9.65776E+02-3.60399E+02-2.87255E+03-3.36528E+00 8.91881E+02 2.69932E+01
 -1      2488-9.64610E+02-3.60345E+02-2.87345E+03-3.69752E+00 8.91987E+02 2.90660E+01
 -1      2489-9.61050E+02-3.60086E+02-2.87209E+03-4.97403E+00 8.91304E+02 3.25481E+01
 -1      2490-9.56040E+02-3.59468E+02-2.86202E+03-7.89044E+00 8.88252E+02 3.91351E+01
 -1      2491-9.54892E+02-3.57556E+02-2.83167E+03-1.11099E+01 8.80046E+02 4.81001E+01
 -1      2492-9.58357E+02-3.49733E+02-2.77855E+03-5.70697E+00 8.66567E+02 4.74428E+01
 -1      2493-9.33123E+02-3.32207E+02-2.77366E+03 2.32367E+01 8.65516E+02 1.24861E+01
 -1      2494-8.50532E+02-3.44308E+02-3.01128E+03 4.05686E+01 9.26160E+02-1.29965E+01
 -1      2495-8.26672E+02-4.54603E+02-3.35307E+03-9.03704E+01 1.01639E+03 1.82811E+02
 -1      2496-6.47992E+02-3.22879E+02-2.34037E+03-2.89833E+02 7.23728E+02 4.82765E+02
 -1      2497-3.39517E+02-1.39019E+01-5.26095E+02-2.54017E+02 1.86828E+02 4.22572E+02
 -1      2498-2.44738E+02-7.26906E+00 1.00970E+01-8.21283E+01 2.18079E+01 1.66715E+02
 -1      2499-1.10084E+02-1.69495E+01 1.80386E+01-8.35769E+00 3.50109E-01 6.13049E+01
 -1      2500-1.81671E+02-8.58322E+01-9.01224E+02 1.85584E+02 3.58449E+02-3.20665E+02
 -1      2501-3.55213E+02-2.10476E+02-1.53596E+03 1.76069E+02 6.68181E+02-2.73564E+02
 -1      2502-4.65765E+02-2.55843E+02-1.91965E+03 8.00034E+01 8.40948E+02-1.49156E+02
 -1      2503-5.47461E+02-2.60745E+02-2.00832E+03 1.46631E+01 8.89434E+02-5.52502E+01
 -1      2504-6.08225E+02-2.60889E+02-1.99242E+03-7.01531E+00 8.90182E+02-1.12317E+01
 -1      2505-6.40291E+02-2.61794E+02-1.96881E+03-8.58636E+00 8.83128E+02 5.22541E+00
 -1      2506-6.53612E+02-2.62938E+02-1.95897E+03-5.86559E+00 8.79028E+02 1.22000E+01
 -1      2507-6.58885E+02-2.63649E+02-1.95779E+03-3.93292E+00 8.77782E+02 1.66125E+01
 -1      2508-6.61553E+02-2.64031E+02-1.95921E+03-3.14201E+00 8.77790E+02 1.99704E+01
 -1      2509-6.63131E+02-2.64224E+02-1.96068E+03-2.91345E+00 8.78107E+02 2.25161E+01
 -1      2510-6.63617E+02-2.64288E+02-1.96182E+03-2.90735E+00 8.78407E+02 2.45360E+01
 -1      2511-6.62537E+02-2.64237E+02-1.96260E+03-3.22776E+00 8.78497E+02 2.66387E+01
 -1      2512-6.59606E+02-2.64102E+02-1.96161E+03-4.44409E+00 8.77768E+02 2.99121E+01
 -1      2513-6.56274E+02-2.63815E+02-1.95391E+03-7.20038E+00 8.74651E+02 3.55994E+01
 -1      2514-6.56683E+02-2.62266E+02-1.93081E+03-1.01866E+01 8.66542E+02 4.25912E+01
 -1      2515-6.57853E+02-2.55646E+02-1.89343E+03-5.09040E+00 8.53723E+02 4.14299E+01
 -1      2516-6.30411E+02-2.43560E+02-1.90028E+03 2.16655E+01 8.53400E+02 1.90735E+01
 -1      2517-5.54435E+02-2.54569E+02-2.07180E+03 3.74559E+01 9.10380E+02 1.55499E+01
 -1      2518-5.17380E+02-3.31982E+02-2.25867E+03-8.65174E+01 9.87336E+02 1.62845E+02
 -1      2519-4.18922E+02-2.36575E+02-1.57226E+03-2.74192E+02 7.00576E+02 3.67803E+02
 -1      2520-2.60699E+02-1.44963E+01-3.93853E+02-2.39597E+02 1.92768E+02 3.31516E+02
 -1      2521-2.03263E+02-4.71219E+00 9.89208E+00-7.80332E+01 2.64498E+01 1.55067E+02
 -1      2522-9.96822E+01-1.23680E+01 1.86905E+01-8.35844E+00 1.89803E+00 6.68087E+01
 -1      2523-1.10869E+02-6.04218E+01-6.05563E+02 1.16981E+02 2.49657E+02-2.72822E+02
 -1      2524-1.91149E+02-1.51479E+02-9.76759E+02 1.12948E+02 4.56269E+02-2.40340E+02
 -1      2525-2.50441E+02-1.88840E+02-1.23239E+03 5.41507E+01 5.75648E+02-1.43038E+02
 -1      2526-3.13855E+02-1.92547E+02-1.29749E+03 1.17590E+01 6.10413E+02-6.10723E+01
 -1      2527-3.73249E+02-1.91932E+02-1.28892E+03-3.37906E+00 6.11883E+02-1.72029E+01
 -1      2528-4.08788E+02-1.92676E+02-1.27392E+03-5.11473E+00 6.07401E+02 1.22258E+00
 -1      2529-4.24822E+02-1.93749E+02-1.26867E+03-3.60471E+00 6.04673E+02 9.44305E+00
 -1      2530-4.31272E+02-1.94409E+02-1.26932E+03-2.37631E+00 6.03851E+02 1.43710E+01
 -1      2531-4.34258E+02-1.94712E+02-1.27134E+03-1.83833E+00 6.03879E+02 1.79353E+01
 -1      2532-4.35860E+02-1.94838E+02-1.27295E+03-1.67689E+00 6.04114E+02 2.05962E+01
 -1      2533-4.36273E+02-1.94863E+02-1.27404E+03-1.68410E+00 6.04326E+02 2.27174E+01
 -1      2534-4.35137E+02-1.94820E+02-1.27473E+03-1.92923E+00 6.04377E+02 2.49194E+01
 -1      2535-4.32511E+02-1.94793E+02-1.27403E+03-2.76010E+00 6.03835E+02 2.81948E+01
 -1      2536-4.30482E+02-1.94750E+02-1.26809E+03-4.50090E+00 6.01613E+02 3.34499E+01
 -1      2537-4.32921E+02-1.93433E+02-1.25048E+03-6.14406E+00 5.96031E+02 3.90882E+01
 -1      2538-4.33910E+02-1.87296E+02-1.22446E+03-2.45369E+00 5.87599E+02 3.71113E+01
 -1      2539-4.01994E+02-1.78369E+02-1.23781E+03 1.36486E+01 5.87752E+02 2.25900E+01
 -1      2540-3.20962E+02-1.91970E+02-1.36032E+03 1.91935E+01 6.25462E+02 3.54634E+01
 -1      2541-2.66837E+02-2.40859E+02-1.44295E+03-6.00903E+01 6.70985E+02 1.54756E+02
 -1      2542-2.38877E+02-1.70497E+02-1.00354E+03-1.73653E+02 4.75523E+02 3.00595E+02
 -1      2543-2.10676E+02-1.87141E+01-2.86035E+02-1.53945E+02 1.38714E+02 2.81182E+02
 -1      2544-1.87241E+02-4.60047E-02 1.20431E+01-5.52104E+01 2.14065E+01 1.54091E+02
 -1      2545-1.01013E+02-9.47661E+00 1.83204E+01-7.99673E+00 2.66603E+00 7.29375E+01
 -1      2546-4.32380E+01-4.36137E+01-4.26851E+02-1.48152E+02-1.72585E+02-1.55389E+02
 -1      2547-6.01517E+01-1.36778E+02-6.66110E+02-1.35675E+02-3.47015E+02-1.48214E+02
 -1      2548-9.62549E+01-1.62033E+02-8.30987E+02-6.02090E+01-4.27594E+02-8.13300E+01
 -1      2549-1.53999E+02-1.58894E+02-8.62919E+02-1.03330E+01-4.40890E+02-3.12908E+01
 -1      2550-2.14252E+02-1.54787E+02-8.46140E+02 5.91152E+00-4.35424E+02-7.59482E+00
 -1      2551-2.54143E+02-1.54916E+02-8.32230E+02 7.20866E+00-4.30551E+02 2.42104E+00
 -1      2552-2.74149E+02-1.56032E+02-8.28114E+02 5.27658E+00-4.28619E+02 8.37035E+00
 -1      2553-2.83382E+02-1.56775E+02-8.28849E+02 3.86258E+00-4.28217E+02 1.28861E+01
 -1      2554-2.87940E+02-1.57100E+02-8.30442E+02 3.28268E+00-4.28303E+02 1.62451E+01
 -1      2555-2.90294E+02-1.57211E+02-8.31612E+02 3.12423E+00-4.28459E+02 1.85956E+01
 -1      2556-2.91016E+02-1.57225E+02-8.32412E+02 3.13904E+00-4.28603E+02 2.02688E+01
 -1      2557-2.90023E+02-1.57224E+02-8.33092E+02 3.40507E+00-4.28721E+02 2.17333E+01
 -1      2558-2.87532E+02-1.57340E+02-8.33080E+02 4.33746E+00-4.28627E+02 2.37905E+01
 -1      2559-2.85395E+02-1.57588E+02-8.29453E+02 6.38114E+00-4.27591E+02 2.77251E+01
 -1      2560-2.87043E+02-1.56672E+02-8.16717E+02 8.66930E+00-4.23635E+02 3.38471E+01
 -1      2561-2.86974E+02-1.50304E+02-7.94705E+02 5.69407E+00-4.14432E+02 3.59868E+01
 -1      2562-2.52878E+02-1.38264E+02-8.00201E+02-1.39214E+01-4.07610E+02 2.19873E+01
 -1      2563-1.65315E+02-1.49774E+02-9.05023E+02-3.06008E+01-4.41310E+02 1.19019E+01
 -1      2564-1.19548E+02-2.29065E+02-9.98503E+02 6.58277E+01-5.28027E+02 8.55884E+01
 -1      2565-1.34683E+02-1.61208E+02-6.80846E+02 2.19099E+02-3.65354E+02 1.94486E+02
 -1      2566-1.62128E+02 1.99147E+01-1.46698E+02 1.87078E+02-4.93411E+01 1.72584E+02
 -1      2567-1.74369E+02 1.03192E+01 4.86009E+01 5.67357E+01 7.26814E+00 8.02887E+01
 -1      2568-9.85652E+01-8.82336E+00 1.96580E+01 7.12313E+00 2.29711E+00 3.81338E+01
 -1      2569-1.38389E+02-5.55923E+01-8.29656E+02-2.35137E+02-3.09970E+02-2.23937E+02
 -1      2570-2.72091E+02-1.80254E+02-1.42873E+03-2.12866E+02-6.32287E+02-2.05224E+02
 -1      2571-3.72407E+02-2.05969E+02-1.76008E+03-8.87353E+01-7.78190E+02-9.56429E+01
 -1      2572-4.54892E+02-1.99615E+02-1.82451E+03-1.15973E+01-8.02520E+02-2.61969E+01
 -1      2573-5.17601E+02-1.95324E+02-1.80126E+03 1.15000E+01-7.92988E+02-3.59286E-01
 -1      2574-5.53150E+02-1.95724E+02-1.77788E+03 1.22145E+01-7.84208E+02 7.87023E+00
 -1      2575-5.69831E+02-1.97094E+02-1.76859E+03 8.76544E+00-7.80613E+02 1.23822E+01
 -1      2576-5.77716E+02-1.98001E+02-1.76742E+03 6.52542E+00-7.79806E+02 1.62210E+01
 -1      2577-5.81958E+02-1.98425E+02-1.76857E+03 5.67023E+00-7.79927E+02 1.93005E+01
 -1      2578-5.84336E+02-1.98591E+02-1.76977E+03 5.44767E+00-7.80202E+02 2.15168E+01
 -1      2579-5.85176E+02-1.98629E+02-1.77074E+03 5.45114E+00-7.80463E+02 2.30998E+01
 -1      2580-5.84261E+02-1.98628E+02-1.77152E+03 5.79727E+00-7.80672E+02 2.45161E+01
 -1      2581-5.81398E+02-1.98723E+02-1.77100E+03 7.16870E+00-7.80465E+02 2.67037E+01
 -1      2582-5.77542E+02-1.98905E+02-1.76472E+03 1.04050E+01-7.78521E+02 3.13544E+01
 -1      2583-5.76135E+02-1.98012E+02-1.74466E+03 1.44110E+01-7.71454E+02 3.92426E+01
 -1      2584-5.76414E+02-1.91514E+02-1.70858E+03 1.06600E+01-7.55131E+02 4.27014E+01
 -1      2585-5.49404E+02-1.74535E+02-1.70110E+03-2.14557E+01-7.43745E+02 1.88567E+01
 -1      2586-4.63364E+02-1.78290E+02-1.85870E+03-5.77278E+01-8.03143E+02-1.68493E+01
 -1      2587-4.44512E+02-3.05594E+02-2.11709E+03 9.33374E+01-9.64129E+02 1.02815E+02
 -1      2588-3.68660E+02-2.17496E+02-1.45727E+03 3.50288E+02-6.72547E+02 3.10800E+02
 -1      2589-2.22612E+02 4.93170E+01-2.74693E+02 2.94046E+02-8.79969E+01 2.59194E+02
 -1      2590-1.98996E+02 8.31411E+00 3.62827E+01 7.79436E+01 1.08580E+01 8.64117E+01
 -1      2591-9.63588E+01-1.16757E+01 1.49383E+01 5.84672E+00 4.54572E+00 3.34925E+01
 -1      2592-2.60704E+02-7.89858E+01-1.30311E+03-2.53098E+02-3.55324E+02-3.23074E+02
 -1      2593-5.32021E+02-2.34362E+02-2.39619E+03-2.25818E+02-7.38258E+02-2.87434E+02
 -1      2594-7.02705E+02-2.63329E+02-2.92645E+03-9.30287E+01-9.09851E+02-1.16304E+02
 -1      2595-8.15204E+02-2.49936E+02-3.01433E+03-1.10356E+01-9.38145E+02-1.98599E+01
 -1      2596-8.86517E+02-2.44603E+02-2.97680E+03 1.30764E+01-9.26990E+02 9.06715E+00
 -1      2597-9.20024E+02-2.45360E+02-2.94081E+03 1.35782E+01-9.16712E+02 1.49787E+01
 -1      2598-9.33676E+02-2.47140E+02-2.92558E+03 9.84372E+00-9.12431E+02 1.76035E+01
 -1      2599-9.40000E+02-2.48338E+02-2.92248E+03 7.45580E+00-9.11416E+02 2.06303E+01
 -1      2600-9.43742E+02-2.48908E+02-2.92323E+03 6.55308E+00-9.11517E+02 2.34350E+01
 -1      2601-9.46072E+02-2.49141E+02-2.92450E+03 6.31875E+00-9.11819E+02 2.55513E+01
 -1      2602-9.46984E+02-2.49204E+02-2.92566E+03 6.31755E+00-9.12116E+02 2.70658E+01
 -1      2603-9.46009E+02-2.49206E+02-2.92664E+03 6.67027E+00-9.12356E+02 2.84607E+01
 -1      2604-9.42523E+02-2.49330E+02-2.92583E+03 8.10492E+00-9.12102E+02 3.08823E+01
 -1      2605-9.36730E+02-2.49490E+02-2.91690E+03 1.15182E+01-9.09829E+02 3.66501E+01
 -1      2606-9.32793E+02-2.48686E+02-2.88822E+03 1.58221E+01-9.01687E+02 4.70438E+01
 -1      2607-9.35792E+02-2.41693E+02-2.83217E+03 1.20342E+01-8.82913E+02 5.26630E+01
 -1      2608-9.12693E+02-2.15858E+02-2.79748E+03-2.27392E+01-8.69975E+02 1.54140E+01
 -1      2609-8.10931E+02-2.12520E+02-3.01849E+03-6.39173E+01-9.40339E+02-6.13933E+01
 -1      2610-8.36224E+02-4.02011E+02-3.58100E+03 9.55198E+01-1.13498E+03 1.21962E+02
 -1      2611-6.57279E+02-2.83749E+02-2.47686E+03 3.73736E+02-8.01269E+02 4.80708E+02
 -1      2612-2.89784E+02 8.97175E+01-3.44950E+02 3.14105E+02-9.94697E+01 3.84620E+02
 -1      2613-2.48335E+02 1.03140E+01 4.38721E+01 8.03224E+01 1.30631E+01 9.17331E+01
 -1      2614-1.05124E+02-1.67072E+01 1.01655E+01 4.84466E+00 5.71080E+00 2.74956E+01
 -1      2615-3.71376E+02-8.51766E+01-1.74018E+03-2.06952E+02-2.89850E+02-4.21552E+02
 -1      2616-7.67462E+02-2.48636E+02-3.32146E+03-1.84080E+02-6.11033E+02-3.70950E+02
 -1      2617-1.00185E+03-2.70860E+02-4.04845E+03-7.58343E+01-7.57221E+02-1.38168E+02
 -1      2618-1.14318E+03-2.49021E+02-4.15845E+03-8.88259E+00-7.81622E+02-1.42884E+01
 -1      2619-1.22456E+03-2.42333E+02-4.10688E+03 1.09155E+01-7.72503E+02 1.80637E+01
 -1      2620-1.25760E+03-2.43804E+02-4.05905E+03 1.13698E+01-7.63960E+02 2.18647E+01
 -1      2621-1.26888E+03-2.46195E+02-4.03834E+03 8.34682E+00-7.60348E+02 2.26908E+01
 -1      2622-1.27381E+03-2.47757E+02-4.03351E+03 6.40161E+00-7.59460E+02 2.49459E+01
 -1      2623-1.27706E+03-2.48482E+02-4.03394E+03 5.66172E+00-7.59520E+02 2.75071E+01
 -1      2624-1.27932E+03-2.48767E+02-4.03530E+03 5.46868E+00-7.59761E+02 2.95492E+01
 -1      2625-1.28027E+03-2.48840E+02-4.03667E+03 5.46712E+00-7.60005E+02 3.10160E+01
 -1      2626-1.27918E+03-2.48847E+02-4.03784E+03 5.75629E+00-7.60199E+02 3.24116E+01
 -1      2627-1.27505E+03-2.49043E+02-4.03677E+03 6.92168E+00-7.59977E+02 3.51010E+01
 -1      2628-1.26752E+03-2.49338E+02-4.02533E+03 9.67956E+00-7.58068E+02 4.20027E+01
 -1      2629-1.26177E+03-2.49016E+02-3.98847E+03 1.31373E+01-7.51316E+02 5.48491E+01
 -1      2630-1.26809E+03-2.41910E+02-3.91303E+03 9.93283E+00-7.35911E+02 6.24972E+01
 -1      2631-1.24736E+03-2.08216E+02-3.85097E+03-1.86856E+01-7.25567E+02 1.15026E+01
 -1      2632-1.12736E+03-1.95725E+02-4.13878E+03-5.24154E+01-7.87761E+02-1.06675E+02
 -1      2633-1.19334E+03-4.33545E+02-5.01154E+03 7.59034E+01-9.50735E+02 1.38509E+02
 -1      2634-9.29180E+02-3.04003E+02-3.49815E+03 3.03985E+02-6.81661E+02 6.51232E+02
 -1      2635-3.52471E+02 1.36030E+02-4.01057E+02 2.57336E+02-8.53242E+01 5.13164E+02
 -1      2636-3.00905E+02 1.36708E+01 5.65402E+01 6.54770E+01 1.21254E+01 9.74150E+01
 -1      2637-1.17268E+02-2.10096E+01 5.94495E+00 3.79326E+00 5.10810E+00 2.16405E+01
 -1      2638-4.28538E+02-7.07784E+01-1.99351E+03-1.14172E+02-1.53661E+02-4.86573E+02
 -1      2639-8.89799E+02-2.18630E+02-3.86787E+03-1.01789E+02-3.26700E+02-4.27988E+02
 -1      2640-1.16238E+03-2.27231E+02-4.72300E+03-4.22024E+01-4.08009E+02-1.54118E+02
 -1      2641-1.32347E+03-1.97922E+02-4.84923E+03-5.03555E+00-4.21984E+02-1.08932E+01
 -1      2642-1.41309E+03-1.90336E+02-4.78995E+03 6.07882E+00-4.17246E+02 2.41335E+01
 -1      2643-1.44675E+03-1.92664E+02-4.73527E+03 6.39673E+00-4.12659E+02 2.65936E+01
 -1      2644-1.45675E+03-1.95696E+02-4.71126E+03 4.74305E+00-4.10691E+02 2.62317E+01
 -1      2645-1.46079E+03-1.97573E+02-4.70534E+03 3.66714E+00-4.10195E+02 2.79652E+01
 -1      2646-1.46369E+03-1.98410E+02-4.70556E+03 3.25414E+00-4.10219E+02 3.03638E+01
 -1      2647-1.46588E+03-1.98718E+02-4.70696E+03 3.14570E+00-4.10347E+02 3.23594E+01
 -1      2648-1.46683E+03-1.98783E+02-4.70845E+03 3.14502E+00-4.10479E+02 3.37992E+01
 -1      2649-1.46564E+03-1.98791E+02-4.70973E+03 3.30792E+00-4.10581E+02 3.52011E+01
 -1      2650-1.46105E+03-1.99065E+02-4.70846E+03 3.95417E+00-4.10452E+02 3.80927E+01
 -1      2651-1.45243E+03-1.99611E+02-4.69545E+03 5.47008E+00-4.09404E+02 4.57501E+01
 -1      2652-1.44598E+03-1.99999E+02-4.65369E+03 7.34684E+00-4.05743E+02 6.02635E+01
 -1      2653-1.45563E+03-1.93373E+02-4.56684E+03 5.44491E+00-3.97546E+02 6.90670E+01
 -1      2654-1.43683E+03-1.54960E+02-4.48867E+03-1.05239E+01-3.92260E+02 7.75281E+00
 -1      2655-1.30423E+03-1.34741E+02-4.82767E+03-2.86597E+01-4.28599E+02-1.36670E+02
 -1      2656-1.38318E+03-3.92301E+02-5.87906E+03 4.14405E+01-5.14518E+02 1.49130E+02
 -1      2657-1.08382E+03-2.74161E+02-4.14210E+03 1.67081E+02-3.74556E+02 7.64436E+02
 -1      2658-3.97162E+02 1.72708E+02-4.47783E+02 1.42741E+02-4.97597E+01 6.02125E+02
 -1      2659-3.38308E+02 1.74958E+01 6.77732E+01 3.67619E+01 7.38516E+00 1.03102E+02
 -1      2660-1.27057E+02-2.36079E+01 3.25483E+00 2.16373E+00 2.93167E+00 1.73906E+01
 -1      2661-4.42877E+02-6.16766E+01-2.06697E+03 7.12615E-06-2.04978E-05-5.08018E+02
 -1      2662-9.20468E+02-1.99183E+02-4.02782E+03 1.05629E-05-1.09077E-05-4.47359E+02
 -1      2663-1.20481E+03-2.01198E+02-4.92473E+03 5.68130E-06-3.52447E-06-1.59830E+02
 -1      2664-1.37286E+03-1.69020E+02-5.05706E+03 2.45120E-06-1.90559E-06-9.81673E+00
 -1      2665-1.46568E+03-1.61150E+02-4.99574E+03 1.18260E-06-1.48035E-06 2.62225E+01
 -1      2666-1.49981E+03-1.63865E+02-4.93909E+03 5.48842E-07-1.26071E-06 2.82441E+01
 -1      2667-1.50945E+03-1.67167E+02-4.91408E+03 2.25210E-07-1.19670E-06 2.74842E+01
 -1      2668-1.51319E+03-1.69169E+02-4.90782E+03 5.76101E-08-1.21410E-06 2.90391E+01
 -1      2669-1.51596E+03-1.70047E+02-4.90796E+03-3.12977E-08-1.25988E-06 3.13818E+01
 -1      2670-1.51812E+03-1.70360E+02-4.90937E+03-6.61281E-08-1.28386E-06 3.33617E+01
 -1      2671-1.51907E+03-1.70419E+02-4.91089E+03-3.77722E-08-1.24561E-06 3.47928E+01
 -1      2672-1.51783E+03-1.70426E+02-4.91220E+03 6.88500E-08-1.14066E-06 3.61979E+01
 -1      2673-1.51308E+03-1.70735E+02-4.91086E+03 1.21357E-07-7.09979E-07 3.91620E+01
 -1      2674-1.50410E+03-1.71393E+02-4.89733E+03 9.74941E-08-1.81743E-07 4.70737E+01
 -1      2675-1.49757E+03-1.72124E+02-4.85414E+03 4.72718E-08 1.13589E-07 6.21518E+01
 -1      2676-1.50864E+03-1.65751E+02-4.76387E+03-1.08480E-08 2.39914E-07 7.12960E+01
 -1      2677-1.49074E+03-1.25902E+02-4.68123E+03-2.59710E-08 3.36402E-07 6.11718E+00
 -1      2678-1.35399E+03-1.02966E+02-5.03954E+03-5.48654E-08 4.37256E-07-1.46519E+02
 -1      2679-1.43215E+03-3.63375E+02-6.13944E+03-7.22618E-08 3.58543E-07 1.52820E+02
 -1      2680-1.12721E+03-2.53573E+02-4.34267E+03-3.70216E-08 1.53951E-07 8.01835E+02
 -1      2681-4.13901E+02 1.85661E+02-4.68166E+02-1.45349E-08 1.57705E-07 6.32645E+02
 -1      2682-3.51512E+02 1.92038E+01 7.22135E+01-8.10192E-09 7.79128E-08 1.05704E+02
 -1      2683-1.30741E+02-2.44221E+01 2.45468E+00 5.63539E-09 1.46763E-08 1.58133E+01
 -1      2684-4.28538E+02-7.07784E+01-1.99351E+03 1.14172E+02 1.53661E+02-4.86573E+02
 -1      2685-8.89799E+02-2.18630E+02-3.86787E+03 1.01789E+02 3.26700E+02-4.27988E+02
 -1      2686-1.16238E+03-2.27231E+02-4.72300E+03 4.22024E+01 4.08009E+02-1.54118E+02
 -1      2687-1.32347E+03-1.97922E+02-4.84923E+03 5.03556E+00 4.21984E+02-1.08932E+01
 -1      2688-1.41309E+03-1.90336E+02-4.78995E+03-6.07882E+00 4.17246E+02 2.41335E+01
 -1      2689-1.44675E+03-1.92664E+02-4.73527E+03-6.39673E+00 4.12659E+02 2.65936E+01
 -1      2690-1.45675E+03-1.95696E+02-4.71126E+03-4.74305E+00 4.10691E+02 2.62317E+01
 -1      2691-1.46079E+03-1.97573E+02-4.70534E+03-3.66714E+00 4.10195E+02 2.79652E+01
 -1      2692-1.46369E+03-1.98410E+02-4.70556E+03-3.25414E+00 4.10219E+02 3.03638E+01
 -1      2693-1.46588E+03-1.98718E+02-4.70696E+03-3.14570E+00 4.10347E+02 3.23594E+01
 -1      2694-1.46683E+03-1.98783E+02-4.70845E+03-3.14502E+00 4.10479E+02 3.37992E+01
 -1      2695-1.46564E+03-1.98791E+02-4.70973E+03-3.30792E+00 4.10581E+02 3.52011E+01
 -1      2696-1.46105E+03-1.99065E+02-4.70846E+03-3.95417E+00 4.10452E+02 3.80927E+01
 -1      2697-1.45243E+03-1.99611E+02-4.69545E+03-5.47008E+00 4.09404E+02 4.57501E+01
 -1      2698-1.44598E+03-1.99999E+02-4.65369E+03-7.34684E+00 4.05743E+02 6.02635E+01
 -1      2699-1.45563E+03-1.93373E+02-4.56684E+03-5.44491E+00 3.97546E+02 6.90670E+01
 -1      2700-1.43683E+03-1.54960E+02-4.48867E+03 1.05239E+01 3.92260E+02 7.75281E+00
 -1      2701-1.30423E+03-1.34741E+02-4.82767E+03 2.86597E+01 4.28599E+02-1.36670E+02
 -1      2702-1.38318E+03-3.92301E+02-5.87906E+03-4.14405E+01 5.14518E+02 1.49130E+02
 -1      2703-1.08382E+03-2.74161E+02-4.14210E+03-1.67081E+02 3.74556E+02 7.64436E+02
 -1      2704-3.97162E+02 1.72708E+02-4.47783E+02-1.42741E+02 4.97597E+01 6.02125E+02
 -1      2705-3.38308E+02 1.74958E+01 6.77732E+01-3.67619E+01-7.38516E+00 1.03102E+02
 -1      2706-1.27057E+02-2.36079E+01 3.25483E+00-2.16373E+00-2.93167E+00 1.73906E+01
 -1      2707-3.71376E+02-8.51766E+01-1.74018E+03 2.06952E+02 2.89850E+02-4.21552E+02
 -1      2708-7.67462E+02-2.48636E+02-3.32146E+03 1.84081E+02 6.11033E+02-3.70950E+02
 -1      2709-1.00185E+03-2.70860E+02-4.04845E+03 7.58343E+01 7.57221E+02-1.38168E+02
 -1      2710-1.14318E+03-2.49021E+02-4.15845E+03 8.88259E+00 7.81622E+02-1.42884E+01
 -1      2711-1.22456E+03-2.42333E+02-4.10688E+03-1.09155E+01 7.72503E+02 1.80637E+01
 -1      2712-1.25760E+03-2.43804E+02-4.05905E+03-1.13698E+01 7.63960E+02 2.18647E+01
 -1      2713-1.26888E+03-2.46195E+02-4.03834E+03-8.34682E+00 7.60348E+02 2.26908E+01
 -1      2714-1.27381E+03-2.47757E+02-4.03351E+03-6.40161E+00 7.59460E+02 2.49459E+01
 -1      2715-1.27706E+03-2.48482E+02-4.03394E+03-5.66172E+00 7.59520E+02 2.75071E+01
 -1      2716-1.27932E+03-2.48767E+02-4.03530E+03-5.46868E+00 7.59761E+02 2.95492E+01
 -1      2717-1.28027E+03-2.48840E+02-4.03667E+03-5.46712E+00 7.60005E+02 3.10160E+01
 -1      2718-1.27918E+03-2.48847E+02-4.03784E+03-5.75629E+00 7.60199E+02 3.24116E+01
 -1      2719-1.27505E+03-2.49043E+02-4.03677E+03-6.92168E+00 7.59977E+02 3.51010E+01
 -1      2720-1.26752E+03-2.49338E+02-4.02533E+03-9.67956E+00 7.58068E+02 4.20027E+01
 -1      2721-1.26177E+03-2.49016E+02-3.98847E+03-1.31373E+01 7.51316E+02 5.48491E+01
 -1      2722-1.26809E+03-2.41910E+02-3.91303E+03-9.93283E+00 7.35911E+02 6.24972E+01
 -1      2723-1.24736E+03-2.08216E+02-3.85097E+03 1.86856E+01 7.25567E+02 1.15026E+01
 -1      2724-1.12736E+03-1.95725E+02-4.13878E+03 5.24154E+01 7.87761E+02-1.06675E+02
 -1      2725-1.19334E+03-4.33545E+02-5.01154E+03-7.59034E+01 9.50735E+02 1.38509E+02
 -1      2726-9.29180E+02-3.04003E+02-3.49815E+03-3.03985E+02 6.81661E+02 6.51232E+02
 -1      2727-3.52471E+02 1.36030E+02-4.01057E+02-2.57336E+02 8.53242E+01 5.13164E+02
 -1      2728-3.00905E+02 1.36708E+01 5.65402E+01-6.54770E+01-1.21254E+01 9.74150E+01
 -1      2729-1.17268E+02-2.10096E+01 5.94495E+00-3.79326E+00-5.10810E+00 2.16405E+01
 -1      2730-2.60704E+02-7.89858E+01-1.30311E+03 2.53098E+02 3.55324E+02-3.23074E+02
 -1      2731-5.32021E+02-2.34362E+02-2.39619E+03 2.25818E+02 7.38258E+02-2.87434E+02
 -1      2732-7.02705E+02-2.63329E+02-2.92645E+03 9.30287E+01 9.09851E+02-1.16304E+02
 -1      2733-8.15204E+02-2.49936E+02-3.01433E+03 1.10356E+01 9.38145E+02-1.98599E+01
 -1      2734-8.86517E+02-2.44603E+02-2.97680E+03-1.30764E+01 9.26990E+02 9.06715E+00
 -1      2735-9.20024E+02-2.45360E+02-2.94081E+03-1.35782E+01 9.16712E+02 1.49787E+01
 -1      2736-9.33676E+02-2.47140E+02-2.92558E+03-9.84372E+00 9.12431E+02 1.76035E+01
 -1      2737-9.40000E+02-2.48338E+02-2.92248E+03-7.45580E+00 9.11416E+02 2.06303E+01
 -1      2738-9.43742E+02-2.48908E+02-2.92323E+03-6.55308E+00 9.11517E+02 2.34350E+01
 -1      2739-9.46072E+02-2.49141E+02-2.92450E+03-6.31875E+00 9.11819E+02 2.55513E+01
 -1      2740-9.46984E+02-2.49204E+02-2.92566E+03-6.31755E+00 9.12116E+02 2.70658E+01
 -1      2741-9.46009E+02-2.49206E+02-2.92664E+03-6.67027E+00 9.12356E+02 2.84607E+01
 -1      2742-9.42523E+02-2.49330E+02-2.92583E+03-8.10492E+00 9.12102E+02 3.08823E+01
 -1      2743-9.36730E+02-2.49490E+02-2.91690E+03-1.15182E+01 9.09829E+02 3.66501E+01
 -1      2744-9.32793E+02-2.48686E+02-2.88822E+03-1.58221E+01 9.01687E+02 4.70438E+01
 -1      2745-9.35792E+02-2.41693E+02-2.83217E+03-1.20342E+01 8.82913E+02 5.26630E+01
 -1      2746-9.12693E+02-2.15858E+02-2.79748E+03 2.27392E+01 8.69975E+02 1.54140E+01
 -1      2747-8.10931E+02-2.12520E+02-3.01849E+03 6.39173E+01 9.40339E+02-6.13933E+01
 -1      2748-8.36224E+02-4.02011E+02-3.58100E+03-9.55198E+01 1.13498E+03 1.21962E+02
 -1      2749-6.57279E+02-2.83749E+02-2.47686E+03-3.73736E+02 8.01269E+02 4.80708E+02
 -1      2750-2.89784E+02 8.97175E+01-3.44950E+02-3.14105E+02 9.94697E+01 3.84620E+02
 -1      2751-2.48335E+02 1.03140E+01 4.38721E+01-8.03224E+01-1.30631E+01 9.17331E+01
 -1      2752-1.05124E+02-1.67072E+01 1.01655E+01-4.84466E+00-5.71080E+00 2.74956E+01
 -1      2753-1.38389E+02-5.55923E+01-8.29657E+02 2.35137E+02 3.09970E+02-2.23937E+02
 -1      2754-2.72091E+02-1.80254E+02-1.42873E+03 2.12866E+02 6.32287E+02-2.05223E+02
 -1      2755-3.72407E+02-2.05969E+02-1.76008E+03 8.87353E+01 7.78190E+02-9.56429E+01
 -1      2756-4.54892E+02-1.99615E+02-1.82451E+03 1.15973E+01 8.02520E+02-2.61969E+01
 -1      2757-5.17601E+02-1.95324E+02-1.80126E+03-1.15000E+01 7.92988E+02-3.59285E-01
 -1      2758-5.53150E+02-1.95724E+02-1.77788E+03-1.22145E+01 7.84208E+02 7.87023E+00
 -1      2759-5.69831E+02-1.97094E+02-1.76859E+03-8.76544E+00 7.80613E+02 1.23822E+01
 -1      2760-5.77716E+02-1.98001E+02-1.76742E+03-6.52542E+00 7.79806E+02 1.62210E+01
 -1      2761-5.81958E+02-1.98425E+02-1.76857E+03-5.67023E+00 7.79927E+02 1.93005E+01
 -1      2762-5.84336E+02-1.98591E+02-1.76977E+03-5.44767E+00 7.80202E+02 2.15168E+01
 -1      2763-5.85176E+02-1.98629E+02-1.77074E+03-5.45114E+00 7.80463E+02 2.30998E+01
 -1      2764-5.84261E+02-1.98628E+02-1.77152E+03-5.79727E+00 7.80672E+02 2.45161E+01
 -1      2765-5.81398E+02-1.98723E+02-1.77100E+03-7.16870E+00 7.80465E+02 2.67037E+01
 -1      2766-5.77542E+02-1.98905E+02-1.76472E+03-1.04050E+01 7.78521E+02 3.13544E+01
 -1      2767-5.76135E+02-1.98012E+02-1.74466E+03-1.44110E+01 7.71454E+02 3.92426E+01
 -1      2768-5.76414E+02-1.91514E+02-1.70858E+03-1.06600E+01 7.55131E+02 4.27014E+01
 -1      2769-5.49404E+02-1.74535E+02-1.70110E+03 2.14557E+01 7.43745E+02 1.88567E+01
 -1      2770-4.63364E+02-1.78290E+02-1.85870E+03 5.77278E+01 8.03143E+02-1.68493E+01
 -1      2771-4.44512E+02-3.05594E+02-2.11709E+03-9.33374E+01 9.64129E+02 1.02815E+02
 -1      2772-3.68660E+02-2.17496E+02-1.45727E+03-3.50288E+02 6.72547E+02 3.10800E+02
 -1      2773-2.22612E+02 4.93170E+01-2.74693E+02-2.94046E+02 8.79969E+01 2.59194E+02
 -1      2774-1.98996E+02 8.31411E+00 3.62827E+01-7.79436E+01-1.08580E+01 8.64117E+01
 -1      2775-9.63588E+01-1.16757E+01 1.49383E+01-5.84672E+00-4.54572E+00 3.34925E+01
 -1      2776-4.32380E+01-4.36137E+01-4.26851E+02 1.48152E+02 1.72585E+02-1.55389E+02
 -1      2777-6.01517E+01-1.36778E+02-6.66110E+02 1.35675E+02 3.47015E+02-1.48214E+02
 -1      2778-9.62549E+01-1.62033E+02-8.30987E+02 6.02090E+01 4.27594E+02-8.13300E+01
 -1      2779-1.53999E+02-1.58894E+02-8.62919E+02 1.03330E+01 4.40890E+02-3.12908E+01
 -1      2780-2.14252E+02-1.54787E+02-8.46140E+02-5.91152E+00 4.35424E+02-7.59482E+00
 -1      2781-2.54143E+02-1.54916E+02-8.32230E+02-7.20866E+00 4.30551E+02 2.42104E+00
 -1      2782-2.74149E+02-1.56032E+02-8.28114E+02-5.27658E+00 4.28619E+02 8.37035E+00
 -1      2783-2.83382E+02-1.56775E+02-8.28849E+02-3.86258E+00 4.28217E+02 1.28861E+01
 -1      2784-2.87940E+02-1.57100E+02-8.30442E+02-3.28268E+00 4.28303E+02 1.62451E+01
 -1      2785-2.90294E+02-1.57211E+02-8.31612E+02-3.12423E+00 4.28459E+02 1.85956E+01
 -1      2786-2.91016E+02-1.57225E+02-8.32412E+02-3.13904E+00 4.28603E+02 2.02688E+01
 -1      2787-2.90023E+02-1.57224E+02-8.33092E+02-3.40507E+00 4.28721E+02 2.17333E+01
 -1      2788-2.87532E+02-1.57340E+02-8.33080E+02-4.33746E+00 4.28627E+02 2.37905E+01
 -1      2789-2.85395E+02-1.57588E+02-8.29453E+02-6.38114E+00 4.27591E+02 2.77251E+01
 -1      2790-2.87043E+02-1.56672E+02-8.16717E+02-8.66930E+00 4.23635E+02 3.38471E+01
 -1      2791-2.86974E+02-1.50304E+02-7.94705E+02-5.69407E+00 4.14432E+02 3.59868E+01
 -1      2792-2.52878E+02-1.38264E+02-8.00201E+02 1.39214E+01 4.07610E+02 2.19873E+01
 -1      2793-1.65315E+02-1.49774E+02-9.05023E+02 3.06008E+01 4.41310E+02 1.19019E+01
 -1      2794-1.19548E+02-2.29065E+02-9.98503E+02-6.58277E+01 5.28027E+02 8.55884E+01
 -1      2795-1.34683E+02-1.61208E+02-6.80846E+02-2.19099E+02 3.65354E+02 1.94486E+02
 -1      2796-1.62128E+02 1.99147E+01-1.46698E+02-1.87078E+02 4.93411E+01 1.72584E+02
 -1      2797-1.74369E+02 1.03192E+01 4.86009E+01-5.67357E+01-7.26814E+00 8.02887E+01
 -1      2798-9.85652E+01-8.82336E+00 1.96580E+01-7.12313E+00-2.29711E+00 3.81338E+01
 -1      2799-2.34013E-01-7.86418E+01-2.38443E+02-1.40016E+02-9.86221E+01-4.85932E+01
 -1      2800-9.27921E-01-2.30766E+02-3.58311E+02-1.20501E+02-2.19030E+02-5.85607E+01
 -1      2801-2.39419E+01-2.63436E+02-4.42062E+02-4.52172E+01-2.61208E+02-2.93305E+01
 -1      2802-6.97079E+01-2.58582E+02-4.52469E+02-2.53984E+00-2.58171E+02-8.64560E+00
 -1      2803-1.18046E+02-2.51051E+02-4.37909E+02 9.23715E+00-2.49511E+02-1.19131E+00
 -1      2804-1.53262E+02-2.48711E+02-4.28098E+02 9.22892E+00-2.45485E+02 2.58840E+00
 -1      2805-1.74274E+02-2.48818E+02-4.25504E+02 7.21489E+00-2.44500E+02 6.48404E+00
 -1      2806-1.85915E+02-2.49318E+02-4.26132E+02 5.98679E+00-2.44502E+02 1.01356E+01
 -1      2807-1.92232E+02-2.49671E+02-4.27230E+02 5.54742E+00-2.44652E+02 1.28721E+01
 -1      2808-1.95483E+02-2.49843E+02-4.27988E+02 5.45340E+00-2.44760E+02 1.46777E+01
 -1      2809-1.96690E+02-2.49926E+02-4.28506E+02 5.47052E+00-2.44849E+02 1.58296E+01
 -1      2810-1.96249E+02-2.50021E+02-4.29020E+02 5.66534E+00-2.44989E+02 1.66295E+01
 -1      2811-1.94418E+02-2.50147E+02-4.29225E+02 6.41333E+00-2.45183E+02 1.76134E+01
 -1      2812-1.91670E+02-2.50014E+02-4.27243E+02 8.21087E+00-2.45035E+02 1.99969E+01
 -1      2813-1.88732E+02-2.48113E+02-4.19691E+02 1.05695E+01-2.42900E+02 2.50506E+01
 -1      2814-1.82983E+02-2.40450E+02-4.06248E+02 9.56151E+00-2.34957E+02 2.91063E+01
 -1      2815-1.57164E+02-2.27965E+02-4.07389E+02-7.36922E+00-2.23487E+02 1.97213E+01
 -1      2816-9.64224E+01-2.36703E+02-4.80019E+02-3.72354E+01-2.48166E+02 1.72934E+00
 -1      2817-8.26698E+01-3.70369E+02-5.40796E+02 4.92794E+01-3.49967E+02 2.87151E+01
 -1      2818-9.67267E+01-2.59997E+02-3.62207E+02 2.11428E+02-2.33277E+02 8.18234E+01
 -1      2819-9.77934E+01 4.49924E+01-6.05126E+01 1.68855E+02 1.79813E+01 6.62669E+01
 -1      2820-1.18067E+02 1.21147E+01 5.07765E+01 3.54266E+01 2.44192E+01 2.22809E+01
 -1      2821-6.55732E+01-4.36718E+00 1.51109E+01 2.32403E+00 3.75004E+00 1.22551E+01
 -1      2822-8.86917E+01-8.73291E+01-6.14407E+02-2.36186E+02-2.63133E+02-1.22118E+02
 -1      2823-1.95207E+02-2.73025E+02-1.07672E+03-2.00103E+02-5.87575E+02-1.23332E+02
 -1      2824-2.79928E+02-3.06160E+02-1.30917E+03-6.80925E+01-7.00570E+02-4.61939E+01
 -1      2825-3.51185E+02-2.96606E+02-1.34450E+03 4.63976E-01-7.01735E+02-3.66480E+00
 -1      2826-4.01285E+02-2.88188E+02-1.32431E+03 1.73361E+01-6.84398E+02 7.18964E+00
 -1      2827-4.31224E+02-2.85645E+02-1.30592E+03 1.61418E+01-6.74977E+02 9.62459E+00
 -1      2828-4.48745E+02-2.85973E+02-1.29884E+03 1.24711E+01-6.72038E+02 1.21416E+01
 -1      2829-4.59055E+02-2.86654E+02-1.29788E+03 1.04539E+01-6.71668E+02 1.50908E+01
 -1      2830-4.65094E+02-2.87102E+02-1.29867E+03 9.78153E+00-6.71893E+02 1.75258E+01
 -1      2831-4.68388E+02-2.87309E+02-1.29951E+03 9.64953E+00-6.72134E+02 1.91978E+01
 -1      2832-4.69729E+02-2.87404E+02-1.30021E+03 9.65789E+00-6.72357E+02 2.02781E+01
 -1      2833-4.69409E+02-2.87516E+02-1.30082E+03 9.91614E+00-6.72643E+02 2.10747E+01
 -1      2834-4.67281E+02-2.87683E+02-1.30057E+03 1.10423E+01-6.72873E+02 2.22642E+01
 -1      2835-4.62939E+02-2.87601E+02-1.29625E+03 1.40219E+01-6.71902E+02 2.54685E+01
 -1      2836-4.56298E+02-2.85349E+02-1.28172E+03 1.81932E+01-6.66406E+02 3.23235E+01
 -1      2837-4.50640E+02-2.77640E+02-1.25656E+03 1.76326E+01-6.48408E+02 3.75844E+01
 -1      2838-4.35639E+02-2.60339E+02-1.23983E+03-9.19023E+00-6.26026E+02 1.89244E+01
 -1      2839-3.75139E+02-2.62099E+02-1.35356E+03-7.37088E+01-6.74505E+02-2.71023E+01
 -1      2840-3.85861E+02-4.51011E+02-1.60158E+03 6.73781E+01-9.23994E+02 5.22024E+01
 -1      2841-3.16561E+02-3.24554E+02-1.08873E+03 3.64777E+02-6.31000E+02 2.17867E+02
 -1      2842-1.54141E+02 8.26801E+01-1.51159E+02 2.82349E+02 2.31203E+01 1.65767E+02
 -1      2843-1.41420E+02 1.24348E+01 4.08901E+01 4.31329E+01 3.68788E+01 3.14320E+01
 -1      2844-5.90201E+01-5.94721E+00 6.93608E+00-5.92571E-02 6.90764E+00 1.01078E+01
 -1      2845-2.69509E+02-1.33433E+02-1.25728E+03-2.65151E+02-3.61339E+02-2.41452E+02
 -1      2846-6.01746E+02-3.93624E+02-2.49263E+03-2.22139E+02-8.20630E+02-2.21655E+02
 -1      2847-7.72451E+02-4.30808E+02-2.95769E+03-7.32188E+01-9.83009E+02-6.39742E+01
 -1      2848-8.77234E+02-4.12837E+02-3.00842E+03 2.01393E+00-9.90714E+02 6.33572E+00
 -1      2849-9.31315E+02-4.01388E+02-2.96510E+03 1.99444E+01-9.69814E+02 2.03252E+01
 -1      2850-9.55451E+02-3.97733E+02-2.92866E+03 1.84553E+01-9.57451E+02 1.99101E+01
 -1      2851-9.68857E+02-3.98185E+02-2.91418E+03 1.43803E+01-9.53192E+02 2.03698E+01
 -1      2852-9.77380E+02-3.99114E+02-2.91107E+03 1.21640E+01-9.52458E+02 2.24644E+01
 -1      2853-9.82976E+02-3.99709E+02-2.91160E+03 1.14250E+01-9.52667E+02 2.46283E+01
 -1      2854-9.86296E+02-3.99974E+02-2.91266E+03 1.12785E+01-9.52975E+02 2.62127E+01
 -1      2855-9.87783E+02-4.00092E+02-2.91369E+03 1.12825E+01-9.53277E+02 2.72348E+01
 -1      2856-9.87530E+02-4.00248E+02-2.91467E+03 1.15578E+01-9.53624E+02 2.80167E+01
 -1      2857-9.84835E+02-4.00513E+02-2.91416E+03 1.27667E+01-9.53782E+02 2.94873E+01
 -1      2858-9.78465E+02-4.00504E+02-2.90681E+03 1.60148E+01-9.52114E+02 3.38706E+01
 -1      2859-9.66817E+02-3.97237E+02-2.88005E+03 2.05393E+01-9.44539E+02 4.39852E+01
 -1      2860-9.59423E+02-3.88046E+02-2.82742E+03 2.03565E+01-9.21264E+02 5.13724E+01
 -1      2861-9.53808E+02-3.62027E+02-2.76707E+03-8.72550E+00-8.94493E+02 2.41474E+01
 -1      2862-8.63956E+02-3.44014E+02-2.89958E+03-8.61564E+01-9.56755E+02-8.53387E+01
 -1      2863-1.00469E+03-6.52998E+02-3.76386E+03 6.65267E+01-1.29564E+03 6.56753E+01
 -1      2864-7.59811E+02-4.62511E+02-2.57243E+03 4.10962E+02-9.09494E+02 4.46234E+02
 -1      2865-1.87201E+02 1.56910E+02-7.53583E+01 3.17388E+02 1.92420E+01 3.17922E+02
 -1      2866-1.98603E+02 9.45282E+00 3.24428E+01 4.18009E+01 3.71461E+01 2.40976E+01
 -1      2867-5.81106E+01-8.91440E+00-1.12068E+00-9.13327E-01 8.29083E+00 7.52669E+00
 -1      2868-4.33268E+02-1.66245E+02-1.84016E+03-2.13836E+02-2.81196E+02-3.61068E+02
 -1      2869-9.81447E+02-4.79880E+02-3.85256E+03-1.80662E+02-6.51079E+02-3.23090E+02
 -1      2870-1.23495E+03-5.15014E+02-4.55768E+03-6.02187E+01-7.93008E+02-8.31715E+01
 -1      2871-1.37224E+03-4.87847E+02-4.62183E+03 1.49119E+00-8.02947E+02 1.59802E+01
 -1      2872-1.43257E+03-4.74020E+02-4.55685E+03 1.64660E+01-7.87341E+02 3.30961E+01
 -1      2873-1.45262E+03-4.69675E+02-4.50335E+03 1.54517E+01-7.77613E+02 3.00166E+01
 -1      2874-1.46259E+03-4.70404E+02-4.48190E+03 1.22148E+01-7.74119E+02 2.84619E+01
 -1      2875-1.46947E+03-4.71624E+02-4.47676E+03 1.04091E+01-7.73455E+02 2.97420E+01
 -1      2876-1.47461E+03-4.72366E+02-4.47705E+03 9.79537E+00-7.73597E+02 3.16636E+01
 -1      2877-1.47793E+03-4.72679E+02-4.47832E+03 9.66902E+00-7.73843E+02 3.31840E+01
 -1      2878-1.47952E+03-4.72811E+02-4.47966E+03 9.67334E+00-7.74088E+02 3.41641E+01
 -1      2879-1.47928E+03-4.73008E+02-4.48099E+03 9.90254E+00-7.74356E+02 3.49476E+01
 -1      2880-1.47598E+03-4.73382E+02-4.48025E+03 1.08997E+01-7.74408E+02 3.67185E+01
 -1      2881-1.46777E+03-4.73519E+02-4.47004E+03 1.34753E+01-7.72967E+02 4.23104E+01
 -1      2882-1.45185E+03-4.69534E+02-4.43156E+03 1.70166E+01-7.66696E+02 5.55750E+01
 -1      2883-1.44392E+03-4.59604E+02-4.35340E+03 1.66118E+01-7.48786E+02 6.51661E+01
 -1      2884-1.44629E+03-4.26361E+02-4.24923E+03-7.85828E+00-7.27829E+02 2.82695E+01
 -1      2885-1.32694E+03-3.86668E+02-4.41028E+03-6.88802E+01-7.90248E+02-1.45939E+02
 -1      2886-1.59227E+03-7.97474E+02-5.89926E+03 5.09119E+01-1.04838E+03 7.17745E+01
 -1      2887-1.20664E+03-5.67591E+02-4.11862E+03 3.30665E+02-7.64324E+02 6.78504E+02
 -1      2888-2.12480E+02 2.34454E+02 3.04878E+01 2.60772E+02-2.00480E+00 4.78209E+02
 -1      2889-2.61222E+02 4.86168E+00 2.85645E+01 3.50253E+01 3.20817E+01 1.47425E+01
 -1      2890-6.04983E+01-1.15778E+01-8.57611E+00-8.83422E-01 6.59137E+00 4.90137E+00
 -1      2891-4.76774E+02-1.54624E+02-2.03907E+03-1.11791E+02-1.26652E+02-4.24877E+02
 -1      2892-1.08970E+03-4.56435E+02-4.35472E+03-9.61927E+01-2.99712E+02-3.82548E+02
 -1      2893-1.38188E+03-4.78289E+02-5.18171E+03-3.32557E+01-3.74226E+02-9.69416E+01
 -1      2894-1.54109E+03-4.44440E+02-5.25822E+03 4.16949E-01-3.81008E+02 2.13042E+01
 -1      2895-1.60911E+03-4.29966E+02-5.18718E+03 8.91782E+00-3.73909E+02 4.07627E+01
 -1      2896-1.62884E+03-4.26113E+02-5.12776E+03 8.54838E+00-3.69345E+02 3.62502E+01
 -1      2897-1.63731E+03-4.27388E+02-5.10344E+03 6.86374E+00-3.67665E+02 3.35506E+01
 -1      2898-1.64328E+03-4.28912E+02-5.09734E+03 5.88766E+00-3.67335E+02 3.43431E+01
 -1      2899-1.64808E+03-4.29763E+02-5.09744E+03 5.54831E+00-3.67402E+02 3.61202E+01
 -1      2900-1.65135E+03-4.30092E+02-5.09875E+03 5.47610E+00-3.67524E+02 3.76023E+01
 -1      2901-1.65298E+03-4.30212E+02-5.10020E+03 5.48003E+00-3.67643E+02 3.85595E+01
 -1      2902-1.65265E+03-4.30417E+02-5.10161E+03 5.60879E+00-3.67768E+02 3.93519E+01
 -1      2903-1.64895E+03-4.30888E+02-5.10068E+03 6.16151E+00-3.67770E+02 4.13036E+01
 -1      2904-1.63973E+03-4.31243E+02-5.08906E+03 7.50896E+00-3.67047E+02 4.76565E+01
 -1      2905-1.62242E+03-4.27483E+02-5.04601E+03 9.31532E+00-3.63972E+02 6.24956E+01
 -1      2906-1.61795E+03-4.18433E+02-4.95995E+03 8.81155E+00-3.55643E+02 7.38287E+01
 -1      2907-1.62624E+03-3.81279E+02-4.83481E+03-5.30781E+00-3.45684E+02 2.67090E+01
 -1      2908-1.49873E+03-3.34227E+02-5.04782E+03-3.45260E+01-3.85582E+02-1.78567E+02
 -1      2909-1.77021E+03-7.61134E+02-6.73661E+03 2.72538E+01-4.97201E+02 7.60804E+01
 -1      2910-1.37392E+03-5.47376E+02-4.80745E+03 1.71364E+02-3.77669E+02 8.04121E+02
 -1      2911-2.51605E+02 2.71325E+02 3.22120E+01 1.39846E+02-1.36680E+01 5.76208E+02
 -1      2912-2.98939E+02 6.73357E+00 4.07368E+01 2.13146E+01 1.95274E+01 1.46725E+01
 -1      2913-6.49391E+01-1.36866E+01-1.51659E+01-5.91090E-01 3.36653E+00 1.23304E+00
 -1      2914-4.79172E+02-1.52153E+02-2.06325E+03 1.86756E-05-3.00170E-05-4.43254E+02
 -1      2915-1.09952E+03-4.50965E+02-4.43143E+03 1.68043E-05-1.01612E-05-4.01182E+02
 -1      2916-1.40111E+03-4.67554E+02-5.28935E+03 6.44565E-06-2.17734E-06-1.01934E+02
 -1      2917-1.56769E+03-4.31312E+02-5.37109E+03 2.62560E-06-1.41674E-06 2.25818E+01
 -1      2918-1.63887E+03-4.16273E+02-5.29972E+03 1.23488E-06-1.20611E-06 4.29325E+01
 -1      2919-1.65893E+03-4.12508E+02-5.23951E+03 5.36400E-07-1.09209E-06 3.79943E+01
 -1      2920-1.66704E+03-4.13959E+02-5.21464E+03 1.71786E-07-1.07955E-06 3.49484E+01
 -1      2921-1.67272E+03-4.15592E+02-5.20831E+03-1.81225E-08-1.12092E-06 3.55893E+01
 -1      2922-1.67742E+03-4.16486E+02-5.20834E+03-1.08029E-07-1.17961E-06 3.73200E+01
 -1      2923-1.68066E+03-4.16822E+02-5.20963E+03-1.17948E-07-1.21289E-06 3.87897E+01
 -1      2924-1.68228E+03-4.16939E+02-5.21109E+03-2.14376E-08-1.22085E-06 3.97406E+01
 -1      2925-1.68192E+03-4.17150E+02-5.21250E+03 2.88819E-07-1.29118E-06 4.05338E+01
 -1      2926-1.67809E+03-4.17667E+02-5.21151E+03 5.76216E-07-1.00390E-06 4.25524E+01
 -1      2927-1.66856E+03-4.18079E+02-5.19949E+03 5.13196E-07 2.38127E-07 4.91169E+01
 -1      2928-1.65112E+03-4.14462E+02-5.15580E+03 2.49206E-07 2.31254E-07 6.44791E+01
 -1      2929-1.64838E+03-4.05280E+02-5.06864E+03 7.27235E-08 2.12691E-07 7.62171E+01
 -1      2930-1.65880E+03-3.66851E+02-4.93920E+03 5.37795E-08 2.29489E-07 2.54040E+01
 -1      2931-1.53000E+03-3.17273E+02-5.17499E+03-3.41817E-08 4.98844E-07-1.88623E+02
 -1      2932-1.79172E+03-7.50065E+02-6.88506E+03-2.15892E-07 4.94507E-07 7.68259E+01
 -1      2933-1.40314E+03-5.36394E+02-4.95242E+03-1.95591E-07-8.66610E-09 8.41212E+02
 -1      2934-2.68694E+02 2.83030E+02 1.57376E+01-8.59553E-08 1.11948E-07 6.07138E+02
 -1      2935-3.10580E+02 8.23784E+00 4.80431E+01-4.05051E-08 7.46784E-08 1.56477E+01
 -1      2936-6.70955E+01-1.43028E+01-1.75772E+01 1.94472E-09 1.64666E-08-1.83982E-01
 -1      2937-4.76774E+02-1.54624E+02-2.03907E+03 1.11791E+02 1.26652E+02-4.24877E+02
 -1      2938-1.08970E+03-4.56435E+02-4.35472E+03 9.61927E+01 2.99712E+02-3.82548E+02
 -1      2939-1.38188E+03-4.78289E+02-5.18171E+03 3.32557E+01 3.74226E+02-9.69416E+01
 -1      2940-1.54109E+03-4.44440E+02-5.25822E+03-4.16944E-01 3.81008E+02 2.13042E+01
 -1      2941-1.60911E+03-4.29966E+02-5.18718E+03-8.91782E+00 3.73909E+02 4.07627E+01
 -1      2942-1.62884E+03-4.26113E+02-5.12776E+03-8.54838E+00 3.69345E+02 3.62502E+01
 -1      2943-1.63731E+03-4.27388E+02-5.10344E+03-6.86374E+00 3.67665E+02 3.35506E+01
 -1      2944-1.64328E+03-4.28912E+02-5.09734E+03-5.88766E+00 3.67335E+02 3.43431E+01
 -1      2945-1.64808E+03-4.29763E+02-5.09744E+03-5.54831E+00 3.67402E+02 3.61202E+01
 -1      2946-1.65135E+03-4.30092E+02-5.09875E+03-5.47610E+00 3.67524E+02 3.76023E+01
 -1      2947-1.65298E+03-4.30212E+02-5.10020E+03-5.48003E+00 3.67643E+02 3.85595E+01
 -1      2948-1.65265E+03-4.30417E+02-5.10161E+03-5.60879E+00 3.67768E+02 3.93519E+01
 -1      2949-1.64895E+03-4.30888E+02-5.10068E+03-6.16151E+00 3.67770E+02 4.13036E+01
 -1      2950-1.63973E+03-4.31243E+02-5.08906E+03-7.50896E+00 3.67047E+02 4.76565E+01
 -1      2951-1.62242E+03-4.27483E+02-5.04601E+03-9.31532E+00 3.63972E+02 6.24956E+01
 -1      2952-1.61795E+03-4.18433E+02-4.95995E+03-8.81155E+00 3.55643E+02 7.38287E+01
 -1      2953-1.62624E+03-3.81279E+02-4.83481E+03 5.30781E+00 3.45684E+02 2.67090E+01
 -1      2954-1.49873E+03-3.34227E+02-5.04782E+03 3.45260E+01 3.85582E+02-1.78567E+02
 -1      2955-1.77021E+03-7.61134E+02-6.73661E+03-2.72538E+01 4.97201E+02 7.60804E+01
 -1      2956-1.37392E+03-5.47376E+02-4.80745E+03-1.71364E+02 3.77669E+02 8.04121E+02
 -1      2957-2.51605E+02 2.71325E+02 3.22120E+01-1.39846E+02 1.36680E+01 5.76208E+02
 -1      2958-2.98939E+02 6.73357E+00 4.07368E+01-2.13146E+01-1.95274E+01 1.46725E+01
 -1      2959-6.49391E+01-1.36866E+01-1.51659E+01 5.91090E-01-3.36653E+00 1.23304E+00
 -1      2960-4.33268E+02-1.66245E+02-1.84016E+03 2.13836E+02 2.81196E+02-3.61068E+02
 -1      2961-9.81447E+02-4.79880E+02-3.85256E+03 1.80662E+02 6.51079E+02-3.23090E+02
 -1      2962-1.23495E+03-5.15014E+02-4.55768E+03 6.02187E+01 7.93008E+02-8.31715E+01
 -1      2963-1.37224E+03-4.87847E+02-4.62183E+03-1.49119E+00 8.02947E+02 1.59802E+01
 -1      2964-1.43257E+03-4.74020E+02-4.55685E+03-1.64660E+01 7.87341E+02 3.30961E+01
 -1      2965-1.45262E+03-4.69675E+02-4.50335E+03-1.54517E+01 7.77613E+02 3.00166E+01
 -1      2966-1.46259E+03-4.70404E+02-4.48190E+03-1.22148E+01 7.74119E+02 2.84619E+01
 -1      2967-1.46947E+03-4.71624E+02-4.47676E+03-1.04091E+01 7.73455E+02 2.97420E+01
 -1      2968-1.47461E+03-4.72366E+02-4.47705E+03-9.79537E+00 7.73597E+02 3.16636E+01
 -1      2969-1.47793E+03-4.72679E+02-4.47832E+03-9.66902E+00 7.73843E+02 3.31840E+01
 -1      2970-1.47952E+03-4.72811E+02-4.47966E+03-9.67334E+00 7.74088E+02 3.41641E+01
 -1      2971-1.47928E+03-4.73008E+02-4.48099E+03-9.90254E+00 7.74356E+02 3.49476E+01
 -1      2972-1.47598E+03-4.73382E+02-4.48025E+03-1.08997E+01 7.74408E+02 3.67185E+01
 -1      2973-1.46777E+03-4.73519E+02-4.47004E+03-1.34753E+01 7.72967E+02 4.23104E+01
 -1      2974-1.45185E+03-4.69534E+02-4.43156E+03-1.70166E+01 7.66696E+02 5.55750E+01
 -1      2975-1.44392E+03-4.59604E+02-4.35340E+03-1.66118E+01 7.48786E+02 6.51661E+01
 -1      2976-1.44629E+03-4.26361E+02-4.24923E+03 7.85828E+00 7.27829E+02 2.82695E+01
 -1      2977-1.32694E+03-3.86668E+02-4.41028E+03 6.88802E+01 7.90248E+02-1.45939E+02
 -1      2978-1.59227E+03-7.97474E+02-5.89926E+03-5.09119E+01 1.04838E+03 7.17745E+01
 -1      2979-1.20664E+03-5.67591E+02-4.11862E+03-3.30665E+02 7.64324E+02 6.78504E+02
 -1      2980-2.12480E+02 2.34454E+02 3.04878E+01-2.60772E+02 2.00480E+00 4.78209E+02
 -1      2981-2.61222E+02 4.86168E+00 2.85645E+01-3.50253E+01-3.20817E+01 1.47425E+01
 -1      2982-6.04983E+01-1.15778E+01-8.57611E+00 8.83422E-01-6.59137E+00 4.90137E+00
 -1      2983-2.69509E+02-1.33433E+02-1.25728E+03 2.65151E+02 3.61339E+02-2.41452E+02
 -1      2984-6.01746E+02-3.93624E+02-2.49263E+03 2.22139E+02 8.20630E+02-2.21655E+02
 -1      2985-7.72451E+02-4.30808E+02-2.95769E+03 7.32188E+01 9.83009E+02-6.39742E+01
 -1      2986-8.77234E+02-4.12837E+02-3.00842E+03-2.01393E+00 9.90714E+02 6.33573E+00
 -1      2987-9.31315E+02-4.01388E+02-2.96510E+03-1.99444E+01 9.69814E+02 2.03252E+01
 -1      2988-9.55451E+02-3.97733E+02-2.92866E+03-1.84553E+01 9.57451E+02 1.99101E+01
 -1      2989-9.68857E+02-3.98185E+02-2.91418E+03-1.43803E+01 9.53192E+02 2.03698E+01
 -1      2990-9.77380E+02-3.99114E+02-2.91107E+03-1.21640E+01 9.52458E+02 2.24644E+01
 -1      2991-9.82976E+02-3.99709E+02-2.91160E+03-1.14250E+01 9.52667E+02 2.46283E+01
 -1      2992-9.86296E+02-3.99974E+02-2.91266E+03-1.12785E+01 9.52975E+02 2.62127E+01
 -1      2993-9.87783E+02-4.00092E+02-2.91369E+03-1.12825E+01 9.53277E+02 2.72348E+01
 -1      2994-9.87530E+02-4.00248E+02-2.91467E+03-1.15578E+01 9.53624E+02 2.80167E+01
 -1      2995-9.84835E+02-4.00513E+02-2.91416E+03-1.27667E+01 9.53782E+02 2.94873E+01
 -1      2996-9.78465E+02-4.00504E+02-2.90681E+03-1.60148E+01 9.52114E+02 3.38706E+01
 -1      2997-9.66817E+02-3.97237E+02-2.88005E+03-2.05393E+01 9.44539E+02 4.39852E+01
 -1      2998-9.59423E+02-3.88046E+02-2.82742E+03-2.03565E+01 9.21264E+02 5.13724E+01
 -1      2999-9.53808E+02-3.62027E+02-2.76707E+03 8.72550E+00 8.94493E+02 2.41474E+01
 -1      3000-8.63956E+02-3.44014E+02-2.89958E+03 8.61564E+01 9.56755E+02-8.53387E+01
 -1      3001-1.00469E+03-6.52998E+02-3.76386E+03-6.65267E+01 1.29564E+03 6.56753E+01
 -1      3002-7.59811E+02-4.62511E+02-2.57243E+03-4.10962E+02 9.09494E+02 4.46234E+02
 -1      3003-1.87201E+02 1.56910E+02-7.53583E+01-3.17388E+02-1.92420E+01 3.17922E+02
 -1      3004-1.98603E+02 9.45282E+00 3.24428E+01-4.18009E+01-3.71461E+01 2.40976E+01
 -1      3005-5.81106E+01-8.91440E+00-1.12068E+00 9.13327E-01-8.29083E+00 7.52669E+00
 -1      3006-8.86918E+01-8.73291E+01-6.14407E+02 2.36186E+02 2.63133E+02-1.22118E+02
 -1      3007-1.95207E+02-2.73025E+02-1.07672E+03 2.00103E+02 5.87575E+02-1.23332E+02
 -1      3008-2.79928E+02-3.06160E+02-1.30917E+03 6.80926E+01 7.00570E+02-4.61939E+01
 -1      3009-3.51185E+02-2.96606E+02-1.34450E+03-4.63974E-01 7.01735E+02-3.66480E+00
 -1      3010-4.01285E+02-2.88188E+02-1.32431E+03-1.73361E+01 6.84398E+02 7.18965E+00
 -1      3011-4.31224E+02-2.85645E+02-1.30592E+03-1.61418E+01 6.74977E+02 9.62459E+00
 -1      3012-4.48745E+02-2.85973E+02-1.29884E+03-1.24711E+01 6.72038E+02 1.21416E+01
 -1      3013-4.59055E+02-2.86654E+02-1.29788E+03-1.04539E+01 6.71668E+02 1.50908E+01
 -1      3014-4.65094E+02-2.87102E+02-1.29867E+03-9.78153E+00 6.71893E+02 1.75258E+01
 -1      3015-4.68388E+02-2.87309E+02-1.29951E+03-9.64953E+00 6.72134E+02 1.91978E+01
 -1      3016-4.69729E+02-2.87404E+02-1.30021E+03-9.65789E+00 6.72357E+02 2.02781E+01
 -1      3017-4.69409E+02-2.87516E+02-1.30082E+03-9.91614E+00 6.72643E+02 2.10747E+01
 -1      3018-4.67281E+02-2.87683E+02-1.30057E+03-1.10423E+01 6.72873E+02 2.22642E+01
 -1      3019-4.62939E+02-2.87601E+02-1.29625E+03-1.40219E+01 6.71902E+02 2.54685E+01
 -1      3020-4.56298E+02-2.85349E+02-1.28172E+03-1.81932E+01 6.66406E+02 3.23235E+01
 -1      3021-4.50640E+02-2.77640E+02-1.25656E+03-1.76326E+01 6.48408E+02 3.75844E+01
 -1      3022-4.35639E+02-2.60339E+02-1.23983E+03 9.19023E+00 6.26026E+02 1.89244E+01
 -1      3023-3.75139E+02-2.62099E+02-1.35356E+03 7.37088E+01 6.74505E+02-2.71023E+01
 -1      3024-3.85861E+02-4.51011E+02-1.60158E+03-6.73781E+01 9.23994E+02 5.22024E+01
 -1      3025-3.16561E+02-3.24554E+02-1.08873E+03-3.64777E+02 6.31000E+02 2.17867E+02
 -1      3026-1.54141E+02 8.26801E+01-1.51159E+02-2.82349E+02-2.31203E+01 1.65767E+02
 -1      3027-1.41420E+02 1.24348E+01 4.08901E+01-4.31329E+01-3.68788E+01 3.14320E+01
 -1      3028-5.90201E+01-5.94721E+00 6.93608E+00 5.92572E-02-6.90764E+00 1.01078E+01
 -1      3029-2.34040E-01-7.86418E+01-2.38443E+02 1.40016E+02 9.86221E+01-4.85932E+01
 -1      3030-9.27947E-01-2.30766E+02-3.58311E+02 1.20501E+02 2.19030E+02-5.85607E+01
 -1      3031-2.39420E+01-2.63436E+02-4.42062E+02 4.52172E+01 2.61208E+02-2.93305E+01
 -1      3032-6.97079E+01-2.58582E+02-4.52469E+02 2.53984E+00 2.58171E+02-8.64559E+00
 -1      3033-1.18046E+02-2.51051E+02-4.37909E+02-9.23715E+00 2.49511E+02-1.19131E+00
 -1      3034-1.53262E+02-2.48711E+02-4.28098E+02-9.22892E+00 2.45485E+02 2.58840E+00
 -1      3035-1.74274E+02-2.48818E+02-4.25504E+02-7.21489E+00 2.44500E+02 6.48404E+00
 -1      3036-1.85915E+02-2.49318E+02-4.26132E+02-5.98679E+00 2.44502E+02 1.01356E+01
 -1      3037-1.92232E+02-2.49671E+02-4.27230E+02-5.54742E+00 2.44652E+02 1.28721E+01
 -1      3038-1.95483E+02-2.49843E+02-4.27988E+02-5.45340E+00 2.44760E+02 1.46777E+01
 -1      3039-1.96690E+02-2.49926E+02-4.28506E+02-5.47052E+00 2.44849E+02 1.58296E+01
 -1      3040-1.96249E+02-2.50021E+02-4.29020E+02-5.66534E+00 2.44989E+02 1.66295E+01
 -1      3041-1.94418E+02-2.50147E+02-4.29225E+02-6.41333E+00 2.45183E+02 1.76134E+01
 -1      3042-1.91670E+02-2.50014E+02-4.27243E+02-8.21087E+00 2.45035E+02 1.99969E+01
 -1      3043-1.88732E+02-2.48113E+02-4.19691E+02-1.05695E+01 2.42900E+02 2.50506E+01
 -1      3044-1.82983E+02-2.40450E+02-4.06248E+02-9.56151E+00 2.34957E+02 2.91063E+01
 -1      3045-1.57164E+02-2.27965E+02-4.07389E+02 7.36922E+00 2.23487E+02 1.97213E+01
 -1      3046-9.64224E+01-2.36703E+02-4.80019E+02 3.72354E+01 2.48166E+02 1.72934E+00
 -1      3047-8.26698E+01-3.70369E+02-5.40796E+02-4.92794E+01 3.49967E+02 2.87151E+01
 -1      3048-9.67267E+01-2.59997E+02-3.62207E+02-2.11428E+02 2.33277E+02 8.18234E+01
 -1      3049-9.77934E+01 4.49924E+01-6.05126E+01-1.68855E+02-1.79813E+01 6.62669E+01
 -1      3050-1.18067E+02 1.21147E+01 5.07765E+01-3.54266E+01-2.44192E+01 2.22809E+01
 -1      3051-6.55732E+01-4.36718E+00 1.51109E+01-2.32403E+00-3.75004E+00 1.22551E+01
 -1      3052 1.15975E+01-1.16315E+02-1.30786E+02-5.64688E+01-2.36022E+01 1.68191E+01
 -1      3053-2.20619E+01-3.17940E+02-2.20463E+02-4.00856E+01-6.03755E+01 3.32188E+00
 -1      3054-4.17462E+01-3.48782E+02-2.56560E+02-4.97047E+00-6.81102E+01-1.65005E+00
 -1      3055-6.62247E+01-3.42495E+02-2.59430E+02 9.02500E+00-5.72418E+01-1.24318E+00
 -1      3056-9.02603E+01-3.31094E+02-2.49733E+02 1.14731E+01-5.09023E+01-3.30691E-01
 -1      3057-1.14836E+02-3.26068E+02-2.43076E+02 1.04399E+01-4.90843E+01 1.39494E+00
 -1      3058-1.35409E+02-3.24976E+02-2.41084E+02 9.28602E+00-4.90494E+01 3.69667E+00
 -1      3059-1.49424E+02-3.25270E+02-2.41374E+02 8.79347E+00-4.92898E+01 5.80912E+00
 -1      3060-1.57539E+02-3.25686E+02-2.42054E+02 8.71247E+00-4.94301E+01 7.33304E+00
 -1      3061-1.61642E+02-3.25940E+02-2.42540E+02 8.75090E+00-4.94809E+01 8.30399E+00
 -1      3062-1.63339E+02-3.26112E+02-2.42885E+02 8.77869E+00-4.95119E+01 8.89691E+00
 -1      3063-1.63694E+02-3.26320E+02-2.43237E+02 8.83000E+00-4.96039E+01 9.25804E+00
 -1      3064-1.63138E+02-3.26530E+02-2.43375E+02 9.08161E+00-4.98570E+01 9.60403E+00
 -1      3065-1.60142E+02-3.25842E+02-2.41968E+02 9.76497E+00-5.02248E+01 1.04625E+01
 -1      3066-1.50498E+02-3.23022E+02-2.37492E+02 1.06777E+01-4.98681E+01 1.24080E+01
 -1      3067-1.31059E+02-3.13346E+02-2.30636E+02 1.08113E+01-4.63320E+01 1.41711E+01
 -1      3068-1.15167E+02-3.05898E+02-2.33299E+02 6.09887E+00-3.53347E+01 1.28304E+01
 -1      3069-1.07362E+02-2.99064E+02-2.63592E+02-1.66431E+01-4.77964E+01 1.32770E+01
 -1      3070-1.76341E+02-4.90244E+02-3.25802E+02 1.12094E+01-1.13556E+02 3.81132E+00
 -1      3071-1.33930E+02-3.34979E+02-2.16190E+02 8.66404E+01-6.66540E+01-1.66635E+01
 -1      3072-6.25843E-01 8.07141E+01-6.88625E+00 5.76715E+01 4.17917E+01-1.19152E+01
 -1      3073-2.38520E+01 6.58161E+00 2.64155E+01-2.16187E+00 2.54881E+01 2.48603E+00
 -1      3074-1.28731E+01 4.53945E+00 1.14939E+01-3.14500E+00 1.31129E+00 3.88506E+00
 -1      3075-3.18207E+01-1.50000E+02-3.17316E+02-1.33584E+02-1.79004E+02-2.22970E+01
 -1      3076-1.31074E+02-4.25625E+02-5.48041E+02-9.40114E+01-4.24086E+02-3.22441E+01
 -1      3077-1.99297E+02-4.70123E+02-6.66318E+02-8.42735E+00-4.90760E+02-1.42752E+01
 -1      3078-2.39091E+02-4.59764E+02-6.84028E+02 1.88801E+01-4.77536E+02 9.52381E-01
 -1      3079-2.59431E+02-4.44372E+02-6.74437E+02 2.33017E+01-4.61728E+02 5.18238E+00
 -1      3080-2.77787E+02-4.37571E+02-6.63689E+02 2.04902E+01-4.54555E+02 6.49914E+00
 -1      3081-2.95275E+02-4.36295E+02-6.59395E+02 1.80097E+01-4.52810E+02 8.05780E+00
 -1      3082-3.08325E+02-4.36727E+02-6.58785E+02 1.69877E+01-4.52762E+02 9.72843E+00
 -1      3083-3.16324E+02-4.37246E+02-6.59274E+02 1.68050E+01-4.52991E+02 1.10493E+01
 -1      3084-3.20507E+02-4.37537E+02-6.59805E+02 1.68571E+01-4.53162E+02 1.19294E+01
 -1      3085-3.22350E+02-4.37731E+02-6.60243E+02 1.68863E+01-4.53313E+02 1.24829E+01
 -1      3086-3.22919E+02-4.38006E+02-6.60638E+02 1.69496E+01-4.53561E+02 1.28597E+01
 -1      3087-3.22365E+02-4.38356E+02-6.60425E+02 1.74286E+01-4.53906E+02 1.33701E+01
 -1      3088-3.18518E+02-4.37699E+02-6.57857E+02 1.87767E+01-4.53741E+02 1.47476E+01
 -1      3089-3.05724E+02-4.33713E+02-6.49275E+02 2.13927E+01-4.50272E+02 1.77405E+01
 -1      3090-2.83923E+02-4.20574E+02-6.39411E+02 2.13568E+01-4.37657E+02 1.95793E+01
 -1      3091-2.77303E+02-4.09554E+02-6.31887E+02 1.79435E+01-4.12021E+02 1.05326E+01
 -1      3092-2.88224E+02-4.03524E+02-6.99171E+02-4.97236E+01-4.35439E+02 5.29234E+00
 -1      3093-3.73235E+02-6.73347E+02-8.05432E+02 9.61658E+00-6.85838E+02 2.86339E+01
 -1      3094-2.82779E+02-4.84181E+02-5.52862E+02 2.23874E+02-4.56496E+02 5.15158E+01
 -1      3095-3.08145E+01 1.25421E+02-9.03851E+01 1.36941E+02 8.59632E+01 4.38610E+01
 -1      3096-1.77284E+01 1.00932E+01 2.66034E+01-1.89179E+01 3.84987E+01 1.77681E+01
 -1      3097 1.74411E+00 8.70576E+00 4.78353E+00-2.88739E+00 2.14014E+00 3.30335E+00
 -1      3098-2.99588E+02-2.63572E+02-1.17314E+03-1.84247E+02-2.92890E+02-1.23015E+02
 -1      3099-7.78987E+02-7.19490E+02-2.57446E+03-1.31815E+02-7.05778E+02-1.07892E+02
 -1      3100-9.48243E+02-7.85311E+02-2.92811E+03-1.30843E+01-8.25852E+02-2.34122E+01
 -1      3101-1.02237E+03-7.74969E+02-2.96687E+03 2.20470E+01-8.16943E+02 1.76956E+01
 -1      3102-1.03036E+03-7.50306E+02-2.91691E+03 2.81883E+01-7.96595E+02 2.52066E+01
 -1      3103-1.03744E+03-7.39367E+02-2.88114E+03 2.48957E+01-7.85883E+02 2.43363E+01
 -1      3104-1.04929E+03-7.37168E+02-2.86713E+03 2.18509E+01-7.82699E+02 2.41406E+01
 -1      3105-1.06054E+03-7.37624E+02-2.86400E+03 2.05293E+01-7.82276E+02 2.50705E+01
 -1      3106-1.06828E+03-7.38280E+02-2.86437E+03 2.02382E+01-7.82506E+02 2.61611E+01
 -1      3107-1.07262E+03-7.38637E+02-2.86527E+03 2.02639E+01-7.82758E+02 2.69758E+01
 -1      3108-1.07473E+03-7.38879E+02-2.86619E+03 2.02904E+01-7.83000E+02 2.74948E+01
 -1      3109-1.07556E+03-7.39276E+02-2.86713E+03 2.03818E+01-7.83335E+02 2.78874E+01
 -1      3110-1.07488E+03-7.39803E+02-2.86691E+03 2.10177E+01-7.83620E+02 2.86788E+01
 -1      3111-1.06870E+03-7.38887E+02-2.86019E+03 2.26666E+01-7.82792E+02 3.11661E+01
 -1      3112-1.05011E+03-7.32274E+02-2.83713E+03 2.61800E+01-7.76830E+02 3.67686E+01
 -1      3113-1.00952E+03-7.09721E+02-2.77835E+03 2.57384E+01-7.58437E+02 4.05614E+01
 -1      3114-1.02147E+03-6.97420E+02-2.73937E+03 2.48743E+01-7.25540E+02 2.01597E+01
 -1      3115-9.92536E+02-6.66617E+02-2.70642E+03-7.15019E+01-7.56727E+02-2.96190E+01
 -1      3116-1.36705E+03-1.12994E+03-3.88016E+03 1.64355E+00-1.13699E+03 6.55216E+01
 -1      3117-9.74025E+02-8.05232E+02-2.62632E+03 3.18652E+02-7.93851E+02 2.42583E+02
 -1      3118 1.66342E+01 2.18254E+02 2.27426E+02 1.95951E+02 1.05726E+02 1.69963E+02
 -1      3119-6.95119E+01-3.85105E+00-5.41445E+01-3.05425E+01 3.80448E+01 2.20944E+01
 -1      3120 2.69387E+01 1.73933E+01 1.80524E+01 9.36924E-01 2.18811E+00-1.39749E-02
 -1      3121-5.49144E+02-3.80944E+02-1.94615E+03-1.31826E+02-2.00629E+02-2.25958E+02
 -1      3122-1.41054E+03-1.01698E+03-4.54422E+03-9.87209E+01-5.05858E+02-1.88975E+02
 -1      3123-1.69218E+03-1.11522E+03-5.17582E+03-1.19373E+01-6.08518E+02-3.50659E+01
 -1      3124-1.79964E+03-1.10377E+03-5.23016E+03 1.67006E+01-6.05232E+02 3.41074E+01
 -1      3125-1.80023E+03-1.07171E+03-5.14716E+03 2.22250E+01-5.91264E+02 4.51305E+01
 -1      3126-1.79766E+03-1.05641E+03-5.08747E+03 2.03346E+01-5.83650E+02 4.22174E+01
 -1      3127-1.80463E+03-1.05327E+03-5.06427E+03 1.81452E+01-5.81265E+02 4.02937E+01
 -1      3128-1.81414E+03-1.05371E+03-5.05863E+03 1.71126E+01-5.80917E+02 4.04900E+01
 -1      3129-1.82160E+03-1.05450E+03-5.05886E+03 1.68575E+01-5.81078E+02 4.13608E+01
 -1      3130-1.82607E+03-1.05494E+03-5.06014E+03 1.68632E+01-5.81272E+02 4.21213E+01
 -1      3131-1.82842E+03-1.05525E+03-5.06156E+03 1.68860E+01-5.81459E+02 4.26157E+01
 -1      3132-1.82947E+03-1.05579E+03-5.06306E+03 1.69841E+01-5.81697E+02 4.30373E+01
 -1      3133-1.82854E+03-1.05646E+03-5.06270E+03 1.74821E+01-5.81863E+02 4.41337E+01
 -1      3134-1.82022E+03-1.05521E+03-5.05202E+03 1.87602E+01-5.81121E+02 4.77563E+01
 -1      3135-1.79621E+03-1.04581E+03-5.01437E+03 2.06866E+01-5.76670E+02 5.58919E+01
 -1      3136-1.73950E+03-1.01438E+03-4.91244E+03 2.06468E+01-5.63747E+02 6.16331E+01
 -1      3137-1.76827E+03-1.00218E+03-4.84115E+03 1.59760E+01-5.39151E+02 2.84516E+01
 -1      3138-1.70472E+03-9.48889E+02-4.73020E+03-4.62681E+01-5.79419E+02-6.87103E+01
 -1      3139-2.36422E+03-1.60170E+03-6.98215E+03 1.06507E-01-8.42401E+02 9.55678E+01
 -1      3140-1.73234E+03-1.15850E+03-4.92432E+03 2.26123E+02-6.27740E+02 4.42902E+02
 -1      3141 7.86539E+01 3.13457E+02 6.11378E+02 1.52023E+02 6.13451E+01 3.08169E+02
 -1      3142-1.34624E+02-2.15706E+01-1.43577E+02-1.82767E+01 3.39745E+01 2.57733E+01
 -1      3143 5.01719E+01 2.70237E+01 3.44899E+01 3.80699E-02 1.31419E+00-3.88978E+00
 -1      3144-5.52963E+02-4.25959E+02-1.94654E+03-5.11353E+01-5.80677E+01-2.61398E+02
 -1      3145-1.46759E+03-1.13241E+03-4.69737E+03-4.11787E+01-1.64616E+02-2.25540E+02
 -1      3146-1.78133E+03-1.24163E+03-5.39547E+03-6.38448E+00-2.11081E+02-4.67919E+01
 -1      3147-1.90723E+03-1.22998E+03-5.46590E+03 7.61972E+00-2.11104E+02 3.68279E+01
 -1      3148-1.90975E+03-1.19311E+03-5.38340E+03 1.08444E+01-2.05957E+02 5.03553E+01
 -1      3149-1.90583E+03-1.17590E+03-5.32275E+03 1.03037E+01-2.03297E+02 4.67996E+01
 -1      3150-1.91136E+03-1.17236E+03-5.29833E+03 9.38307E+00-2.02464E+02 4.42086E+01
 -1      3151-1.92021E+03-1.17292E+03-5.29216E+03 8.89217E+00-2.02363E+02 4.40881E+01
 -1      3152-1.92746E+03-1.17382E+03-5.29220E+03 8.76264E+00-2.02437E+02 4.48560E+01
 -1      3153-1.93192E+03-1.17429E+03-5.29344E+03 8.76316E+00-2.02518E+02 4.55875E+01
 -1      3154-1.93432E+03-1.17462E+03-5.29487E+03 8.77858E+00-2.02593E+02 4.60701E+01
 -1      3155-1.93538E+03-1.17521E+03-5.29635E+03 8.83746E+00-2.02679E+02 4.65075E+01
 -1      3156-1.93424E+03-1.17602E+03-5.29571E+03 9.08188E+00-2.02748E+02 4.77482E+01
 -1      3157-1.92554E+03-1.17469E+03-5.28452E+03 9.65561E+00-2.02443E+02 5.18458E+01
 -1      3158-1.89980E+03-1.16373E+03-5.24398E+03 1.00518E+01-2.00902E+02 6.09680E+01
 -1      3159-1.84508E+03-1.12894E+03-5.14559E+03 1.01421E+01-1.96244E+02 6.72133E+01
 -1      3160-1.87612E+03-1.11216E+03-5.05596E+03 4.74398E+00-1.85927E+02 2.45506E+01
 -1      3161-1.83549E+03-1.06846E+03-5.02082E+03-1.38301E+01-2.16960E+02-8.51374E+01
 -1      3162-2.48067E+03-1.77059E+03-7.28888E+03 1.75958E+00-2.98988E+02 1.02624E+02
 -1      3163-1.89014E+03-1.29724E+03-5.36631E+03 8.35024E+01-2.47735E+02 5.13542E+02
 -1      3164 5.90643E+01 3.43354E+02 6.21252E+02 6.54019E+01 1.04219E+01 3.71737E+02
 -1      3165-1.50122E+02-1.90395E+01-1.38194E+02-3.04591E+00 2.19579E+01 3.38951E+01
 -1      3166 5.57280E+01 3.10603E+01 3.01467E+01-1.43727E+00 4.94273E-01-7.03055E+00
 -1      3167-5.75412E+02-5.03110E+02-1.95364E+03 4.08242E-05-3.26684E-05-2.65031E+02
 -1      3168-1.53904E+03-1.31639E+03-4.77497E+03 2.11438E-05-4.66822E-06-2.32456E+02
 -1      3169-1.86847E+03-1.44576E+03-5.49673E+03 6.17993E-06-8.73437E-07-5.01693E+01
 -1      3170-2.00017E+03-1.43389E+03-5.57319E+03 2.38937E-06-1.15641E-06 3.70507E+01
 -1      3171-2.00215E+03-1.39230E+03-5.49009E+03 1.01999E-06-1.44207E-06 5.14534E+01
 -1      3172-1.99712E+03-1.37251E+03-5.42857E+03 3.62487E-07-1.58721E-06 4.78213E+01
 -1      3173-2.00199E+03-1.36822E+03-5.40372E+03 1.61792E-09-1.74137E-06 4.51112E+01
 -1      3174-2.01056E+03-1.36866E+03-5.39732E+03-1.86224E-07-1.90725E-06 4.49261E+01
 -1      3175-2.01775E+03-1.36961E+03-5.39732E+03-2.55715E-07-2.06129E-06 4.56698E+01
 -1      3176-2.02222E+03-1.37013E+03-5.39855E+03-2.25225E-07-2.16612E-06 4.63937E+01
 -1      3177-2.02465E+03-1.37051E+03-5.40000E+03-3.72096E-08-2.35643E-06 4.68735E+01
 -1      3178-2.02572E+03-1.37116E+03-5.40146E+03 5.91330E-07-2.47052E-06 4.73145E+01
 -1      3179-2.02457E+03-1.37208E+03-5.40082E+03 1.55000E-06-3.09034E-06 4.85908E+01
 -1      3180-2.01550E+03-1.37031E+03-5.38911E+03 1.42082E-06 1.34180E-06 5.27655E+01
 -1      3181-1.98940E+03-1.35832E+03-5.34850E+03 5.31093E-07 4.29832E-07 6.20932E+01
 -1      3182-1.93276E+03-1.31734E+03-5.24755E+03 1.80659E-07 4.46614E-07 6.81739E+01
 -1      3183-1.96583E+03-1.29968E+03-5.15766E+03 2.14782E-07 2.62191E-07 2.24481E+01
 -1      3184-1.92448E+03-1.24500E+03-5.13302E+03 8.15450E-08 7.92550E-07-8.75262E+01
 -1      3185-2.60707E+03-2.05244E+03-7.45141E+03-4.96332E-07 1.29936E-06 1.03900E+02
 -1      3186-1.98658E+03-1.47964E+03-5.52178E+03-5.63034E-07-3.60876E-08 5.23522E+02
 -1      3187 6.39804E+01 3.79292E+02 6.29805E+02-2.10344E-07-2.03722E-08 3.85166E+02
 -1      3188-1.57171E+02-2.41123E+01-1.38748E+02-7.15511E-08 7.22401E-08 3.78580E+01
 -1      3189 5.80703E+01 3.46373E+01 3.00518E+01 5.26273E-10 5.37204E-09-8.12491E+00
 -1      3190-5.52963E+02-4.25959E+02-1.94654E+03 5.11353E+01 5.80677E+01-2.61397E+02
 -1      3191-1.46759E+03-1.13241E+03-4.69737E+03 4.11787E+01 1.64616E+02-2.25540E+02
 -1      3192-1.78133E+03-1.24163E+03-5.39547E+03 6.38450E+00 2.11081E+02-4.67919E+01
 -1      3193-1.90723E+03-1.22998E+03-5.46590E+03-7.61971E+00 2.11104E+02 3.68279E+01
 -1      3194-1.90975E+03-1.19311E+03-5.38340E+03-1.08444E+01 2.05957E+02 5.03553E+01
 -1      3195-1.90583E+03-1.17590E+03-5.32275E+03-1.03037E+01 2.03297E+02 4.67996E+01
 -1      3196-1.91136E+03-1.17236E+03-5.29833E+03-9.38307E+00 2.02464E+02 4.42086E+01
 -1      3197-1.92021E+03-1.17292E+03-5.29216E+03-8.89217E+00 2.02363E+02 4.40881E+01
 -1      3198-1.92746E+03-1.17382E+03-5.29220E+03-8.76264E+00 2.02437E+02 4.48560E+01
 -1      3199-1.93192E+03-1.17429E+03-5.29344E+03-8.76316E+00 2.02518E+02 4.55875E+01
 -1      3200-1.93432E+03-1.17462E+03-5.29487E+03-8.77858E+00 2.02593E+02 4.60701E+01
 -1      3201-1.93538E+03-1.17521E+03-5.29635E+03-8.83746E+00 2.02679E+02 4.65075E+01
 -1      3202-1.93424E+03-1.17602E+03-5.29571E+03-9.08188E+00 2.02748E+02 4.77482E+01
 -1      3203-1.92554E+03-1.17469E+03-5.28452E+03-9.65561E+00 2.02443E+02 5.18458E+01
 -1      3204-1.89980E+03-1.16373E+03-5.24398E+03-1.00518E+01 2.00902E+02 6.09680E+01
 -1      3205-1.84508E+03-1.12894E+03-5.14559E+03-1.01421E+01 1.96244E+02 6.72133E+01
 -1      3206-1.87612E+03-1.11216E+03-5.05596E+03-4.74398E+00 1.85927E+02 2.45506E+01
 -1      3207-1.83549E+03-1.06846E+03-5.02082E+03 1.38301E+01 2.16960E+02-8.51374E+01
 -1      3208-2.48067E+03-1.77059E+03-7.28888E+03-1.75958E+00 2.98988E+02 1.02624E+02
 -1      3209-1.89014E+03-1.29724E+03-5.36631E+03-8.35024E+01 2.47735E+02 5.13542E+02
 -1      3210 5.90643E+01 3.43354E+02 6.21252E+02-6.54019E+01-1.04219E+01 3.71737E+02
 -1      3211-1.50122E+02-1.90395E+01-1.38194E+02 3.04591E+00-2.19579E+01 3.38951E+01
 -1      3212 5.57280E+01 3.10603E+01 3.01467E+01 1.43727E+00-4.94273E-01-7.03055E+00
 -1      3213-5.49144E+02-3.80944E+02-1.94615E+03 1.31826E+02 2.00629E+02-2.25958E+02
 -1      3214-1.41054E+03-1.01698E+03-4.54422E+03 9.87209E+01 5.05858E+02-1.88975E+02
 -1      3215-1.69218E+03-1.11522E+03-5.17582E+03 1.19373E+01 6.08518E+02-3.50659E+01
 -1      3216-1.79964E+03-1.10377E+03-5.23016E+03-1.67006E+01 6.05232E+02 3.41074E+01
 -1      3217-1.80023E+03-1.07171E+03-5.14716E+03-2.22250E+01 5.91264E+02 4.51305E+01
 -1      3218-1.79766E+03-1.05641E+03-5.08747E+03-2.03346E+01 5.83650E+02 4.22174E+01
 -1      3219-1.80463E+03-1.05327E+03-5.06427E+03-1.81452E+01 5.81265E+02 4.02937E+01
 -1      3220-1.81414E+03-1.05371E+03-5.05863E+03-1.71126E+01 5.80917E+02 4.04900E+01
 -1      3221-1.82160E+03-1.05450E+03-5.05886E+03-1.68575E+01 5.81078E+02 4.13608E+01
 -1      3222-1.82607E+03-1.05494E+03-5.06014E+03-1.68632E+01 5.81272E+02 4.21213E+01
 -1      3223-1.82842E+03-1.05525E+03-5.06156E+03-1.68860E+01 5.81459E+02 4.26157E+01
 -1      3224-1.82947E+03-1.05579E+03-5.06306E+03-1.69841E+01 5.81697E+02 4.30373E+01
 -1      3225-1.82854E+03-1.05646E+03-5.06270E+03-1.74821E+01 5.81863E+02 4.41337E+01
 -1      3226-1.82022E+03-1.05521E+03-5.05202E+03-1.87602E+01 5.81121E+02 4.77563E+01
 -1      3227-1.79621E+03-1.04581E+03-5.01437E+03-2.06866E+01 5.76670E+02 5.58919E+01
 -1      3228-1.73950E+03-1.01438E+03-4.91244E+03-2.06468E+01 5.63747E+02 6.16331E+01
 -1      3229-1.76827E+03-1.00218E+03-4.84115E+03-1.59760E+01 5.39151E+02 2.84516E+01
 -1      3230-1.70472E+03-9.48889E+02-4.73020E+03 4.62681E+01 5.79419E+02-6.87103E+01
 -1      3231-2.36422E+03-1.60170E+03-6.98215E+03-1.06508E-01 8.42401E+02 9.55678E+01
 -1      3232-1.73234E+03-1.15850E+03-4.92432E+03-2.26123E+02 6.27740E+02 4.42902E+02
 -1      3233 7.86539E+01 3.13457E+02 6.11378E+02-1.52023E+02-6.13451E+01 3.08169E+02
 -1      3234-1.34624E+02-2.15706E+01-1.43577E+02 1.82767E+01-3.39745E+01 2.57733E+01
 -1      3235 5.01719E+01 2.70237E+01 3.44899E+01-3.80699E-02-1.31419E+00-3.88978E+00
 -1      3236-2.99589E+02-2.63572E+02-1.17314E+03 1.84247E+02 2.92890E+02-1.23015E+02
 -1      3237-7.78987E+02-7.19490E+02-2.57446E+03 1.31815E+02 7.05778E+02-1.07892E+02
 -1      3238-9.48243E+02-7.85311E+02-2.92811E+03 1.30843E+01 8.25852E+02-2.34122E+01
 -1      3239-1.02237E+03-7.74969E+02-2.96687E+03-2.20470E+01 8.16943E+02 1.76956E+01
 -1      3240-1.03036E+03-7.50306E+02-2.91691E+03-2.81883E+01 7.96595E+02 2.52066E+01
 -1      3241-1.03744E+03-7.39367E+02-2.88114E+03-2.48957E+01 7.85883E+02 2.43363E+01
 -1      3242-1.04929E+03-7.37168E+02-2.86713E+03-2.18509E+01 7.82699E+02 2.41406E+01
 -1      3243-1.06054E+03-7.37624E+02-2.86400E+03-2.05293E+01 7.82276E+02 2.50705E+01
 -1      3244-1.06828E+03-7.38280E+02-2.86437E+03-2.02382E+01 7.82506E+02 2.61611E+01
 -1      3245-1.07262E+03-7.38637E+02-2.86527E+03-2.02639E+01 7.82758E+02 2.69758E+01
 -1      3246-1.07473E+03-7.38879E+02-2.86619E+03-2.02904E+01 7.83000E+02 2.74948E+01
 -1      3247-1.07556E+03-7.39276E+02-2.86713E+03-2.03818E+01 7.83335E+02 2.78874E+01
 -1      3248-1.07488E+03-7.39803E+02-2.86691E+03-2.10177E+01 7.83620E+02 2.86788E+01
 -1      3249-1.06870E+03-7.38887E+02-2.86019E+03-2.26666E+01 7.82792E+02 3.11661E+01
 -1      3250-1.05011E+03-7.32274E+02-2.83713E+03-2.61800E+01 7.76830E+02 3.67686E+01
 -1      3251-1.00952E+03-7.09721E+02-2.77835E+03-2.57384E+01 7.58437E+02 4.05614E+01
 -1      3252-1.02147E+03-6.97420E+02-2.73937E+03-2.48743E+01 7.25540E+02 2.01597E+01
 -1      3253-9.92536E+02-6.66617E+02-2.70642E+03 7.15019E+01 7.56727E+02-2.96190E+01
 -1      3254-1.36705E+03-1.12994E+03-3.88016E+03-1.64355E+00 1.13699E+03 6.55216E+01
 -1      3255-9.74025E+02-8.05232E+02-2.62632E+03-3.18652E+02 7.93851E+02 2.42583E+02
 -1      3256 1.66342E+01 2.18254E+02 2.27426E+02-1.95951E+02-1.05726E+02 1.69963E+02
 -1      3257-6.95119E+01-3.85105E+00-5.41445E+01 3.05425E+01-3.80448E+01 2.20944E+01
 -1      3258 2.69387E+01 1.73933E+01 1.80524E+01-9.36924E-01-2.18811E+00-1.39749E-02
 -1      3259-3.18208E+01-1.50000E+02-3.17316E+02 1.33584E+02 1.79004E+02-2.22969E+01
 -1      3260-1.31074E+02-4.25625E+02-5.48041E+02 9.40114E+01 4.24086E+02-3.22441E+01
 -1      3261-1.99297E+02-4.70123E+02-6.66318E+02 8.42735E+00 4.90760E+02-1.42752E+01
 -1      3262-2.39091E+02-4.59764E+02-6.84028E+02-1.88801E+01 4.77536E+02 9.52382E-01
 -1      3263-2.59431E+02-4.44372E+02-6.74437E+02-2.33017E+01 4.61728E+02 5.18238E+00
 -1      3264-2.77787E+02-4.37571E+02-6.63689E+02-2.04902E+01 4.54555E+02 6.49914E+00
 -1      3265-2.95275E+02-4.36295E+02-6.59395E+02-1.80097E+01 4.52810E+02 8.05780E+00
 -1      3266-3.08325E+02-4.36727E+02-6.58785E+02-1.69877E+01 4.52762E+02 9.72843E+00
 -1      3267-3.16324E+02-4.37246E+02-6.59274E+02-1.68050E+01 4.52991E+02 1.10493E+01
 -1      3268-3.20507E+02-4.37537E+02-6.59805E+02-1.68571E+01 4.53162E+02 1.19294E+01
 -1      3269-3.22350E+02-4.37731E+02-6.60243E+02-1.68863E+01 4.53313E+02 1.24829E+01
 -1      3270-3.22919E+02-4.38006E+02-6.60638E+02-1.69496E+01 4.53561E+02 1.28597E+01
 -1      3271-3.22365E+02-4.38356E+02-6.60425E+02-1.74286E+01 4.53906E+02 1.33701E+01
 -1      3272-3.18518E+02-4.37699E+02-6.57857E+02-1.87767E+01 4.53741E+02 1.47476E+01
 -1      3273-3.05724E+02-4.33713E+02-6.49275E+02-2.13927E+01 4.50272E+02 1.77405E+01
 -1      3274-2.83923E+02-4.20574E+02-6.39411E+02-2.13568E+01 4.37657E+02 1.95793E+01
 -1      3275-2.77303E+02-4.09554E+02-6.31887E+02-1.79435E+01 4.12021E+02 1.05326E+01
 -1      3276-2.88224E+02-4.03524E+02-6.99171E+02 4.97236E+01 4.35439E+02 5.29234E+00
 -1      3277-3.73235E+02-6.73347E+02-8.05432E+02-9.61658E+00 6.85838E+02 2.86339E+01
 -1      3278-2.82779E+02-4.84181E+02-5.52862E+02-2.23874E+02 4.56496E+02 5.15158E+01
 -1      3279-3.08145E+01 1.25421E+02-9.03851E+01-1.36941E+02-8.59632E+01 4.38610E+01
 -1      3280-1.77284E+01 1.00932E+01 2.66034E+01 1.89179E+01-3.84987E+01 1.77681E+01
 -1      3281 1.74411E+00 8.70576E+00 4.78353E+00 2.88739E+00-2.14014E+00 3.30335E+00
 -1      3282 1.15974E+01-1.16315E+02-1.30786E+02 5.64688E+01 2.36022E+01 1.68191E+01
 -1      3283-2.20619E+01-3.17940E+02-2.20463E+02 4.00856E+01 6.03755E+01 3.32189E+00
 -1      3284-4.17462E+01-3.48782E+02-2.56560E+02 4.97047E+00 6.81102E+01-1.65004E+00
 -1      3285-6.62247E+01-3.42495E+02-2.59430E+02-9.02499E+00 5.72417E+01-1.24318E+00
 -1      3286-9.02603E+01-3.31094E+02-2.49733E+02-1.14731E+01 5.09023E+01-3.30690E-01
 -1      3287-1.14836E+02-3.26068E+02-2.43076E+02-1.04399E+01 4.90843E+01 1.39494E+00
 -1      3288-1.35409E+02-3.24976E+02-2.41084E+02-9.28602E+00 4.90494E+01 3.69667E+00
 -1      3289-1.49424E+02-3.25270E+02-2.41374E+02-8.79347E+00 4.92898E+01 5.80912E+00
 -1      3290-1.57539E+02-3.25686E+02-2.42054E+02-8.71247E+00 4.94301E+01 7.33304E+00
 -1      3291-1.61642E+02-3.25940E+02-2.42540E+02-8.75090E+00 4.94809E+01 8.30399E+00
 -1      3292-1.63339E+02-3.26112E+02-2.42885E+02-8.77869E+00 4.95119E+01 8.89691E+00
 -1      3293-1.63694E+02-3.26320E+02-2.43237E+02-8.83000E+00 4.96039E+01 9.25804E+00
 -1      3294-1.63138E+02-3.26530E+02-2.43375E+02-9.08161E+00 4.98570E+01 9.60403E+00
 -1      3295-1.60142E+02-3.25842E+02-2.41968E+02-9.76497E+00 5.02248E+01 1.04625E+01
 -1      3296-1.50498E+02-3.23022E+02-2.37492E+02-1.06777E+01 4.98681E+01 1.24080E+01
 -1      3297-1.31059E+02-3.13346E+02-2.30636E+02-1.08113E+01 4.63320E+01 1.41711E+01
 -1      3298-1.15167E+02-3.05898E+02-2.33299E+02-6.09887E+00 3.53347E+01 1.28304E+01
 -1      3299-1.07362E+02-2.99064E+02-2.63592E+02 1.66431E+01 4.77964E+01 1.32770E+01
 -1      3300-1.76341E+02-4.90244E+02-3.25802E+02-1.12094E+01 1.13556E+02 3.81132E+00
 -1      3301-1.33930E+02-3.34979E+02-2.16190E+02-8.66404E+01 6.66540E+01-1.66635E+01
 -1      3302-6.25844E-01 8.07141E+01-6.88625E+00-5.76715E+01-4.17917E+01-1.19152E+01
 -1      3303-2.38520E+01 6.58161E+00 2.64155E+01 2.16187E+00-2.54881E+01 2.48603E+00
 -1      3304-1.28731E+01 4.53945E+00 1.14939E+01 3.14500E+00-1.31129E+00 3.88506E+00
 -3
    1PSTEP                         6           2           1          
  100CL  102 2.00000E-01        3304                     0    2           1
 -4  ERROR       1    1
 -5  STR(%)      1    1    0    0
 -1         1 1.63930E+01
 -1         2 2.16379E+01
 -1         3 1.63930E+01
 -1         4 2.16379E+01
 -1         5 1.47089E+01
 -1         6 1.39346E+01
 -1         7 1.40324E+01
 -1         8 1.33983E+01
 -1         9 1.47089E+01
 -1        10 1.39346E+01
 -1        11 1.63930E+01
 -1        12 2.16379E+01
 -1        13 1.63930E+01
 -1        14 2.16379E+01
 -1        15 1.76621E+01
 -1        16 2.16379E+01
 -1        17 1.76621E+01
 -1        18 2.16379E+01
 -1        19 1.59118E+01
 -1        20 1.95652E+01
 -1        21 1.52748E+01
 -1        22 1.95100E+01
 -1        23 1.59118E+01
 -1        24 1.95652E+01
 -1        25 1.76621E+01
 -1        26 2.16379E+01
 -1        27 1.76621E+01
 -1        28 2.16379E+01
 -1        29 1.94494E+01
 -1        30 1.48531E+01
 -1        31 1.94494E+01
 -1        32 2.54398E+01
 -1        33 1.78873E+01
 -1        34 2.54398E+01
 -1        35 1.70537E+01
 -1        36 2.54025E+01
 -1        37 1.78873E+01
 -1        38 2.54398E+01
 -1        39 1.94494E+01
 -1        40 2.54398E+01
 -1        41 1.94494E+01
 -1        42 1.48531E+01
 -1        43 2.21182E+01
 -1        44 3.04011E+01
 -1        45 2.21182E+01
 -1        46 3.26537E+01
 -1        47 2.06721E+01
 -1        48 3.26537E+01
 -1        49 1.94073E+01
 -1        50 3.08383E+01
 -1        51 2.06721E+01
 -1        52 3.26537E+01
 -1        53 2.21182E+01
 -1        54 3.26537E+01
 -1        55 2.21182E+01
 -1        56 3.04011E+01
 -1        57 2.79065E+01
 -1        58 4.15312E+01
 -1        59 2.79065E+01
 -1        60 4.15312E+01
 -1        61 2.40262E+01
 -1        62 3.86459E+01
 -1        63 2.28468E+01
 -1        64 3.72853E+01
 -1        65 2.40262E+01
 -1        66 3.86459E+01
 -1        67 2.79065E+01
 -1        68 4.15312E+01
 -1        69 2.79065E+01
 -1        70 4.15312E+01
 -1        71 3.69674E+01
 -1        72 5.73669E+01
 -1        73 3.69674E+01
 -1        74 5.73669E+01
 -1        75 2.88037E+01
 -1        76 3.86459E+01
 -1        77 2.73094E+01
 -1        78 3.72853E+01
 -1        79 2.88037E+01
 -1        80 3.86459E+01
 -1        81 3.69674E+01
 -1        82 5.73669E+01
 -1        83 3.69674E+01
 -1        84 5.73669E+01
 -1        85 3.69674E+01
 -1        86 5.73669E+01
 -1        87 3.69674E+01
 -1        88 5.73669E+01
 -1        89 2.88037E+01
 -1        90 2.90973E+01
 -1        91 2.73094E+01
 -1        92 2.68670E+01
 -1        93 2.88037E+01
 -1        94 2.90973E+01
 -1        95 3.69674E+01
 -1        96 5.73669E+01
 -1        97 3.69674E+01
 -1        98 5.73669E+01
 -1        99 1.63930E+01
 -1       100 1.63930E+01
 -1       101 3.16685E+00
 -1       102 3.16685E+00
 -1       103 8.49586E-01
 -1       104 8.49586E-01
 -1       105 3.47403E-01
 -1       106 3.47402E-01
 -1       107 2.22557E-01
 -1       108 2.22557E-01
 -1       109 7.60885E-02
 -1       110 7.60885E-02
 -1       111 3.12715E-02
 -1       112 3.12716E-02
 -1       113 3.57250E-02
 -1       114 3.57252E-02
 -1       115 3.57250E-02
 -1       116 3.57252E-02
 -1       117 3.53091E-02
 -1       118 3.53092E-02
 -1       119 3.54279E-02
 -1       120 3.54280E-02
 -1       121 3.54279E-02
 -1       122 3.54280E-02
 -1       123 3.47545E-02
 -1       124 3.47546E-02
 -1       125 4.20519E-02
 -1       126 4.20520E-02
 -1       127 1.72785E-01
 -1       128 1.72785E-01
 -1       129 4.41122E-01
 -1       130 4.41122E-01
 -1       131 5.37839E-01
 -1       132 5.37839E-01
 -1       133 3.49802E+00
 -1       134 3.49802E+00
 -1       135 2.16379E+01
 -1       136 2.16379E+01
 -1       137 1.76621E+01
 -1       138 1.76621E+01
 -1       139 3.38838E+00
 -1       140 3.38838E+00
 -1       141 8.49586E-01
 -1       142 8.49586E-01
 -1       143 4.34375E-01
 -1       144 4.34375E-01
 -1       145 2.79550E-01
 -1       146 2.79550E-01
 -1       147 1.21315E-01
 -1       148 1.21315E-01
 -1       149 1.24779E-01
 -1       150 1.24779E-01
 -1       151 1.27135E-01
 -1       152 1.27135E-01
 -1       153 1.27135E-01
 -1       154 1.27135E-01
 -1       155 1.25184E-01
 -1       156 1.25184E-01
 -1       157 1.23687E-01
 -1       158 1.23687E-01
 -1       159 1.22517E-01
 -1       160 1.22516E-01
 -1       161 1.19809E-01
 -1       162 1.19809E-01
 -1       163 1.22218E-01
 -1       164 1.22218E-01
 -1       165 2.61837E-01
 -1       166 2.61837E-01
 -1       167 6.59770E-01
 -1       168 6.59770E-01
 -1       169 1.04818E+00
 -1       170 1.04818E+00
 -1       171 3.49802E+00
 -1       172 3.49802E+00
 -1       173 2.16379E+01
 -1       174 2.16379E+01
 -1       175 1.94494E+01
 -1       176 1.94494E+01
 -1       177 3.53420E+00
 -1       178 3.53420E+00
 -1       179 7.69339E-01
 -1       180 7.69339E-01
 -1       181 7.69339E-01
 -1       182 7.69339E-01
 -1       183 4.62889E-01
 -1       184 4.62889E-01
 -1       185 3.94449E-01
 -1       186 3.94449E-01
 -1       187 4.10208E-01
 -1       188 4.10208E-01
 -1       189 4.10208E-01
 -1       190 4.10208E-01
 -1       191 4.08982E-01
 -1       192 4.08981E-01
 -1       193 4.05633E-01
 -1       194 4.05633E-01
 -1       195 4.02833E-01
 -1       196 4.02833E-01
 -1       197 3.99951E-01
 -1       198 3.99951E-01
 -1       199 3.95384E-01
 -1       200 3.95384E-01
 -1       201 3.87972E-01
 -1       202 3.87972E-01
 -1       203 4.93647E-01
 -1       204 4.93647E-01
 -1       205 9.32058E-01
 -1       206 9.32058E-01
 -1       207 1.56762E+00
 -1       208 1.56762E+00
 -1       209 1.95209E+00
 -1       210 1.95209E+00
 -1       211 1.48531E+01
 -1       212 1.48531E+01
 -1       213 2.21182E+01
 -1       214 2.21182E+01
 -1       215 3.53420E+00
 -1       216 3.53420E+00
 -1       217 1.37101E+00
 -1       218 1.37101E+00
 -1       219 1.32638E+00
 -1       220 1.32638E+00
 -1       221 1.02774E+00
 -1       222 1.02774E+00
 -1       223 1.07674E+00
 -1       224 1.07674E+00
 -1       225 1.07674E+00
 -1       226 1.07674E+00
 -1       227 1.07659E+00
 -1       228 1.07659E+00
 -1       229 1.07150E+00
 -1       230 1.07150E+00
 -1       231 1.06575E+00
 -1       232 1.06575E+00
 -1       233 1.06104E+00
 -1       234 1.06104E+00
 -1       235 1.05582E+00
 -1       236 1.05582E+00
 -1       237 1.04793E+00
 -1       238 1.04793E+00
 -1       239 1.03860E+00
 -1       240 1.03860E+00
 -1       241 1.08355E+00
 -1       242 1.08355E+00
 -1       243 1.35606E+00
 -1       244 1.35606E+00
 -1       245 2.53558E+00
 -1       246 2.53558E+00
 -1       247 2.53558E+00
 -1       248 2.53558E+00
 -1       249 3.04011E+01
 -1       250 3.04011E+01
 -1       251 2.79065E+01
 -1       252 2.79065E+01
 -1       253 3.87243E+00
 -1       254 3.87243E+00
 -1       255 3.87243E+00
 -1       256 3.87243E+00
 -1       257 2.95100E+00
 -1       258 2.95100E+00
 -1       259 2.67926E+00
 -1       260 2.67926E+00
 -1       261 2.67926E+00
 -1       262 2.67926E+00
 -1       263 2.66188E+00
 -1       264 2.66188E+00
 -1       265 2.64815E+00
 -1       266 2.64815E+00
 -1       267 2.63562E+00
 -1       268 2.63562E+00
 -1       269 2.62612E+00
 -1       270 2.62612E+00
 -1       271 2.61752E+00
 -1       272 2.61752E+00
 -1       273 2.60787E+00
 -1       274 2.60787E+00
 -1       275 2.59558E+00
 -1       276 2.59558E+00
 -1       277 2.57942E+00
 -1       278 2.57942E+00
 -1       279 2.61139E+00
 -1       280 2.61139E+00
 -1       281 2.79691E+00
 -1       282 2.79691E+00
 -1       283 3.53677E+00
 -1       284 3.53677E+00
 -1       285 7.60467E+00
 -1       286 7.60467E+00
 -1       287 4.15312E+01
 -1       288 4.15312E+01
 -1       289 3.80452E+01
 -1       290 3.80452E+01
 -1       291 3.80452E+01
 -1       292 3.80452E+01
 -1       293 3.18926E+01
 -1       294 3.18926E+01
 -1       295 1.04501E+01
 -1       296 1.04501E+01
 -1       297 1.04501E+01
 -1       298 1.04501E+01
 -1       299 1.00710E+01
 -1       300 1.00710E+01
 -1       301 9.90623E+00
 -1       302 9.90623E+00
 -1       303 9.81108E+00
 -1       304 9.81108E+00
 -1       305 9.75485E+00
 -1       306 9.75484E+00
 -1       307 9.70616E+00
 -1       308 9.70616E+00
 -1       309 9.65799E+00
 -1       310 9.65799E+00
 -1       311 9.60752E+00
 -1       312 9.60752E+00
 -1       313 9.55078E+00
 -1       314 9.55078E+00
 -1       315 9.48628E+00
 -1       316 9.48628E+00
 -1       317 9.40021E+00
 -1       318 9.40021E+00
 -1       319 9.38287E+00
 -1       320 9.38287E+00
 -1       321 1.08334E+01
 -1       322 1.08334E+01
 -1       323 1.65816E+01
 -1       324 1.65816E+01
 -1       325 5.73669E+01
 -1       326 5.73669E+01
 -1       327 3.80452E+01
 -1       328 3.80452E+01
 -1       329 3.80452E+01
 -1       330 3.80452E+01
 -1       331 3.18926E+01
 -1       332 3.18926E+01
 -1       333 1.04501E+01
 -1       334 1.04501E+01
 -1       335 1.04501E+01
 -1       336 1.04501E+01
 -1       337 1.00710E+01
 -1       338 1.00710E+01
 -1       339 9.90623E+00
 -1       340 9.90623E+00
 -1       341 9.81108E+00
 -1       342 9.81108E+00
 -1       343 9.75485E+00
 -1       344 9.75484E+00
 -1       345 9.70616E+00
 -1       346 9.70616E+00
 -1       347 9.65799E+00
 -1       348 9.65799E+00
 -1       349 9.60752E+00
 -1       350 9.60752E+00
 -1       351 9.55078E+00
 -1       352 9.55078E+00
 -1       353 9.48628E+00
 -1       354 9.48628E+00
 -1       355 9.40021E+00
 -1       356 9.40021E+00
 -1       357 9.38287E+00
 -1       358 9.38287E+00
 -1       359 1.08334E+01
 -1       360 1.08334E+01
 -1       361 1.65816E+01
 -1       362 1.65816E+01
 -1       363 5.73669E+01
 -1       364 5.73669E+01
 -1       365 1.63930E+01
 -1       366 3.80452E+01
 -1       367 3.16685E+00
 -1       368 3.80452E+01
 -1       369 8.49586E-01
 -1       370 3.18926E+01
 -1       371 3.47403E-01
 -1       372 1.04501E+01
 -1       373 3.10408E-01
 -1       374 1.04501E+01
 -1       375 1.89137E-01
 -1       376 1.00710E+01
 -1       377 1.36063E-01
 -1       378 9.90623E+00
 -1       379 1.39821E-01
 -1       380 9.81108E+00
 -1       381 1.39821E-01
 -1       382 9.75485E+00
 -1       383 1.39788E-01
 -1       384 9.70616E+00
 -1       385 1.40530E-01
 -1       386 9.65799E+00
 -1       387 1.40581E-01
 -1       388 9.60752E+00
 -1       389 1.40581E-01
 -1       390 9.55078E+00
 -1       391 1.40238E-01
 -1       392 9.48628E+00
 -1       393 2.05919E-01
 -1       394 9.40021E+00
 -1       395 4.73958E-01
 -1       396 9.38287E+00
 -1       397 5.52640E-01
 -1       398 1.08334E+01
 -1       399 3.49802E+00
 -1       400 1.65816E+01
 -1       401 2.16379E+01
 -1       402 5.73669E+01
 -1       403 1.47089E+01
 -1       404 2.88037E+01
 -1       405 2.74507E+00
 -1       406 8.43108E+00
 -1       407 6.88774E-01
 -1       408 2.41084E+00
 -1       409 3.10408E-01
 -1       410 2.34984E+00
 -1       411 3.10408E-01
 -1       412 2.34984E+00
 -1       413 1.89137E-01
 -1       414 2.29158E+00
 -1       415 1.36063E-01
 -1       416 2.25747E+00
 -1       417 1.39821E-01
 -1       418 2.24091E+00
 -1       419 1.39821E-01
 -1       420 2.23204E+00
 -1       421 1.39788E-01
 -1       422 2.22593E+00
 -1       423 1.40530E-01
 -1       424 2.21997E+00
 -1       425 1.40581E-01
 -1       426 2.21276E+00
 -1       427 1.40581E-01
 -1       428 2.20223E+00
 -1       429 1.40238E-01
 -1       430 2.18875E+00
 -1       431 2.05919E-01
 -1       432 2.23391E+00
 -1       433 4.73958E-01
 -1       434 2.32984E+00
 -1       435 5.52640E-01
 -1       436 2.74570E+00
 -1       437 2.36493E+00
 -1       438 9.74446E+00
 -1       439 1.39346E+01
 -1       440 2.90973E+01
 -1       441 1.40324E+01
 -1       442 2.73094E+01
 -1       443 2.69658E+00
 -1       444 8.43108E+00
 -1       445 5.37343E-01
 -1       446 1.38354E+00
 -1       447 3.10105E-01
 -1       448 1.48655E+00
 -1       449 2.72065E-01
 -1       450 1.48655E+00
 -1       451 1.73970E-01
 -1       452 1.41802E+00
 -1       453 1.19214E-01
 -1       454 1.38652E+00
 -1       455 1.23247E-01
 -1       456 1.36816E+00
 -1       457 1.23394E-01
 -1       458 1.36062E+00
 -1       459 1.23394E-01
 -1       460 1.35644E+00
 -1       461 1.24257E-01
 -1       462 1.35273E+00
 -1       463 1.24310E-01
 -1       464 1.34751E+00
 -1       465 1.24310E-01
 -1       466 1.33865E+00
 -1       467 1.26503E-01
 -1       468 1.32304E+00
 -1       469 1.92652E-01
 -1       470 1.34389E+00
 -1       471 3.40822E-01
 -1       472 1.60617E+00
 -1       473 4.03780E-01
 -1       474 2.19810E+00
 -1       475 1.83386E+00
 -1       476 7.20277E+00
 -1       477 1.33983E+01
 -1       478 2.68670E+01
 -1       479 1.47089E+01
 -1       480 2.88037E+01
 -1       481 2.74507E+00
 -1       482 8.43108E+00
 -1       483 6.88774E-01
 -1       484 2.41084E+00
 -1       485 3.10408E-01
 -1       486 2.34984E+00
 -1       487 3.10408E-01
 -1       488 2.34984E+00
 -1       489 1.89137E-01
 -1       490 2.29158E+00
 -1       491 1.36063E-01
 -1       492 2.25747E+00
 -1       493 1.39821E-01
 -1       494 2.24091E+00
 -1       495 1.39821E-01
 -1       496 2.23204E+00
 -1       497 1.39788E-01
 -1       498 2.22593E+00
 -1       499 1.40530E-01
 -1       500 2.21997E+00
 -1       501 1.40580E-01
 -1       502 2.21276E+00
 -1       503 1.40580E-01
 -1       504 2.20223E+00
 -1       505 1.40237E-01
 -1       506 2.18875E+00
 -1       507 2.05919E-01
 -1       508 2.23391E+00
 -1       509 4.73958E-01
 -1       510 2.32984E+00
 -1       511 5.52640E-01
 -1       512 2.74570E+00
 -1       513 2.36493E+00
 -1       514 9.74446E+00
 -1       515 1.39346E+01
 -1       516 2.90973E+01
 -1       517 1.63930E+01
 -1       518 3.80452E+01
 -1       519 3.16685E+00
 -1       520 3.80452E+01
 -1       521 8.49586E-01
 -1       522 3.18926E+01
 -1       523 3.47402E-01
 -1       524 1.04501E+01
 -1       525 3.10408E-01
 -1       526 1.04501E+01
 -1       527 1.89137E-01
 -1       528 1.00710E+01
 -1       529 1.36063E-01
 -1       530 9.90623E+00
 -1       531 1.39821E-01
 -1       532 9.81108E+00
 -1       533 1.39821E-01
 -1       534 9.75484E+00
 -1       535 1.39788E-01
 -1       536 9.70616E+00
 -1       537 1.40530E-01
 -1       538 9.65799E+00
 -1       539 1.40580E-01
 -1       540 9.60752E+00
 -1       541 1.40580E-01
 -1       542 9.55078E+00
 -1       543 1.40237E-01
 -1       544 9.48628E+00
 -1       545 2.05919E-01
 -1       546 9.40021E+00
 -1       547 4.73958E-01
 -1       548 9.38287E+00
 -1       549 5.52640E-01
 -1       550 1.08334E+01
 -1       551 3.49802E+00
 -1       552 1.65816E+01
 -1       553 2.16379E+01
 -1       554 5.73669E+01
 -1       555 1.76621E+01
 -1       556 3.38838E+00
 -1       557 8.49586E-01
 -1       558 5.57820E-01
 -1       559 5.06727E-01
 -1       560 3.47442E-01
 -1       561 2.87123E-01
 -1       562 2.89814E-01
 -1       563 2.90139E-01
 -1       564 2.90289E-01
 -1       565 2.91449E-01
 -1       566 2.92334E-01
 -1       567 2.92334E-01
 -1       568 2.83751E-01
 -1       569 2.81701E-01
 -1       570 6.71600E-01
 -1       571 1.04818E+00
 -1       572 3.49802E+00
 -1       573 2.16379E+01
 -1       574 1.59118E+01
 -1       575 2.89297E+00
 -1       576 7.95565E-01
 -1       577 5.98807E-01
 -1       578 5.06727E-01
 -1       579 3.47442E-01
 -1       580 2.87123E-01
 -1       581 2.89814E-01
 -1       582 2.90139E-01
 -1       583 2.90289E-01
 -1       584 2.91449E-01
 -1       585 2.92334E-01
 -1       586 2.92334E-01
 -1       587 2.83751E-01
 -1       588 2.81701E-01
 -1       589 6.71600E-01
 -1       590 8.48559E-01
 -1       591 2.36493E+00
 -1       592 1.95652E+01
 -1       593 1.52748E+01
 -1       594 2.73439E+00
 -1       595 6.40295E-01
 -1       596 5.98807E-01
 -1       597 4.55413E-01
 -1       598 3.20889E-01
 -1       599 2.59808E-01
 -1       600 2.62871E-01
 -1       601 2.63398E-01
 -1       602 2.63627E-01
 -1       603 2.64846E-01
 -1       604 2.65730E-01
 -1       605 2.65730E-01
 -1       606 2.57244E-01
 -1       607 2.56819E-01
 -1       608 4.03670E-01
 -1       609 6.27233E-01
 -1       610 1.83386E+00
 -1       611 1.95100E+01
 -1       612 1.59118E+01
 -1       613 2.89297E+00
 -1       614 7.95565E-01
 -1       615 5.98807E-01
 -1       616 5.06727E-01
 -1       617 3.47442E-01
 -1       618 2.87123E-01
 -1       619 2.89814E-01
 -1       620 2.90139E-01
 -1       621 2.90289E-01
 -1       622 2.91449E-01
 -1       623 2.92334E-01
 -1       624 2.92334E-01
 -1       625 2.83751E-01
 -1       626 2.81701E-01
 -1       627 6.71600E-01
 -1       628 8.48559E-01
 -1       629 2.36493E+00
 -1       630 1.95652E+01
 -1       631 1.76621E+01
 -1       632 3.38838E+00
 -1       633 8.49586E-01
 -1       634 5.57820E-01
 -1       635 5.06727E-01
 -1       636 3.47442E-01
 -1       637 2.87123E-01
 -1       638 2.89814E-01
 -1       639 2.90139E-01
 -1       640 2.90289E-01
 -1       641 2.91449E-01
 -1       642 2.92334E-01
 -1       643 2.92334E-01
 -1       644 2.83751E-01
 -1       645 2.81701E-01
 -1       646 6.71600E-01
 -1       647 1.04818E+00
 -1       648 3.49802E+00
 -1       649 2.16379E+01
 -1       650 1.94494E+01
 -1       651 3.53420E+00
 -1       652 1.05205E+00
 -1       653 9.51178E-01
 -1       654 7.62668E-01
 -1       655 6.07414E-01
 -1       656 5.55651E-01
 -1       657 5.57211E-01
 -1       658 5.57390E-01
 -1       659 5.57390E-01
 -1       660 5.57938E-01
 -1       661 5.59374E-01
 -1       662 5.59374E-01
 -1       663 5.53454E-01
 -1       664 5.26041E-01
 -1       665 9.32058E-01
 -1       666 1.56762E+00
 -1       667 1.95209E+00
 -1       668 2.54398E+01
 -1       669 1.78873E+01
 -1       670 2.90288E+00
 -1       671 1.05205E+00
 -1       672 9.51178E-01
 -1       673 7.62668E-01
 -1       674 6.07414E-01
 -1       675 5.55651E-01
 -1       676 5.57211E-01
 -1       677 5.57390E-01
 -1       678 5.57390E-01
 -1       679 5.57938E-01
 -1       680 5.59374E-01
 -1       681 5.59374E-01
 -1       682 5.53454E-01
 -1       683 5.26041E-01
 -1       684 8.27385E-01
 -1       685 1.34337E+00
 -1       686 1.76420E+00
 -1       687 2.54398E+01
 -1       688 1.70537E+01
 -1       689 2.73439E+00
 -1       690 8.58110E-01
 -1       691 8.58110E-01
 -1       692 5.80861E-01
 -1       693 4.51893E-01
 -1       694 4.01223E-01
 -1       695 4.03660E-01
 -1       696 4.04414E-01
 -1       697 4.04705E-01
 -1       698 4.05782E-01
 -1       699 4.07679E-01
 -1       700 4.07679E-01
 -1       701 4.01871E-01
 -1       702 3.80788E-01
 -1       703 4.03670E-01
 -1       704 9.45205E-01
 -1       705 1.29306E+00
 -1       706 2.54025E+01
 -1       707 1.78873E+01
 -1       708 2.90288E+00
 -1       709 1.05205E+00
 -1       710 9.51178E-01
 -1       711 7.62668E-01
 -1       712 6.07414E-01
 -1       713 5.55651E-01
 -1       714 5.57211E-01
 -1       715 5.57389E-01
 -1       716 5.57389E-01
 -1       717 5.57938E-01
 -1       718 5.59374E-01
 -1       719 5.59374E-01
 -1       720 5.53454E-01
 -1       721 5.26041E-01
 -1       722 8.27385E-01
 -1       723 1.34337E+00
 -1       724 1.76420E+00
 -1       725 2.54398E+01
 -1       726 1.94494E+01
 -1       727 3.53420E+00
 -1       728 1.05205E+00
 -1       729 9.51178E-01
 -1       730 7.62668E-01
 -1       731 6.07414E-01
 -1       732 5.55651E-01
 -1       733 5.57211E-01
 -1       734 5.57389E-01
 -1       735 5.57389E-01
 -1       736 5.57938E-01
 -1       737 5.59374E-01
 -1       738 5.59374E-01
 -1       739 5.53454E-01
 -1       740 5.26041E-01
 -1       741 9.32058E-01
 -1       742 1.56762E+00
 -1       743 1.95209E+00
 -1       744 2.54398E+01
 -1       745 2.21182E+01
 -1       746 3.53420E+00
 -1       747 1.96800E+00
 -1       748 1.37167E+00
 -1       749 1.05750E+00
 -1       750 1.07674E+00
 -1       751 1.07674E+00
 -1       752 1.07659E+00
 -1       753 1.07150E+00
 -1       754 1.06575E+00
 -1       755 1.06104E+00
 -1       756 1.05582E+00
 -1       757 1.04793E+00
 -1       758 1.03860E+00
 -1       759 1.08355E+00
 -1       760 1.35606E+00
 -1       761 2.53558E+00
 -1       762 2.53558E+00
 -1       763 3.26537E+01
 -1       764 2.06721E+01
 -1       765 2.90288E+00
 -1       766 1.96800E+00
 -1       767 1.37167E+00
 -1       768 1.05750E+00
 -1       769 9.40176E-01
 -1       770 9.01463E-01
 -1       771 8.97116E-01
 -1       772 8.97116E-01
 -1       773 8.96910E-01
 -1       774 8.95938E-01
 -1       775 8.96397E-01
 -1       776 8.96397E-01
 -1       777 8.95919E-01
 -1       778 8.64551E-01
 -1       779 9.44229E-01
 -1       780 1.90190E+00
 -1       781 2.16851E+00
 -1       782 3.26537E+01
 -1       783 1.94073E+01
 -1       784 2.57983E+00
 -1       785 1.35657E+00
 -1       786 8.58110E-01
 -1       787 5.80861E-01
 -1       788 4.51893E-01
 -1       789 4.01223E-01
 -1       790 4.03660E-01
 -1       791 4.04414E-01
 -1       792 4.04705E-01
 -1       793 4.05782E-01
 -1       794 4.07679E-01
 -1       795 4.07679E-01
 -1       796 4.01871E-01
 -1       797 3.80788E-01
 -1       798 5.22384E-01
 -1       799 1.36916E+00
 -1       800 2.16851E+00
 -1       801 3.08383E+01
 -1       802 2.06721E+01
 -1       803 2.90288E+00
 -1       804 1.96800E+00
 -1       805 1.37167E+00
 -1       806 1.05750E+00
 -1       807 9.40176E-01
 -1       808 9.01463E-01
 -1       809 8.97116E-01
 -1       810 8.97116E-01
 -1       811 8.96910E-01
 -1       812 8.95938E-01
 -1       813 8.96397E-01
 -1       814 8.96397E-01
 -1       815 8.95919E-01
 -1       816 8.64551E-01
 -1       817 9.44229E-01
 -1       818 1.90190E+00
 -1       819 2.16851E+00
 -1       820 3.26537E+01
 -1       821 2.21182E+01
 -1       822 3.53420E+00
 -1       823 1.96800E+00
 -1       824 1.37167E+00
 -1       825 1.05750E+00
 -1       826 1.07674E+00
 -1       827 1.07674E+00
 -1       828 1.07659E+00
 -1       829 1.07150E+00
 -1       830 1.06575E+00
 -1       831 1.06104E+00
 -1       832 1.05582E+00
 -1       833 1.04793E+00
 -1       834 1.03860E+00
 -1       835 1.08355E+00
 -1       836 1.35606E+00
 -1       837 2.53558E+00
 -1       838 2.53558E+00
 -1       839 3.26537E+01
 -1       840 2.79065E+01
 -1       841 3.87243E+00
 -1       842 3.87243E+00
 -1       843 2.95100E+00
 -1       844 2.67926E+00
 -1       845 2.67926E+00
 -1       846 2.66188E+00
 -1       847 2.64815E+00
 -1       848 2.63562E+00
 -1       849 2.62612E+00
 -1       850 2.61752E+00
 -1       851 2.60787E+00
 -1       852 2.59558E+00
 -1       853 2.57942E+00
 -1       854 2.61139E+00
 -1       855 2.79691E+00
 -1       856 3.53677E+00
 -1       857 7.60467E+00
 -1       858 4.15312E+01
 -1       859 2.40262E+01
 -1       860 2.60023E+00
 -1       861 2.60023E+00
 -1       862 1.37167E+00
 -1       863 1.05750E+00
 -1       864 9.40176E-01
 -1       865 9.01463E-01
 -1       866 8.97116E-01
 -1       867 8.97116E-01
 -1       868 8.96910E-01
 -1       869 8.95938E-01
 -1       870 8.96397E-01
 -1       871 8.96397E-01
 -1       872 8.95919E-01
 -1       873 8.64551E-01
 -1       874 1.00292E+00
 -1       875 1.90190E+00
 -1       876 5.00433E+00
 -1       877 3.86459E+01
 -1       878 2.28468E+01
 -1       879 2.00260E+00
 -1       880 1.35657E+00
 -1       881 8.16866E-01
 -1       882 6.57220E-01
 -1       883 6.60040E-01
 -1       884 6.60040E-01
 -1       885 6.56482E-01
 -1       886 6.51269E-01
 -1       887 6.47896E-01
 -1       888 6.45056E-01
 -1       889 6.41075E-01
 -1       890 6.34088E-01
 -1       891 6.24276E-01
 -1       892 7.04059E-01
 -1       893 9.17442E-01
 -1       894 1.47091E+00
 -1       895 5.00433E+00
 -1       896 3.72853E+01
 -1       897 2.40262E+01
 -1       898 2.60023E+00
 -1       899 2.60023E+00
 -1       900 1.37167E+00
 -1       901 1.05750E+00
 -1       902 9.40176E-01
 -1       903 9.01463E-01
 -1       904 8.97116E-01
 -1       905 8.97116E-01
 -1       906 8.96910E-01
 -1       907 8.95938E-01
 -1       908 8.96397E-01
 -1       909 8.96397E-01
 -1       910 8.95919E-01
 -1       911 8.64551E-01
 -1       912 1.00292E+00
 -1       913 1.90190E+00
 -1       914 5.00433E+00
 -1       915 3.86459E+01
 -1       916 2.79065E+01
 -1       917 3.87243E+00
 -1       918 3.87243E+00
 -1       919 2.95100E+00
 -1       920 2.67926E+00
 -1       921 2.67926E+00
 -1       922 2.66188E+00
 -1       923 2.64815E+00
 -1       924 2.63562E+00
 -1       925 2.62612E+00
 -1       926 2.61752E+00
 -1       927 2.60787E+00
 -1       928 2.59558E+00
 -1       929 2.57942E+00
 -1       930 2.61139E+00
 -1       931 2.79691E+00
 -1       932 3.53677E+00
 -1       933 7.60467E+00
 -1       934 4.15312E+01
 -1       935 3.80452E+01
 -1       936 3.80452E+01
 -1       937 3.18926E+01
 -1       938 1.04501E+01
 -1       939 1.04501E+01
 -1       940 1.00710E+01
 -1       941 9.90623E+00
 -1       942 9.81108E+00
 -1       943 9.75485E+00
 -1       944 9.70616E+00
 -1       945 9.65799E+00
 -1       946 9.60752E+00
 -1       947 9.55078E+00
 -1       948 9.48628E+00
 -1       949 9.40021E+00
 -1       950 9.38287E+00
 -1       951 1.08334E+01
 -1       952 1.65816E+01
 -1       953 5.73669E+01
 -1       954 2.88037E+01
 -1       955 8.43108E+00
 -1       956 2.60023E+00
 -1       957 2.34984E+00
 -1       958 2.34984E+00
 -1       959 2.29158E+00
 -1       960 2.25747E+00
 -1       961 2.24091E+00
 -1       962 2.23204E+00
 -1       963 2.22593E+00
 -1       964 2.21997E+00
 -1       965 2.21276E+00
 -1       966 2.20223E+00
 -1       967 2.18875E+00
 -1       968 2.23391E+00
 -1       969 2.32984E+00
 -1       970 2.74570E+00
 -1       971 9.74446E+00
 -1       972 3.86459E+01
 -1       973 2.73094E+01
 -1       974 8.43108E+00
 -1       975 1.38354E+00
 -1       976 1.48655E+00
 -1       977 1.48655E+00
 -1       978 1.41802E+00
 -1       979 1.38652E+00
 -1       980 1.36816E+00
 -1       981 1.36062E+00
 -1       982 1.35644E+00
 -1       983 1.35273E+00
 -1       984 1.34751E+00
 -1       985 1.33865E+00
 -1       986 1.32304E+00
 -1       987 1.34389E+00
 -1       988 1.60617E+00
 -1       989 2.19810E+00
 -1       990 7.20277E+00
 -1       991 3.72853E+01
 -1       992 2.88037E+01
 -1       993 8.43108E+00
 -1       994 2.60023E+00
 -1       995 2.34984E+00
 -1       996 2.34984E+00
 -1       997 2.29158E+00
 -1       998 2.25747E+00
 -1       999 2.24091E+00
 -1      1000 2.23204E+00
 -1      1001 2.22593E+00
 -1      1002 2.21997E+00
 -1      1003 2.21276E+00
 -1      1004 2.20223E+00
 -1      1005 2.18875E+00
 -1      1006 2.23391E+00
 -1      1007 2.32984E+00
 -1      1008 2.74570E+00
 -1      1009 9.74446E+00
 -1      1010 3.86459E+01
 -1      1011 3.80452E+01
 -1      1012 3.80452E+01
 -1      1013 3.18926E+01
 -1      1014 1.04501E+01
 -1      1015 1.04501E+01
 -1      1016 1.00710E+01
 -1      1017 9.90623E+00
 -1      1018 9.81108E+00
 -1      1019 9.75484E+00
 -1      1020 9.70616E+00
 -1      1021 9.65799E+00
 -1      1022 9.60752E+00
 -1      1023 9.55078E+00
 -1      1024 9.48628E+00
 -1      1025 9.40021E+00
 -1      1026 9.38287E+00
 -1      1027 1.08334E+01
 -1      1028 1.65816E+01
 -1      1029 5.73669E+01
 -1      1030 1.92020E+01
 -1      1031 2.23889E+01
 -1      1032 1.92020E+01
 -1      1033 2.51175E+01
 -1      1034 5.61294E+00
 -1      1035 2.72137E+01
 -1      1036 5.61294E+00
 -1      1037 2.85010E+01
 -1      1038 4.82150E+00
 -1      1039 2.92267E+01
 -1      1040 4.07864E+00
 -1      1041 2.92267E+01
 -1      1042 3.30817E+00
 -1      1043 2.91996E+01
 -1      1044 4.07864E+00
 -1      1045 2.92267E+01
 -1      1046 4.82149E+00
 -1      1047 2.92267E+01
 -1      1048 5.61294E+00
 -1      1049 2.85010E+01
 -1      1050 5.61294E+00
 -1      1051 2.72137E+01
 -1      1052 1.92020E+01
 -1      1053 2.51175E+01
 -1      1054 1.92020E+01
 -1      1055 2.23889E+01
 -1      1056 2.99066E+01
 -1      1057 2.43029E+01
 -1      1058 2.99066E+01
 -1      1059 2.76847E+01
 -1      1060 2.03607E+01
 -1      1061 3.08174E+01
 -1      1062 2.08672E+01
 -1      1063 3.43046E+01
 -1      1064 2.08672E+01
 -1      1065 3.67289E+01
 -1      1066 2.02457E+01
 -1      1067 3.75926E+01
 -1      1068 1.87017E+01
 -1      1069 3.75926E+01
 -1      1070 2.02457E+01
 -1      1071 3.75926E+01
 -1      1072 2.08672E+01
 -1      1073 3.67289E+01
 -1      1074 2.08672E+01
 -1      1075 3.43046E+01
 -1      1076 2.03607E+01
 -1      1077 3.08174E+01
 -1      1078 2.99066E+01
 -1      1079 2.76847E+01
 -1      1080 2.99066E+01
 -1      1081 2.43029E+01
 -1      1082 6.43821E+01
 -1      1083 3.26831E+01
 -1      1084 6.43821E+01
 -1      1085 3.62875E+01
 -1      1086 4.48893E+01
 -1      1087 4.54351E+01
 -1      1088 4.00630E+01
 -1      1089 5.43225E+01
 -1      1090 3.92558E+01
 -1      1091 6.08223E+01
 -1      1092 3.74344E+01
 -1      1093 6.36844E+01
 -1      1094 3.52574E+01
 -1      1095 6.36844E+01
 -1      1096 3.74344E+01
 -1      1097 6.36844E+01
 -1      1098 3.92559E+01
 -1      1099 6.08223E+01
 -1      1100 4.00630E+01
 -1      1101 5.43225E+01
 -1      1102 4.48893E+01
 -1      1103 4.54351E+01
 -1      1104 6.43821E+01
 -1      1105 3.62875E+01
 -1      1106 6.43821E+01
 -1      1107 3.26831E+01
 -1      1108 7.80058E+01
 -1      1109 4.89595E+01
 -1      1110 7.80058E+01
 -1      1111 5.20337E+01
 -1      1112 6.15459E+01
 -1      1113 6.01362E+01
 -1      1114 5.59594E+01
 -1      1115 7.04280E+01
 -1      1116 5.23772E+01
 -1      1117 7.88655E+01
 -1      1118 4.93207E+01
 -1      1119 8.91627E+01
 -1      1120 4.74086E+01
 -1      1121 8.91627E+01
 -1      1122 4.93207E+01
 -1      1123 8.91627E+01
 -1      1124 5.23772E+01
 -1      1125 7.88655E+01
 -1      1126 5.59594E+01
 -1      1127 7.04280E+01
 -1      1128 6.15460E+01
 -1      1129 6.01362E+01
 -1      1130 7.80058E+01
 -1      1131 5.20337E+01
 -1      1132 7.80058E+01
 -1      1133 4.89595E+01
 -1      1134 7.80058E+01
 -1      1135 4.97389E+01
 -1      1136 7.80058E+01
 -1      1137 6.31128E+01
 -1      1138 6.73443E+01
 -1      1139 6.31128E+01
 -1      1140 6.73443E+01
 -1      1141 7.04280E+01
 -1      1142 6.17013E+01
 -1      1143 7.88655E+01
 -1      1144 5.65285E+01
 -1      1145 8.91627E+01
 -1      1146 5.57650E+01
 -1      1147 8.91627E+01
 -1      1148 5.65285E+01
 -1      1149 8.91627E+01
 -1      1150 6.17013E+01
 -1      1151 7.88655E+01
 -1      1152 6.73443E+01
 -1      1153 7.04280E+01
 -1      1154 6.73443E+01
 -1      1155 6.31128E+01
 -1      1156 7.80058E+01
 -1      1157 6.31128E+01
 -1      1158 7.80058E+01
 -1      1159 4.97389E+01
 -1      1160 6.86536E+01
 -1      1161 6.33530E+01
 -1      1162 6.86536E+01
 -1      1163 6.33530E+01
 -1      1164 7.22570E+01
 -1      1165 6.31128E+01
 -1      1166 7.22570E+01
 -1      1167 7.78666E+01
 -1      1168 6.47028E+01
 -1      1169 8.58653E+01
 -1      1170 5.92482E+01
 -1      1171 8.71106E+01
 -1      1172 5.80675E+01
 -1      1173 8.71106E+01
 -1      1174 5.92482E+01
 -1      1175 8.71106E+01
 -1      1176 6.47028E+01
 -1      1177 8.58653E+01
 -1      1178 7.22570E+01
 -1      1179 7.78666E+01
 -1      1180 7.22570E+01
 -1      1181 6.31128E+01
 -1      1182 6.86536E+01
 -1      1183 6.33530E+01
 -1      1184 6.86536E+01
 -1      1185 6.33530E+01
 -1      1186 4.55102E+01
 -1      1187 6.33530E+01
 -1      1188 6.68442E+01
 -1      1189 6.33530E+01
 -1      1190 7.22570E+01
 -1      1191 6.28482E+01
 -1      1192 7.22570E+01
 -1      1193 7.78666E+01
 -1      1194 6.47028E+01
 -1      1195 8.58653E+01
 -1      1196 5.92482E+01
 -1      1197 8.71106E+01
 -1      1198 5.80675E+01
 -1      1199 8.71106E+01
 -1      1200 5.92482E+01
 -1      1201 8.71106E+01
 -1      1202 6.47028E+01
 -1      1203 8.58653E+01
 -1      1204 7.22570E+01
 -1      1205 7.78666E+01
 -1      1206 7.22570E+01
 -1      1207 6.28482E+01
 -1      1208 6.68442E+01
 -1      1209 6.33530E+01
 -1      1210 4.55103E+01
 -1      1211 6.33530E+01
 -1      1212 3.09908E+01
 -1      1213 3.09909E+01
 -1      1214 3.09908E+01
 -1      1215 3.09909E+01
 -1      1216 2.64359E+01
 -1      1217 2.64359E+01
 -1      1218 2.32722E+01
 -1      1219 2.32722E+01
 -1      1220 2.17516E+01
 -1      1221 2.17516E+01
 -1      1222 2.17516E+01
 -1      1223 2.17516E+01
 -1      1224 2.16687E+01
 -1      1225 2.16687E+01
 -1      1226 2.15669E+01
 -1      1227 2.15669E+01
 -1      1228 2.15708E+01
 -1      1229 2.15708E+01
 -1      1230 2.15708E+01
 -1      1231 2.15708E+01
 -1      1232 2.15623E+01
 -1      1233 2.15623E+01
 -1      1234 2.15730E+01
 -1      1235 2.15730E+01
 -1      1236 2.16963E+01
 -1      1237 2.16963E+01
 -1      1238 2.19051E+01
 -1      1239 2.19051E+01
 -1      1240 2.19166E+01
 -1      1241 2.19166E+01
 -1      1242 2.19800E+01
 -1      1243 2.19800E+01
 -1      1244 2.35059E+01
 -1      1245 2.35059E+01
 -1      1246 2.35059E+01
 -1      1247 2.35059E+01
 -1      1248 2.89887E+01
 -1      1249 2.89887E+01
 -1      1250 3.58820E+01
 -1      1251 3.58820E+01
 -1      1252 3.96143E+01
 -1      1253 3.96143E+01
 -1      1254 4.28129E+01
 -1      1255 4.28129E+01
 -1      1256 4.28129E+01
 -1      1257 4.28129E+01
 -1      1258 3.09908E+01
 -1      1259 3.09909E+01
 -1      1260 3.09908E+01
 -1      1261 3.09909E+01
 -1      1262 2.97305E+01
 -1      1263 2.97305E+01
 -1      1264 2.70508E+01
 -1      1265 2.70508E+01
 -1      1266 2.72841E+01
 -1      1267 2.72841E+01
 -1      1268 2.72841E+01
 -1      1269 2.72841E+01
 -1      1270 2.69303E+01
 -1      1271 2.69303E+01
 -1      1272 2.66543E+01
 -1      1273 2.66543E+01
 -1      1274 2.66024E+01
 -1      1275 2.66024E+01
 -1      1276 2.65548E+01
 -1      1277 2.65548E+01
 -1      1278 2.65200E+01
 -1      1279 2.65200E+01
 -1      1280 2.65006E+01
 -1      1281 2.65006E+01
 -1      1282 2.65756E+01
 -1      1283 2.65756E+01
 -1      1284 2.70431E+01
 -1      1285 2.70431E+01
 -1      1286 2.74571E+01
 -1      1287 2.74571E+01
 -1      1288 2.74571E+01
 -1      1289 2.74571E+01
 -1      1290 2.98451E+01
 -1      1291 2.98451E+01
 -1      1292 2.98451E+01
 -1      1293 2.98451E+01
 -1      1294 3.22238E+01
 -1      1295 3.22238E+01
 -1      1296 3.73723E+01
 -1      1297 3.73723E+01
 -1      1298 3.96143E+01
 -1      1299 3.96143E+01
 -1      1300 4.28129E+01
 -1      1301 4.28129E+01
 -1      1302 4.28129E+01
 -1      1303 4.28129E+01
 -1      1304 6.43821E+01
 -1      1305 6.43821E+01
 -1      1306 6.25916E+01
 -1      1307 6.25916E+01
 -1      1308 6.61708E+01
 -1      1309 6.61708E+01
 -1      1310 6.82380E+01
 -1      1311 6.82380E+01
 -1      1312 6.85786E+01
 -1      1313 6.85786E+01
 -1      1314 6.85786E+01
 -1      1315 6.85786E+01
 -1      1316 6.83725E+01
 -1      1317 6.83725E+01
 -1      1318 6.81164E+01
 -1      1319 6.81164E+01
 -1      1320 6.79725E+01
 -1      1321 6.79725E+01
 -1      1322 6.78490E+01
 -1      1323 6.78490E+01
 -1      1324 6.77691E+01
 -1      1325 6.77691E+01
 -1      1326 6.77209E+01
 -1      1327 6.77209E+01
 -1      1328 6.76633E+01
 -1      1329 6.76633E+01
 -1      1330 6.79112E+01
 -1      1331 6.79112E+01
 -1      1332 6.83550E+01
 -1      1333 6.83550E+01
 -1      1334 6.83645E+01
 -1      1335 6.83645E+01
 -1      1336 6.96228E+01
 -1      1337 6.96228E+01
 -1      1338 6.96228E+01
 -1      1339 6.96228E+01
 -1      1340 6.78574E+01
 -1      1341 6.78574E+01
 -1      1342 6.49235E+01
 -1      1343 6.49235E+01
 -1      1344 5.37511E+01
 -1      1345 5.37511E+01
 -1      1346 2.75228E+01
 -1      1347 2.75228E+01
 -1      1348 3.26831E+01
 -1      1349 3.26831E+01
 -1      1350 7.89453E+01
 -1      1351 7.89453E+01
 -1      1352 9.25661E+01
 -1      1353 9.25661E+01
 -1      1354 9.83190E+01
 -1      1355 9.83190E+01
 -1      1356 9.83190E+01
 -1      1357 9.83190E+01
 -1      1358 9.82570E+01
 -1      1359 9.82570E+01
 -1      1360 9.79368E+01
 -1      1361 9.79368E+01
 -1      1362 9.77602E+01
 -1      1363 9.77602E+01
 -1      1364 9.76878E+01
 -1      1365 9.76878E+01
 -1      1366 9.76410E+01
 -1      1367 9.76410E+01
 -1      1368 9.75958E+01
 -1      1369 9.75958E+01
 -1      1370 9.75496E+01
 -1      1371 9.75496E+01
 -1      1372 9.75418E+01
 -1      1373 9.75418E+01
 -1      1374 9.75418E+01
 -1      1375 9.75418E+01
 -1      1376 9.75060E+01
 -1      1377 9.75060E+01
 -1      1378 9.73137E+01
 -1      1379 9.73137E+01
 -1      1380 9.75721E+01
 -1      1381 9.75721E+01
 -1      1382 9.75721E+01
 -1      1383 9.75721E+01
 -1      1384 9.87128E+01
 -1      1385 9.87128E+01
 -1      1386 9.87128E+01
 -1      1387 9.87128E+01
 -1      1388 9.26357E+01
 -1      1389 9.26357E+01
 -1      1390 6.36316E+01
 -1      1391 6.36316E+01
 -1      1392 3.26782E+01
 -1      1393 3.26782E+01
 -1      1394 4.89595E+01
 -1      1395 4.89595E+01
 -1      1396 7.89453E+01
 -1      1397 7.89453E+01
 -1      1398 9.25661E+01
 -1      1399 9.25661E+01
 -1      1400 9.83190E+01
 -1      1401 9.83190E+01
 -1      1402 9.83190E+01
 -1      1403 9.83190E+01
 -1      1404 9.82570E+01
 -1      1405 9.82570E+01
 -1      1406 9.79368E+01
 -1      1407 9.79368E+01
 -1      1408 9.77602E+01
 -1      1409 9.77602E+01
 -1      1410 9.76878E+01
 -1      1411 9.76878E+01
 -1      1412 9.76410E+01
 -1      1413 9.76410E+01
 -1      1414 9.75958E+01
 -1      1415 9.75958E+01
 -1      1416 9.75496E+01
 -1      1417 9.75496E+01
 -1      1418 9.75418E+01
 -1      1419 9.75418E+01
 -1      1420 9.75418E+01
 -1      1421 9.75418E+01
 -1      1422 9.75060E+01
 -1      1423 9.75060E+01
 -1      1424 9.73137E+01
 -1      1425 9.73137E+01
 -1      1426 9.75721E+01
 -1      1427 9.75721E+01
 -1      1428 9.75721E+01
 -1      1429 9.75721E+01
 -1      1430 9.87128E+01
 -1      1431 9.87128E+01
 -1      1432 9.87128E+01
 -1      1433 9.87128E+01
 -1      1434 9.26357E+01
 -1      1435 9.26357E+01
 -1      1436 6.76950E+01
 -1      1437 6.76950E+01
 -1      1438 4.89297E+01
 -1      1439 4.89297E+01
 -1      1440 4.97389E+01
 -1      1441 4.97389E+01
 -1      1442 6.86536E+01
 -1      1443 6.86536E+01
 -1      1444 5.51547E+01
 -1      1445 5.51547E+01
 -1      1446 6.25947E+01
 -1      1447 6.25947E+01
 -1      1448 7.01527E+01
 -1      1449 7.01527E+01
 -1      1450 7.60391E+01
 -1      1451 7.60391E+01
 -1      1452 8.03406E+01
 -1      1453 8.03406E+01
 -1      1454 8.25391E+01
 -1      1455 8.25391E+01
 -1      1456 8.25391E+01
 -1      1457 8.25391E+01
 -1      1458 8.23830E+01
 -1      1459 8.23830E+01
 -1      1460 8.22079E+01
 -1      1461 8.22079E+01
 -1      1462 8.20940E+01
 -1      1463 8.20940E+01
 -1      1464 8.21751E+01
 -1      1465 8.21751E+01
 -1      1466 8.21751E+01
 -1      1467 8.21751E+01
 -1      1468 8.20836E+01
 -1      1469 8.20836E+01
 -1      1470 8.07877E+01
 -1      1471 8.07877E+01
 -1      1472 7.84154E+01
 -1      1473 7.84154E+01
 -1      1474 8.06131E+01
 -1      1475 8.06131E+01
 -1      1476 8.06131E+01
 -1      1477 8.06131E+01
 -1      1478 1.00468E+02
 -1      1479 1.00468E+02
 -1      1480 1.00468E+02
 -1      1481 1.00468E+02
 -1      1482 7.06165E+01
 -1      1483 7.06165E+01
 -1      1484 7.78159E+01
 -1      1485 7.78159E+01
 -1      1486 7.78159E+01
 -1      1487 7.78159E+01
 -1      1488 5.23819E+01
 -1      1489 5.23819E+01
 -1      1490 5.23819E+01
 -1      1491 5.23819E+01
 -1      1492 4.43014E+01
 -1      1493 4.43014E+01
 -1      1494 4.40572E+01
 -1      1495 4.40572E+01
 -1      1496 4.52669E+01
 -1      1497 4.52669E+01
 -1      1498 4.52669E+01
 -1      1499 4.52669E+01
 -1      1500 4.50089E+01
 -1      1501 4.50089E+01
 -1      1502 4.44060E+01
 -1      1503 4.44060E+01
 -1      1504 4.39073E+01
 -1      1505 4.39073E+01
 -1      1506 4.36054E+01
 -1      1507 4.36054E+01
 -1      1508 4.34407E+01
 -1      1509 4.34407E+01
 -1      1510 4.33494E+01
 -1      1511 4.33494E+01
 -1      1512 4.34226E+01
 -1      1513 4.34226E+01
 -1      1514 4.39504E+01
 -1      1515 4.39504E+01
 -1      1516 4.51441E+01
 -1      1517 4.51441E+01
 -1      1518 4.51441E+01
 -1      1519 4.51441E+01
 -1      1520 4.49980E+01
 -1      1521 4.49980E+01
 -1      1522 4.69516E+01
 -1      1523 4.69516E+01
 -1      1524 1.00468E+02
 -1      1525 1.00468E+02
 -1      1526 1.00468E+02
 -1      1527 1.00468E+02
 -1      1528 7.06165E+01
 -1      1529 7.06165E+01
 -1      1530 7.78159E+01
 -1      1531 7.78159E+01
 -1      1532 7.78159E+01
 -1      1533 7.78159E+01
 -1      1534 3.09908E+01
 -1      1535 7.02262E+01
 -1      1536 3.09908E+01
 -1      1537 7.26422E+01
 -1      1538 2.64359E+01
 -1      1539 7.62141E+01
 -1      1540 2.32722E+01
 -1      1541 7.89705E+01
 -1      1542 2.17516E+01
 -1      1543 8.24753E+01
 -1      1544 2.17516E+01
 -1      1545 8.58660E+01
 -1      1546 2.16687E+01
 -1      1547 8.82954E+01
 -1      1548 2.15669E+01
 -1      1549 8.96737E+01
 -1      1550 2.15708E+01
 -1      1551 9.03473E+01
 -1      1552 2.15708E+01
 -1      1553 9.06295E+01
 -1      1554 2.15623E+01
 -1      1555 9.07163E+01
 -1      1556 2.15730E+01
 -1      1557 9.07622E+01
 -1      1558 2.16963E+01
 -1      1559 9.07622E+01
 -1      1560 2.19051E+01
 -1      1561 9.07408E+01
 -1      1562 2.19166E+01
 -1      1563 9.02249E+01
 -1      1564 2.19800E+01
 -1      1565 8.76970E+01
 -1      1566 2.35059E+01
 -1      1567 8.38507E+01
 -1      1568 2.35059E+01
 -1      1569 8.51728E+01
 -1      1570 2.89887E+01
 -1      1571 1.00468E+02
 -1      1572 3.58820E+01
 -1      1573 1.00468E+02
 -1      1574 3.96143E+01
 -1      1575 8.22405E+01
 -1      1576 4.28129E+01
 -1      1577 7.78159E+01
 -1      1578 4.28129E+01
 -1      1579 7.78159E+01
 -1      1580 1.95529E+01
 -1      1581 7.22570E+01
 -1      1582 1.95529E+01
 -1      1583 7.26422E+01
 -1      1584 1.04572E+01
 -1      1585 7.62141E+01
 -1      1586 4.90375E+00
 -1      1587 7.89705E+01
 -1      1588 3.89106E+00
 -1      1589 8.24753E+01
 -1      1590 3.89106E+00
 -1      1591 8.58660E+01
 -1      1592 3.76075E+00
 -1      1593 8.82954E+01
 -1      1594 3.67494E+00
 -1      1595 8.96737E+01
 -1      1596 3.65383E+00
 -1      1597 9.03473E+01
 -1      1598 3.65383E+00
 -1      1599 9.06295E+01
 -1      1600 3.65047E+00
 -1      1601 9.07163E+01
 -1      1602 3.66106E+00
 -1      1603 9.07622E+01
 -1      1604 3.72713E+00
 -1      1605 9.07622E+01
 -1      1606 3.83839E+00
 -1      1607 9.07408E+01
 -1      1608 3.84916E+00
 -1      1609 9.02249E+01
 -1      1610 3.84916E+00
 -1      1611 8.76970E+01
 -1      1612 4.87960E+00
 -1      1613 8.38507E+01
 -1      1614 4.93699E+00
 -1      1615 8.51728E+01
 -1      1616 1.45383E+01
 -1      1617 8.63147E+01
 -1      1618 3.08362E+01
 -1      1619 8.63147E+01
 -1      1620 3.90773E+01
 -1      1621 8.22405E+01
 -1      1622 4.02080E+01
 -1      1623 7.26049E+01
 -1      1624 4.02080E+01
 -1      1625 6.95522E+01
 -1      1626 2.02259E+01
 -1      1627 7.22570E+01
 -1      1628 2.02259E+01
 -1      1629 5.60503E+01
 -1      1630 1.09945E+01
 -1      1631 4.46869E+01
 -1      1632 5.24840E+00
 -1      1633 4.29429E+01
 -1      1634 4.19717E+00
 -1      1635 4.29429E+01
 -1      1636 4.19518E+00
 -1      1637 4.27771E+01
 -1      1638 4.06615E+00
 -1      1639 4.26128E+01
 -1      1640 3.98404E+00
 -1      1641 4.25007E+01
 -1      1642 3.96185E+00
 -1      1643 4.24364E+01
 -1      1644 3.96185E+00
 -1      1645 4.24032E+01
 -1      1646 3.95945E+00
 -1      1647 4.23849E+01
 -1      1648 3.96811E+00
 -1      1649 4.23806E+01
 -1      1650 4.03090E+00
 -1      1651 4.23973E+01
 -1      1652 4.14567E+00
 -1      1653 4.24642E+01
 -1      1654 4.17833E+00
 -1      1655 4.26181E+01
 -1      1656 4.17833E+00
 -1      1657 4.28249E+01
 -1      1658 5.55009E+00
 -1      1659 4.28249E+01
 -1      1660 6.08727E+00
 -1      1661 4.97915E+01
 -1      1662 1.52082E+01
 -1      1663 4.99943E+01
 -1      1664 3.08362E+01
 -1      1665 6.33513E+01
 -1      1666 3.97212E+01
 -1      1667 7.49672E+01
 -1      1668 4.21578E+01
 -1      1669 8.82745E+01
 -1      1670 4.21578E+01
 -1      1671 8.82745E+01
 -1      1672 2.02259E+01
 -1      1673 6.47028E+01
 -1      1674 2.02259E+01
 -1      1675 4.64244E+01
 -1      1676 1.09945E+01
 -1      1677 3.04618E+01
 -1      1678 5.24840E+00
 -1      1679 2.76022E+01
 -1      1680 4.19717E+00
 -1      1681 2.76022E+01
 -1      1682 4.19518E+00
 -1      1683 2.73538E+01
 -1      1684 4.06615E+00
 -1      1685 2.71579E+01
 -1      1686 3.98404E+00
 -1      1687 2.70635E+01
 -1      1688 3.96185E+00
 -1      1689 2.70214E+01
 -1      1690 3.96185E+00
 -1      1691 2.70038E+01
 -1      1692 3.95945E+00
 -1      1693 2.70010E+01
 -1      1694 3.96811E+00
 -1      1695 2.70032E+01
 -1      1696 4.03090E+00
 -1      1697 2.70670E+01
 -1      1698 4.14567E+00
 -1      1699 2.71864E+01
 -1      1700 4.17833E+00
 -1      1701 2.75518E+01
 -1      1702 4.17833E+00
 -1      1703 2.75518E+01
 -1      1704 5.55009E+00
 -1      1705 2.79688E+01
 -1      1706 6.08727E+00
 -1      1707 3.88970E+01
 -1      1708 1.52082E+01
 -1      1709 3.90463E+01
 -1      1710 2.98718E+01
 -1      1711 6.20843E+01
 -1      1712 3.97212E+01
 -1      1713 7.56886E+01
 -1      1714 4.30870E+01
 -1      1715 8.82745E+01
 -1      1716 4.30870E+01
 -1      1717 8.82745E+01
 -1      1718 1.96715E+01
 -1      1719 5.92482E+01
 -1      1720 1.96715E+01
 -1      1721 3.36576E+01
 -1      1722 1.01272E+01
 -1      1723 7.76473E+00
 -1      1724 4.73227E+00
 -1      1725 4.12685E+00
 -1      1726 3.91195E+00
 -1      1727 4.11490E+00
 -1      1728 3.90133E+00
 -1      1729 3.96015E+00
 -1      1730 3.77056E+00
 -1      1731 3.85184E+00
 -1      1732 3.68966E+00
 -1      1733 3.80398E+00
 -1      1734 3.66768E+00
 -1      1735 3.78483E+00
 -1      1736 3.66768E+00
 -1      1737 3.77749E+00
 -1      1738 3.66593E+00
 -1      1739 3.77788E+00
 -1      1740 3.67336E+00
 -1      1741 3.78090E+00
 -1      1742 3.73484E+00
 -1      1743 3.81798E+00
 -1      1744 3.85401E+00
 -1      1745 3.88985E+00
 -1      1746 3.90335E+00
 -1      1747 4.05922E+00
 -1      1748 3.90335E+00
 -1      1749 4.05922E+00
 -1      1750 4.95435E+00
 -1      1751 4.08159E+00
 -1      1752 5.65852E+00
 -1      1753 1.91775E+01
 -1      1754 1.44795E+01
 -1      1755 1.91775E+01
 -1      1756 2.87907E+01
 -1      1757 5.68835E+01
 -1      1758 3.91511E+01
 -1      1759 7.56886E+01
 -1      1760 4.32053E+01
 -1      1761 8.72176E+01
 -1      1762 4.32053E+01
 -1      1763 8.72176E+01
 -1      1764 1.81836E+01
 -1      1765 5.80675E+01
 -1      1766 1.81836E+01
 -1      1767 3.20792E+01
 -1      1768 8.27128E+00
 -1      1769 5.08307E+00
 -1      1770 3.98350E+00
 -1      1771 3.12820E+00
 -1      1772 3.19442E+00
 -1      1773 3.10381E+00
 -1      1774 3.18257E+00
 -1      1775 2.95822E+00
 -1      1776 3.04931E+00
 -1      1777 2.85473E+00
 -1      1778 2.96781E+00
 -1      1779 2.80524E+00
 -1      1780 2.94628E+00
 -1      1781 2.78438E+00
 -1      1782 2.94628E+00
 -1      1783 2.77618E+00
 -1      1784 2.94499E+00
 -1      1785 2.77567E+00
 -1      1786 2.95177E+00
 -1      1787 2.77895E+00
 -1      1788 3.01331E+00
 -1      1789 2.81683E+00
 -1      1790 3.13682E+00
 -1      1791 2.89108E+00
 -1      1792 3.19745E+00
 -1      1793 3.07133E+00
 -1      1794 3.19745E+00
 -1      1795 3.07133E+00
 -1      1796 4.28313E+00
 -1      1797 3.05994E+00
 -1      1798 4.60535E+00
 -1      1799 1.74537E+01
 -1      1800 1.27320E+01
 -1      1801 1.74537E+01
 -1      1802 2.72097E+01
 -1      1803 5.48652E+01
 -1      1804 3.80936E+01
 -1      1805 7.56778E+01
 -1      1806 4.32053E+01
 -1      1807 8.72176E+01
 -1      1808 4.32053E+01
 -1      1809 8.72176E+01
 -1      1810 1.96715E+01
 -1      1811 5.92482E+01
 -1      1812 1.96715E+01
 -1      1813 3.36576E+01
 -1      1814 1.01272E+01
 -1      1815 7.76473E+00
 -1      1816 4.73227E+00
 -1      1817 4.12685E+00
 -1      1818 3.91195E+00
 -1      1819 4.11490E+00
 -1      1820 3.90133E+00
 -1      1821 3.96015E+00
 -1      1822 3.77056E+00
 -1      1823 3.85184E+00
 -1      1824 3.68966E+00
 -1      1825 3.80398E+00
 -1      1826 3.66768E+00
 -1      1827 3.78483E+00
 -1      1828 3.66768E+00
 -1      1829 3.77749E+00
 -1      1830 3.66593E+00
 -1      1831 3.77788E+00
 -1      1832 3.67336E+00
 -1      1833 3.78090E+00
 -1      1834 3.73484E+00
 -1      1835 3.81798E+00
 -1      1836 3.85401E+00
 -1      1837 3.88985E+00
 -1      1838 3.90335E+00
 -1      1839 4.05922E+00
 -1      1840 3.90335E+00
 -1      1841 4.05922E+00
 -1      1842 4.95435E+00
 -1      1843 4.08159E+00
 -1      1844 5.65852E+00
 -1      1845 1.91775E+01
 -1      1846 1.44795E+01
 -1      1847 1.91775E+01
 -1      1848 2.87907E+01
 -1      1849 5.68835E+01
 -1      1850 3.91511E+01
 -1      1851 7.56886E+01
 -1      1852 4.32053E+01
 -1      1853 8.72176E+01
 -1      1854 4.32053E+01
 -1      1855 8.72176E+01
 -1      1856 2.02259E+01
 -1      1857 6.47028E+01
 -1      1858 2.02259E+01
 -1      1859 4.64244E+01
 -1      1860 1.09945E+01
 -1      1861 3.04618E+01
 -1      1862 5.24840E+00
 -1      1863 2.76022E+01
 -1      1864 4.19717E+00
 -1      1865 2.76022E+01
 -1      1866 4.19518E+00
 -1      1867 2.73538E+01
 -1      1868 4.06615E+00
 -1      1869 2.71579E+01
 -1      1870 3.98404E+00
 -1      1871 2.70635E+01
 -1      1872 3.96185E+00
 -1      1873 2.70214E+01
 -1      1874 3.96185E+00
 -1      1875 2.70038E+01
 -1      1876 3.95945E+00
 -1      1877 2.70010E+01
 -1      1878 3.96811E+00
 -1      1879 2.70032E+01
 -1      1880 4.03090E+00
 -1      1881 2.70670E+01
 -1      1882 4.14567E+00
 -1      1883 2.71864E+01
 -1      1884 4.17833E+00
 -1      1885 2.75518E+01
 -1      1886 4.17833E+00
 -1      1887 2.75518E+01
 -1      1888 5.55009E+00
 -1      1889 2.79688E+01
 -1      1890 6.08727E+00
 -1      1891 3.88970E+01
 -1      1892 1.52082E+01
 -1      1893 3.90463E+01
 -1      1894 2.98718E+01
 -1      1895 6.20843E+01
 -1      1896 3.97212E+01
 -1      1897 7.56886E+01
 -1      1898 4.30870E+01
 -1      1899 8.82745E+01
 -1      1900 4.30870E+01
 -1      1901 8.82745E+01
 -1      1902 2.02259E+01
 -1      1903 7.22570E+01
 -1      1904 2.02259E+01
 -1      1905 5.60503E+01
 -1      1906 1.09945E+01
 -1      1907 4.46869E+01
 -1      1908 5.24840E+00
 -1      1909 4.29429E+01
 -1      1910 4.19717E+00
 -1      1911 4.29429E+01
 -1      1912 4.19518E+00
 -1      1913 4.27771E+01
 -1      1914 4.06615E+00
 -1      1915 4.26128E+01
 -1      1916 3.98404E+00
 -1      1917 4.25007E+01
 -1      1918 3.96185E+00
 -1      1919 4.24364E+01
 -1      1920 3.96185E+00
 -1      1921 4.24032E+01
 -1      1922 3.95945E+00
 -1      1923 4.23849E+01
 -1      1924 3.96811E+00
 -1      1925 4.23806E+01
 -1      1926 4.03090E+00
 -1      1927 4.23973E+01
 -1      1928 4.14567E+00
 -1      1929 4.24642E+01
 -1      1930 4.17833E+00
 -1      1931 4.26181E+01
 -1      1932 4.17833E+00
 -1      1933 4.28249E+01
 -1      1934 5.55009E+00
 -1      1935 4.28249E+01
 -1      1936 6.08727E+00
 -1      1937 4.97915E+01
 -1      1938 1.52082E+01
 -1      1939 4.99943E+01
 -1      1940 3.08362E+01
 -1      1941 6.33513E+01
 -1      1942 3.97212E+01
 -1      1943 7.49672E+01
 -1      1944 4.21578E+01
 -1      1945 8.82745E+01
 -1      1946 4.21578E+01
 -1      1947 8.82745E+01
 -1      1948 1.95529E+01
 -1      1949 7.22570E+01
 -1      1950 1.95529E+01
 -1      1951 7.26422E+01
 -1      1952 1.04572E+01
 -1      1953 7.62141E+01
 -1      1954 4.90375E+00
 -1      1955 7.89705E+01
 -1      1956 3.89106E+00
 -1      1957 8.24753E+01
 -1      1958 3.89106E+00
 -1      1959 8.58660E+01
 -1      1960 3.76075E+00
 -1      1961 8.82954E+01
 -1      1962 3.67494E+00
 -1      1963 8.96737E+01
 -1      1964 3.65383E+00
 -1      1965 9.03473E+01
 -1      1966 3.65383E+00
 -1      1967 9.06295E+01
 -1      1968 3.65047E+00
 -1      1969 9.07163E+01
 -1      1970 3.66106E+00
 -1      1971 9.07622E+01
 -1      1972 3.72713E+00
 -1      1973 9.07622E+01
 -1      1974 3.83839E+00
 -1      1975 9.07408E+01
 -1      1976 3.84916E+00
 -1      1977 9.02249E+01
 -1      1978 3.84916E+00
 -1      1979 8.76970E+01
 -1      1980 4.87960E+00
 -1      1981 8.38507E+01
 -1      1982 4.93699E+00
 -1      1983 8.51728E+01
 -1      1984 1.45383E+01
 -1      1985 8.63147E+01
 -1      1986 3.08362E+01
 -1      1987 8.63147E+01
 -1      1988 3.90773E+01
 -1      1989 8.22405E+01
 -1      1990 4.02080E+01
 -1      1991 7.26049E+01
 -1      1992 4.02080E+01
 -1      1993 6.95522E+01
 -1      1994 3.09909E+01
 -1      1995 7.02262E+01
 -1      1996 3.09909E+01
 -1      1997 7.26422E+01
 -1      1998 2.64359E+01
 -1      1999 7.62141E+01
 -1      2000 2.32722E+01
 -1      2001 7.89705E+01
 -1      2002 2.17516E+01
 -1      2003 8.24753E+01
 -1      2004 2.17516E+01
 -1      2005 8.58660E+01
 -1      2006 2.16687E+01
 -1      2007 8.82954E+01
 -1      2008 2.15669E+01
 -1      2009 8.96737E+01
 -1      2010 2.15708E+01
 -1      2011 9.03473E+01
 -1      2012 2.15708E+01
 -1      2013 9.06295E+01
 -1      2014 2.15623E+01
 -1      2015 9.07163E+01
 -1      2016 2.15730E+01
 -1      2017 9.07622E+01
 -1      2018 2.16963E+01
 -1      2019 9.07622E+01
 -1      2020 2.19051E+01
 -1      2021 9.07408E+01
 -1      2022 2.19166E+01
 -1      2023 9.02249E+01
 -1      2024 2.19800E+01
 -1      2025 8.76970E+01
 -1      2026 2.35059E+01
 -1      2027 8.38507E+01
 -1      2028 2.35059E+01
 -1      2029 8.51728E+01
 -1      2030 2.89887E+01
 -1      2031 1.00468E+02
 -1      2032 3.58820E+01
 -1      2033 1.00468E+02
 -1      2034 3.96143E+01
 -1      2035 8.22405E+01
 -1      2036 4.28129E+01
 -1      2037 7.78159E+01
 -1      2038 4.28129E+01
 -1      2039 7.78159E+01
 -1      2040 3.09908E+01
 -1      2041 3.09908E+01
 -1      2042 2.97305E+01
 -1      2043 2.70508E+01
 -1      2044 2.72841E+01
 -1      2045 2.72841E+01
 -1      2046 2.69303E+01
 -1      2047 2.66543E+01
 -1      2048 2.66024E+01
 -1      2049 2.65548E+01
 -1      2050 2.65200E+01
 -1      2051 2.65006E+01
 -1      2052 2.65756E+01
 -1      2053 2.70431E+01
 -1      2054 2.74571E+01
 -1      2055 2.74571E+01
 -1      2056 2.98451E+01
 -1      2057 2.98451E+01
 -1      2058 3.22238E+01
 -1      2059 3.73723E+01
 -1      2060 3.96143E+01
 -1      2061 4.28129E+01
 -1      2062 4.28129E+01
 -1      2063 2.05295E+01
 -1      2064 2.05295E+01
 -1      2065 1.32506E+01
 -1      2066 6.53543E+00
 -1      2067 5.36779E+00
 -1      2068 5.25261E+00
 -1      2069 4.91683E+00
 -1      2070 4.81311E+00
 -1      2071 4.78012E+00
 -1      2072 4.77940E+00
 -1      2073 4.77683E+00
 -1      2074 4.77659E+00
 -1      2075 4.83364E+00
 -1      2076 4.97408E+00
 -1      2077 5.21620E+00
 -1      2078 5.21620E+00
 -1      2079 8.54290E+00
 -1      2080 8.93166E+00
 -1      2081 1.78373E+01
 -1      2082 3.62895E+01
 -1      2083 3.90773E+01
 -1      2084 4.02080E+01
 -1      2085 4.02080E+01
 -1      2086 2.08672E+01
 -1      2087 2.05295E+01
 -1      2088 1.32506E+01
 -1      2089 6.53543E+00
 -1      2090 5.36779E+00
 -1      2091 5.25261E+00
 -1      2092 4.91683E+00
 -1      2093 4.81311E+00
 -1      2094 4.78012E+00
 -1      2095 4.77940E+00
 -1      2096 4.77683E+00
 -1      2097 4.77659E+00
 -1      2098 4.83364E+00
 -1      2099 4.97408E+00
 -1      2100 5.21620E+00
 -1      2101 5.21620E+00
 -1      2102 8.54290E+00
 -1      2103 8.93166E+00
 -1      2104 1.78373E+01
 -1      2105 3.63464E+01
 -1      2106 3.97212E+01
 -1      2107 4.21578E+01
 -1      2108 4.21578E+01
 -1      2109 2.08672E+01
 -1      2110 2.05278E+01
 -1      2111 1.25741E+01
 -1      2112 5.61927E+00
 -1      2113 4.88802E+00
 -1      2114 4.83749E+00
 -1      2115 4.66747E+00
 -1      2116 4.57119E+00
 -1      2117 4.53991E+00
 -1      2118 4.53991E+00
 -1      2119 4.53862E+00
 -1      2120 4.53862E+00
 -1      2121 4.59014E+00
 -1      2122 4.73125E+00
 -1      2123 4.86698E+00
 -1      2124 4.86698E+00
 -1      2125 7.94589E+00
 -1      2126 8.83252E+00
 -1      2127 1.74478E+01
 -1      2128 3.63464E+01
 -1      2129 3.97212E+01
 -1      2130 4.30870E+01
 -1      2131 4.30870E+01
 -1      2132 2.02457E+01
 -1      2133 1.96715E+01
 -1      2134 1.04324E+01
 -1      2135 4.73227E+00
 -1      2136 4.00097E+00
 -1      2137 3.94332E+00
 -1      2138 3.77278E+00
 -1      2139 3.68966E+00
 -1      2140 3.66768E+00
 -1      2141 3.66768E+00
 -1      2142 3.66593E+00
 -1      2143 3.67336E+00
 -1      2144 3.73484E+00
 -1      2145 3.85401E+00
 -1      2146 4.00108E+00
 -1      2147 4.00108E+00
 -1      2148 5.73148E+00
 -1      2149 6.92589E+00
 -1      2150 1.56409E+01
 -1      2151 3.49226E+01
 -1      2152 3.91511E+01
 -1      2153 4.32053E+01
 -1      2154 4.32053E+01
 -1      2155 1.87017E+01
 -1      2156 1.81836E+01
 -1      2157 8.27128E+00
 -1      2158 3.98350E+00
 -1      2159 3.19442E+00
 -1      2160 3.18257E+00
 -1      2161 3.04931E+00
 -1      2162 2.96781E+00
 -1      2163 2.94628E+00
 -1      2164 2.94628E+00
 -1      2165 2.94499E+00
 -1      2166 2.95177E+00
 -1      2167 3.01331E+00
 -1      2168 3.13682E+00
 -1      2169 3.19745E+00
 -1      2170 3.19745E+00
 -1      2171 4.28313E+00
 -1      2172 4.60535E+00
 -1      2173 1.27320E+01
 -1      2174 3.28530E+01
 -1      2175 3.80936E+01
 -1      2176 4.32053E+01
 -1      2177 4.32053E+01
 -1      2178 2.02457E+01
 -1      2179 1.96715E+01
 -1      2180 1.04324E+01
 -1      2181 4.73227E+00
 -1      2182 4.00097E+00
 -1      2183 3.94332E+00
 -1      2184 3.77278E+00
 -1      2185 3.68966E+00
 -1      2186 3.66768E+00
 -1      2187 3.66768E+00
 -1      2188 3.66593E+00
 -1      2189 3.67336E+00
 -1      2190 3.73484E+00
 -1      2191 3.85401E+00
 -1      2192 4.00108E+00
 -1      2193 4.00108E+00
 -1      2194 5.73148E+00
 -1      2195 6.92589E+00
 -1      2196 1.56409E+01
 -1      2197 3.49226E+01
 -1      2198 3.91511E+01
 -1      2199 4.32053E+01
 -1      2200 4.32053E+01
 -1      2201 2.08672E+01
 -1      2202 2.05278E+01
 -1      2203 1.25741E+01
 -1      2204 5.61927E+00
 -1      2205 4.88802E+00
 -1      2206 4.83749E+00
 -1      2207 4.66747E+00
 -1      2208 4.57119E+00
 -1      2209 4.53991E+00
 -1      2210 4.53991E+00
 -1      2211 4.53862E+00
 -1      2212 4.53862E+00
 -1      2213 4.59014E+00
 -1      2214 4.73125E+00
 -1      2215 4.86698E+00
 -1      2216 4.86698E+00
 -1      2217 7.94589E+00
 -1      2218 8.83252E+00
 -1      2219 1.74478E+01
 -1      2220 3.63464E+01
 -1      2221 3.97212E+01
 -1      2222 4.30870E+01
 -1      2223 4.30870E+01
 -1      2224 2.08672E+01
 -1      2225 2.05295E+01
 -1      2226 1.32506E+01
 -1      2227 6.53543E+00
 -1      2228 5.36779E+00
 -1      2229 5.25261E+00
 -1      2230 4.91683E+00
 -1      2231 4.81311E+00
 -1      2232 4.78012E+00
 -1      2233 4.77940E+00
 -1      2234 4.77683E+00
 -1      2235 4.77659E+00
 -1      2236 4.83364E+00
 -1      2237 4.97408E+00
 -1      2238 5.21620E+00
 -1      2239 5.21620E+00
 -1      2240 8.54290E+00
 -1      2241 8.93166E+00
 -1      2242 1.78373E+01
 -1      2243 3.63464E+01
 -1      2244 3.97212E+01
 -1      2245 4.21578E+01
 -1      2246 4.21578E+01
 -1      2247 2.05295E+01
 -1      2248 2.05295E+01
 -1      2249 1.32506E+01
 -1      2250 6.53543E+00
 -1      2251 5.36779E+00
 -1      2252 5.25261E+00
 -1      2253 4.91683E+00
 -1      2254 4.81311E+00
 -1      2255 4.78012E+00
 -1      2256 4.77940E+00
 -1      2257 4.77683E+00
 -1      2258 4.77659E+00
 -1      2259 4.83364E+00
 -1      2260 4.97408E+00
 -1      2261 5.21620E+00
 -1      2262 5.21620E+00
 -1      2263 8.54290E+00
 -1      2264 8.93166E+00
 -1      2265 1.78373E+01
 -1      2266 3.62895E+01
 -1      2267 3.90773E+01
 -1      2268 4.02080E+01
 -1      2269 4.02080E+01
 -1      2270 3.09909E+01
 -1      2271 3.09909E+01
 -1      2272 2.97305E+01
 -1      2273 2.70508E+01
 -1      2274 2.72841E+01
 -1      2275 2.72841E+01
 -1      2276 2.69303E+01
 -1      2277 2.66543E+01
 -1      2278 2.66024E+01
 -1      2279 2.65548E+01
 -1      2280 2.65200E+01
 -1      2281 2.65006E+01
 -1      2282 2.65756E+01
 -1      2283 2.70431E+01
 -1      2284 2.74571E+01
 -1      2285 2.74571E+01
 -1      2286 2.98451E+01
 -1      2287 2.98451E+01
 -1      2288 3.22238E+01
 -1      2289 3.73723E+01
 -1      2290 3.96143E+01
 -1      2291 4.28129E+01
 -1      2292 4.28129E+01
 -1      2293 6.43821E+01
 -1      2294 6.25916E+01
 -1      2295 6.61708E+01
 -1      2296 6.82380E+01
 -1      2297 6.85786E+01
 -1      2298 6.85786E+01
 -1      2299 6.83725E+01
 -1      2300 6.81164E+01
 -1      2301 6.79725E+01
 -1      2302 6.78490E+01
 -1      2303 6.77691E+01
 -1      2304 6.77209E+01
 -1      2305 6.76633E+01
 -1      2306 6.79112E+01
 -1      2307 6.83550E+01
 -1      2308 6.83645E+01
 -1      2309 6.96228E+01
 -1      2310 6.96228E+01
 -1      2311 6.78574E+01
 -1      2312 6.49235E+01
 -1      2313 5.37511E+01
 -1      2314 2.92759E+01
 -1      2315 3.62875E+01
 -1      2316 4.48893E+01
 -1      2317 3.14812E+01
 -1      2318 2.59480E+01
 -1      2319 2.07087E+01
 -1      2320 2.07087E+01
 -1      2321 2.05570E+01
 -1      2322 2.01083E+01
 -1      2323 1.98442E+01
 -1      2324 1.97464E+01
 -1      2325 1.97360E+01
 -1      2326 1.97335E+01
 -1      2327 1.97335E+01
 -1      2328 1.98183E+01
 -1      2329 2.02113E+01
 -1      2330 2.05962E+01
 -1      2331 2.05962E+01
 -1      2332 2.35912E+01
 -1      2333 2.41762E+01
 -1      2334 3.10319E+01
 -1      2335 4.40079E+01
 -1      2336 4.40079E+01
 -1      2337 3.41045E+01
 -1      2338 4.54351E+01
 -1      2339 4.00630E+01
 -1      2340 2.75010E+01
 -1      2341 1.85170E+01
 -1      2342 1.20275E+01
 -1      2343 1.20082E+01
 -1      2344 1.18039E+01
 -1      2345 1.13665E+01
 -1      2346 1.11264E+01
 -1      2347 1.10428E+01
 -1      2348 1.10398E+01
 -1      2349 1.10447E+01
 -1      2350 1.10447E+01
 -1      2351 1.11434E+01
 -1      2352 1.15063E+01
 -1      2353 1.19249E+01
 -1      2354 1.19249E+01
 -1      2355 1.51123E+01
 -1      2356 1.68765E+01
 -1      2357 2.44112E+01
 -1      2358 4.27975E+01
 -1      2359 4.27975E+01
 -1      2360 3.47462E+01
 -1      2361 5.43225E+01
 -1      2362 3.92558E+01
 -1      2363 2.46665E+01
 -1      2364 1.35610E+01
 -1      2365 6.73897E+00
 -1      2366 6.73897E+00
 -1      2367 6.51527E+00
 -1      2368 6.07666E+00
 -1      2369 5.84486E+00
 -1      2370 5.76967E+00
 -1      2371 5.77314E+00
 -1      2372 5.77968E+00
 -1      2373 5.77968E+00
 -1      2374 5.87050E+00
 -1      2375 6.22463E+00
 -1      2376 6.72390E+00
 -1      2377 6.72390E+00
 -1      2378 1.02455E+01
 -1      2379 1.25320E+01
 -1      2380 1.99170E+01
 -1      2381 4.23226E+01
 -1      2382 4.23226E+01
 -1      2383 3.47462E+01
 -1      2384 6.08223E+01
 -1      2385 3.74344E+01
 -1      2386 2.08899E+01
 -1      2387 1.04324E+01
 -1      2388 4.29726E+00
 -1      2389 4.00097E+00
 -1      2390 3.94332E+00
 -1      2391 3.77278E+00
 -1      2392 3.67886E+00
 -1      2393 3.64946E+00
 -1      2394 3.64946E+00
 -1      2395 3.64945E+00
 -1      2396 3.64945E+00
 -1      2397 3.69856E+00
 -1      2398 3.84326E+00
 -1      2399 4.00108E+00
 -1      2400 4.00108E+00
 -1      2401 5.73148E+00
 -1      2402 8.51383E+00
 -1      2403 1.57493E+01
 -1      2404 4.05286E+01
 -1      2405 4.05286E+01
 -1      2406 3.39424E+01
 -1      2407 6.36844E+01
 -1      2408 3.52574E+01
 -1      2409 1.74947E+01
 -1      2410 7.14275E+00
 -1      2411 2.90178E+00
 -1      2412 2.61564E+00
 -1      2413 2.55205E+00
 -1      2414 2.37515E+00
 -1      2415 2.27958E+00
 -1      2416 2.25120E+00
 -1      2417 2.25120E+00
 -1      2418 2.25229E+00
 -1      2419 2.25229E+00
 -1      2420 2.30159E+00
 -1      2421 2.45182E+00
 -1      2422 2.62493E+00
 -1      2423 2.62493E+00
 -1      2424 3.96487E+00
 -1      2425 4.73481E+00
 -1      2426 1.26138E+01
 -1      2427 3.82424E+01
 -1      2428 3.82424E+01
 -1      2429 3.24065E+01
 -1      2430 6.36844E+01
 -1      2431 3.74344E+01
 -1      2432 2.08899E+01
 -1      2433 1.04324E+01
 -1      2434 4.29726E+00
 -1      2435 4.00097E+00
 -1      2436 3.94332E+00
 -1      2437 3.77278E+00
 -1      2438 3.67886E+00
 -1      2439 3.64946E+00
 -1      2440 3.64946E+00
 -1      2441 3.64945E+00
 -1      2442 3.64945E+00
 -1      2443 3.69856E+00
 -1      2444 3.84326E+00
 -1      2445 4.00108E+00
 -1      2446 4.00108E+00
 -1      2447 5.73148E+00
 -1      2448 8.51383E+00
 -1      2449 1.57493E+01
 -1      2450 4.05286E+01
 -1      2451 4.05286E+01
 -1      2452 3.39424E+01
 -1      2453 6.36844E+01
 -1      2454 3.92559E+01
 -1      2455 2.46665E+01
 -1      2456 1.35610E+01
 -1      2457 6.73897E+00
 -1      2458 6.73897E+00
 -1      2459 6.51527E+00
 -1      2460 6.07666E+00
 -1      2461 5.84486E+00
 -1      2462 5.76967E+00
 -1      2463 5.77314E+00
 -1      2464 5.77968E+00
 -1      2465 5.77968E+00
 -1      2466 5.87050E+00
 -1      2467 6.22463E+00
 -1      2468 6.72390E+00
 -1      2469 6.72390E+00
 -1      2470 1.02455E+01
 -1      2471 1.25320E+01
 -1      2472 1.99170E+01
 -1      2473 4.23226E+01
 -1      2474 4.23226E+01
 -1      2475 3.47462E+01
 -1      2476 6.08223E+01
 -1      2477 4.00630E+01
 -1      2478 2.75010E+01
 -1      2479 1.85170E+01
 -1      2480 1.20275E+01
 -1      2481 1.20082E+01
 -1      2482 1.18039E+01
 -1      2483 1.13665E+01
 -1      2484 1.11264E+01
 -1      2485 1.10428E+01
 -1      2486 1.10398E+01
 -1      2487 1.10447E+01
 -1      2488 1.10447E+01
 -1      2489 1.11434E+01
 -1      2490 1.15063E+01
 -1      2491 1.19249E+01
 -1      2492 1.19249E+01
 -1      2493 1.51123E+01
 -1      2494 1.68765E+01
 -1      2495 2.44112E+01
 -1      2496 4.27975E+01
 -1      2497 4.27975E+01
 -1      2498 3.47462E+01
 -1      2499 5.43225E+01
 -1      2500 4.48893E+01
 -1      2501 3.14812E+01
 -1      2502 2.59480E+01
 -1      2503 2.07087E+01
 -1      2504 2.07087E+01
 -1      2505 2.05570E+01
 -1      2506 2.01083E+01
 -1      2507 1.98442E+01
 -1      2508 1.97464E+01
 -1      2509 1.97360E+01
 -1      2510 1.97335E+01
 -1      2511 1.97335E+01
 -1      2512 1.98183E+01
 -1      2513 2.02113E+01
 -1      2514 2.05962E+01
 -1      2515 2.05962E+01
 -1      2516 2.35912E+01
 -1      2517 2.41762E+01
 -1      2518 3.10319E+01
 -1      2519 4.40079E+01
 -1      2520 4.40079E+01
 -1      2521 3.41045E+01
 -1      2522 4.54351E+01
 -1      2523 6.43821E+01
 -1      2524 6.25916E+01
 -1      2525 6.61708E+01
 -1      2526 6.82380E+01
 -1      2527 6.85786E+01
 -1      2528 6.85786E+01
 -1      2529 6.83725E+01
 -1      2530 6.81164E+01
 -1      2531 6.79725E+01
 -1      2532 6.78490E+01
 -1      2533 6.77691E+01
 -1      2534 6.77209E+01
 -1      2535 6.76633E+01
 -1      2536 6.79112E+01
 -1      2537 6.83550E+01
 -1      2538 6.83645E+01
 -1      2539 6.96228E+01
 -1      2540 6.96228E+01
 -1      2541 6.78574E+01
 -1      2542 6.49235E+01
 -1      2543 5.37511E+01
 -1      2544 2.92759E+01
 -1      2545 3.62875E+01
 -1      2546 7.89453E+01
 -1      2547 9.25661E+01
 -1      2548 9.83190E+01
 -1      2549 9.83190E+01
 -1      2550 9.82570E+01
 -1      2551 9.79368E+01
 -1      2552 9.77602E+01
 -1      2553 9.76878E+01
 -1      2554 9.76410E+01
 -1      2555 9.75958E+01
 -1      2556 9.75496E+01
 -1      2557 9.75418E+01
 -1      2558 9.75418E+01
 -1      2559 9.75060E+01
 -1      2560 9.73137E+01
 -1      2561 9.75721E+01
 -1      2562 9.75721E+01
 -1      2563 9.87128E+01
 -1      2564 9.87128E+01
 -1      2565 9.26357E+01
 -1      2566 6.36316E+01
 -1      2567 3.26782E+01
 -1      2568 5.20337E+01
 -1      2569 6.15459E+01
 -1      2570 4.37793E+01
 -1      2571 3.79077E+01
 -1      2572 3.52795E+01
 -1      2573 3.52795E+01
 -1      2574 3.50307E+01
 -1      2575 3.46307E+01
 -1      2576 3.44007E+01
 -1      2577 3.43047E+01
 -1      2578 3.42659E+01
 -1      2579 3.42617E+01
 -1      2580 3.42617E+01
 -1      2581 3.42749E+01
 -1      2582 3.45707E+01
 -1      2583 3.50079E+01
 -1      2584 3.50079E+01
 -1      2585 3.74082E+01
 -1      2586 3.95646E+01
 -1      2587 4.27729E+01
 -1      2588 5.10208E+01
 -1      2589 5.10208E+01
 -1      2590 3.70784E+01
 -1      2591 6.01362E+01
 -1      2592 5.59594E+01
 -1      2593 3.73496E+01
 -1      2594 2.73174E+01
 -1      2595 2.26491E+01
 -1      2596 2.26491E+01
 -1      2597 2.23203E+01
 -1      2598 2.19360E+01
 -1      2599 2.17403E+01
 -1      2600 2.16707E+01
 -1      2601 2.16496E+01
 -1      2602 2.16581E+01
 -1      2603 2.16581E+01
 -1      2604 2.17120E+01
 -1      2605 2.19860E+01
 -1      2606 2.24159E+01
 -1      2607 2.24159E+01
 -1      2608 2.47716E+01
 -1      2609 2.92094E+01
 -1      2610 3.34020E+01
 -1      2611 4.99806E+01
 -1      2612 4.99806E+01
 -1      2613 4.21738E+01
 -1      2614 7.04280E+01
 -1      2615 5.23772E+01
 -1      2616 3.14305E+01
 -1      2617 1.79999E+01
 -1      2618 1.25226E+01
 -1      2619 1.25226E+01
 -1      2620 1.21471E+01
 -1      2621 1.17407E+01
 -1      2622 1.15428E+01
 -1      2623 1.14790E+01
 -1      2624 1.14692E+01
 -1      2625 1.14782E+01
 -1      2626 1.14782E+01
 -1      2627 1.15417E+01
 -1      2628 1.18206E+01
 -1      2629 1.23015E+01
 -1      2630 1.23015E+01
 -1      2631 1.51141E+01
 -1      2632 2.09693E+01
 -1      2633 2.50734E+01
 -1      2634 4.84562E+01
 -1      2635 4.84562E+01
 -1      2636 4.44896E+01
 -1      2637 7.88655E+01
 -1      2638 4.93207E+01
 -1      2639 2.52941E+01
 -1      2640 9.35387E+00
 -1      2641 4.03649E+00
 -1      2642 4.03649E+00
 -1      2643 3.87385E+00
 -1      2644 3.70473E+00
 -1      2645 3.62441E+00
 -1      2646 3.60021E+00
 -1      2647 3.59890E+00
 -1      2648 3.60287E+00
 -1      2649 3.60287E+00
 -1      2650 3.62886E+00
 -1      2651 3.73949E+00
 -1      2652 3.94132E+00
 -1      2653 3.98386E+00
 -1      2654 5.59855E+00
 -1      2655 1.24953E+01
 -1      2656 1.63400E+01
 -1      2657 4.58880E+01
 -1      2658 4.58880E+01
 -1      2659 4.44943E+01
 -1      2660 8.91627E+01
 -1      2661 4.74086E+01
 -1      2662 2.15464E+01
 -1      2663 5.08906E+00
 -1      2664 2.05710E+00
 -1      2665 2.05710E+00
 -1      2666 1.94461E+00
 -1      2667 1.76297E+00
 -1      2668 1.66630E+00
 -1      2669 1.63355E+00
 -1      2670 1.63275E+00
 -1      2671 1.63529E+00
 -1      2672 1.63529E+00
 -1      2673 1.66999E+00
 -1      2674 1.81826E+00
 -1      2675 2.07123E+00
 -1      2676 2.07123E+00
 -1      2677 3.37892E+00
 -1      2678 6.93884E+00
 -1      2679 1.18086E+01
 -1      2680 4.35489E+01
 -1      2681 4.35489E+01
 -1      2682 4.44943E+01
 -1      2683 8.91627E+01
 -1      2684 4.93207E+01
 -1      2685 2.52941E+01
 -1      2686 9.35387E+00
 -1      2687 4.03649E+00
 -1      2688 4.03649E+00
 -1      2689 3.87385E+00
 -1      2690 3.70473E+00
 -1      2691 3.62441E+00
 -1      2692 3.60021E+00
 -1      2693 3.59890E+00
 -1      2694 3.60287E+00
 -1      2695 3.60287E+00
 -1      2696 3.62886E+00
 -1      2697 3.73948E+00
 -1      2698 3.94132E+00
 -1      2699 3.98386E+00
 -1      2700 5.59855E+00
 -1      2701 1.24953E+01
 -1      2702 1.63400E+01
 -1      2703 4.58880E+01
 -1      2704 4.58880E+01
 -1      2705 4.44943E+01
 -1      2706 8.91627E+01
 -1      2707 5.23772E+01
 -1      2708 3.14305E+01
 -1      2709 1.79999E+01
 -1      2710 1.25226E+01
 -1      2711 1.25226E+01
 -1      2712 1.21471E+01
 -1      2713 1.17407E+01
 -1      2714 1.15428E+01
 -1      2715 1.14790E+01
 -1      2716 1.14692E+01
 -1      2717 1.14782E+01
 -1      2718 1.14782E+01
 -1      2719 1.15417E+01
 -1      2720 1.18206E+01
 -1      2721 1.23015E+01
 -1      2722 1.23015E+01
 -1      2723 1.51141E+01
 -1      2724 2.09693E+01
 -1      2725 2.50734E+01
 -1      2726 4.84562E+01
 -1      2727 4.84562E+01
 -1      2728 4.44896E+01
 -1      2729 7.88655E+01
 -1      2730 5.59594E+01
 -1      2731 3.73496E+01
 -1      2732 2.73174E+01
 -1      2733 2.26491E+01
 -1      2734 2.26491E+01
 -1      2735 2.23203E+01
 -1      2736 2.19360E+01
 -1      2737 2.17403E+01
 -1      2738 2.16707E+01
 -1      2739 2.16496E+01
 -1      2740 2.16581E+01
 -1      2741 2.16581E+01
 -1      2742 2.17120E+01
 -1      2743 2.19860E+01
 -1      2744 2.24159E+01
 -1      2745 2.24159E+01
 -1      2746 2.47716E+01
 -1      2747 2.92094E+01
 -1      2748 3.34020E+01
 -1      2749 4.99806E+01
 -1      2750 4.99806E+01
 -1      2751 4.21738E+01
 -1      2752 7.04280E+01
 -1      2753 6.15460E+01
 -1      2754 4.37793E+01
 -1      2755 3.79077E+01
 -1      2756 3.52795E+01
 -1      2757 3.52795E+01
 -1      2758 3.50307E+01
 -1      2759 3.46307E+01
 -1      2760 3.44007E+01
 -1      2761 3.43047E+01
 -1      2762 3.42659E+01
 -1      2763 3.42617E+01
 -1      2764 3.42617E+01
 -1      2765 3.42749E+01
 -1      2766 3.45707E+01
 -1      2767 3.50079E+01
 -1      2768 3.50079E+01
 -1      2769 3.74082E+01
 -1      2770 3.95646E+01
 -1      2771 4.27729E+01
 -1      2772 5.10208E+01
 -1      2773 5.10208E+01
 -1      2774 3.70784E+01
 -1      2775 6.01362E+01
 -1      2776 7.89453E+01
 -1      2777 9.25661E+01
 -1      2778 9.83190E+01
 -1      2779 9.83190E+01
 -1      2780 9.82570E+01
 -1      2781 9.79368E+01
 -1      2782 9.77602E+01
 -1      2783 9.76878E+01
 -1      2784 9.76410E+01
 -1      2785 9.75958E+01
 -1      2786 9.75496E+01
 -1      2787 9.75418E+01
 -1      2788 9.75418E+01
 -1      2789 9.75060E+01
 -1      2790 9.73137E+01
 -1      2791 9.75721E+01
 -1      2792 9.75721E+01
 -1      2793 9.87128E+01
 -1      2794 9.87128E+01
 -1      2795 9.26357E+01
 -1      2796 6.36316E+01
 -1      2797 3.26782E+01
 -1      2798 5.20337E+01
 -1      2799 7.89453E+01
 -1      2800 9.25661E+01
 -1      2801 9.83190E+01
 -1      2802 9.83190E+01
 -1      2803 9.82570E+01
 -1      2804 9.79368E+01
 -1      2805 9.77602E+01
 -1      2806 9.76878E+01
 -1      2807 9.76410E+01
 -1      2808 9.75958E+01
 -1      2809 9.75496E+01
 -1      2810 9.75418E+01
 -1      2811 9.75418E+01
 -1      2812 9.75060E+01
 -1      2813 9.73137E+01
 -1      2814 9.75721E+01
 -1      2815 9.75721E+01
 -1      2816 9.87128E+01
 -1      2817 9.87128E+01
 -1      2818 9.26357E+01
 -1      2819 6.76950E+01
 -1      2820 7.32561E+01
 -1      2821 7.32561E+01
 -1      2822 6.73443E+01
 -1      2823 5.24152E+01
 -1      2824 4.60720E+01
 -1      2825 4.62408E+01
 -1      2826 4.62408E+01
 -1      2827 4.59763E+01
 -1      2828 4.56102E+01
 -1      2829 4.53757E+01
 -1      2830 4.52566E+01
 -1      2831 4.51959E+01
 -1      2832 4.51572E+01
 -1      2833 4.51592E+01
 -1      2834 4.51592E+01
 -1      2835 4.51966E+01
 -1      2836 4.55205E+01
 -1      2837 4.57908E+01
 -1      2838 4.76659E+01
 -1      2839 5.10077E+01
 -1      2840 5.10077E+01
 -1      2841 5.68988E+01
 -1      2842 5.68988E+01
 -1      2843 7.43586E+01
 -1      2844 7.43586E+01
 -1      2845 6.73443E+01
 -1      2846 4.87453E+01
 -1      2847 3.87998E+01
 -1      2848 3.59181E+01
 -1      2849 3.59181E+01
 -1      2850 3.56426E+01
 -1      2851 3.53722E+01
 -1      2852 3.52387E+01
 -1      2853 3.51831E+01
 -1      2854 3.51599E+01
 -1      2855 3.51551E+01
 -1      2856 3.51564E+01
 -1      2857 3.51739E+01
 -1      2858 3.53341E+01
 -1      2859 3.56542E+01
 -1      2860 3.58954E+01
 -1      2861 3.61724E+01
 -1      2862 4.31256E+01
 -1      2863 4.42610E+01
 -1      2864 5.68988E+01
 -1      2865 5.68988E+01
 -1      2866 7.55445E+01
 -1      2867 7.55445E+01
 -1      2868 6.17013E+01
 -1      2869 3.85785E+01
 -1      2870 2.31044E+01
 -1      2871 1.90091E+01
 -1      2872 1.90091E+01
 -1      2873 1.86797E+01
 -1      2874 1.83512E+01
 -1      2875 1.82068E+01
 -1      2876 1.81542E+01
 -1      2877 1.81364E+01
 -1      2878 1.81422E+01
 -1      2879 1.81422E+01
 -1      2880 1.81852E+01
 -1      2881 1.83980E+01
 -1      2882 1.87612E+01
 -1      2883 1.91036E+01
 -1      2884 1.95012E+01
 -1      2885 3.00580E+01
 -1      2886 3.09307E+01
 -1      2887 5.49758E+01
 -1      2888 5.49758E+01
 -1      2889 7.62466E+01
 -1      2890 7.88655E+01
 -1      2891 5.65285E+01
 -1      2892 2.82156E+01
 -1      2893 8.67278E+00
 -1      2894 4.03649E+00
 -1      2895 4.03649E+00
 -1      2896 3.87385E+00
 -1      2897 3.70473E+00
 -1      2898 3.62441E+00
 -1      2899 3.60021E+00
 -1      2900 3.59890E+00
 -1      2901 3.60287E+00
 -1      2902 3.60287E+00
 -1      2903 3.62886E+00
 -1      2904 3.73949E+00
 -1      2905 3.94132E+00
 -1      2906 3.98386E+00
 -1      2907 5.59855E+00
 -1      2908 1.63986E+01
 -1      2909 1.63986E+01
 -1      2910 5.11156E+01
 -1      2911 5.11156E+01
 -1      2912 7.71568E+01
 -1      2913 8.91627E+01
 -1      2914 5.57650E+01
 -1      2915 2.63139E+01
 -1      2916 4.37100E+00
 -1      2917 2.10708E+00
 -1      2918 2.10708E+00
 -1      2919 1.93650E+00
 -1      2920 1.77584E+00
 -1      2921 1.70958E+00
 -1      2922 1.68778E+00
 -1      2923 1.68232E+00
 -1      2924 1.68667E+00
 -1      2925 1.68667E+00
 -1      2926 1.71214E+00
 -1      2927 1.81582E+00
 -1      2928 1.96917E+00
 -1      2929 2.18832E+00
 -1      2930 2.91084E+00
 -1      2931 1.26604E+01
 -1      2932 1.26604E+01
 -1      2933 4.89950E+01
 -1      2934 4.89950E+01
 -1      2935 7.71568E+01
 -1      2936 8.91627E+01
 -1      2937 5.65285E+01
 -1      2938 2.82156E+01
 -1      2939 8.67278E+00
 -1      2940 4.03649E+00
 -1      2941 4.03649E+00
 -1      2942 3.87385E+00
 -1      2943 3.70473E+00
 -1      2944 3.62441E+00
 -1      2945 3.60021E+00
 -1      2946 3.59890E+00
 -1      2947 3.60287E+00
 -1      2948 3.60287E+00
 -1      2949 3.62886E+00
 -1      2950 3.73948E+00
 -1      2951 3.94132E+00
 -1      2952 3.98386E+00
 -1      2953 5.59855E+00
 -1      2954 1.63986E+01
 -1      2955 1.63986E+01
 -1      2956 5.11156E+01
 -1      2957 5.11156E+01
 -1      2958 7.71568E+01
 -1      2959 8.91627E+01
 -1      2960 6.17013E+01
 -1      2961 3.85785E+01
 -1      2962 2.31044E+01
 -1      2963 1.90091E+01
 -1      2964 1.90091E+01
 -1      2965 1.86797E+01
 -1      2966 1.83512E+01
 -1      2967 1.82068E+01
 -1      2968 1.81542E+01
 -1      2969 1.81364E+01
 -1      2970 1.81422E+01
 -1      2971 1.81422E+01
 -1      2972 1.81852E+01
 -1      2973 1.83980E+01
 -1      2974 1.87612E+01
 -1      2975 1.91036E+01
 -1      2976 1.95012E+01
 -1      2977 3.00580E+01
 -1      2978 3.09307E+01
 -1      2979 5.49758E+01
 -1      2980 5.49758E+01
 -1      2981 7.62466E+01
 -1      2982 7.88655E+01
 -1      2983 6.73443E+01
 -1      2984 4.87453E+01
 -1      2985 3.87998E+01
 -1      2986 3.59181E+01
 -1      2987 3.59181E+01
 -1      2988 3.56426E+01
 -1      2989 3.53722E+01
 -1      2990 3.52387E+01
 -1      2991 3.51831E+01
 -1      2992 3.51599E+01
 -1      2993 3.51551E+01
 -1      2994 3.51564E+01
 -1      2995 3.51739E+01
 -1      2996 3.53341E+01
 -1      2997 3.56542E+01
 -1      2998 3.58954E+01
 -1      2999 3.61724E+01
 -1      3000 4.31256E+01
 -1      3001 4.42610E+01
 -1      3002 5.68988E+01
 -1      3003 5.68988E+01
 -1      3004 7.55445E+01
 -1      3005 7.55445E+01
 -1      3006 6.73443E+01
 -1      3007 5.24152E+01
 -1      3008 4.60720E+01
 -1      3009 4.62408E+01
 -1      3010 4.62408E+01
 -1      3011 4.59763E+01
 -1      3012 4.56102E+01
 -1      3013 4.53757E+01
 -1      3014 4.52566E+01
 -1      3015 4.51959E+01
 -1      3016 4.51572E+01
 -1      3017 4.51592E+01
 -1      3018 4.51592E+01
 -1      3019 4.51966E+01
 -1      3020 4.55205E+01
 -1      3021 4.57908E+01
 -1      3022 4.76659E+01
 -1      3023 5.10077E+01
 -1      3024 5.10077E+01
 -1      3025 5.68988E+01
 -1      3026 5.68988E+01
 -1      3027 7.43586E+01
 -1      3028 7.43586E+01
 -1      3029 7.89453E+01
 -1      3030 9.25661E+01
 -1      3031 9.83190E+01
 -1      3032 9.83190E+01
 -1      3033 9.82570E+01
 -1      3034 9.79368E+01
 -1      3035 9.77602E+01
 -1      3036 9.76878E+01
 -1      3037 9.76410E+01
 -1      3038 9.75958E+01
 -1      3039 9.75496E+01
 -1      3040 9.75418E+01
 -1      3041 9.75418E+01
 -1      3042 9.75060E+01
 -1      3043 9.73137E+01
 -1      3044 9.75721E+01
 -1      3045 9.75721E+01
 -1      3046 9.87128E+01
 -1      3047 9.87128E+01
 -1      3048 9.26357E+01
 -1      3049 6.76950E+01
 -1      3050 7.32561E+01
 -1      3051 7.32561E+01
 -1      3052 7.02262E+01
 -1      3053 7.26422E+01
 -1      3054 7.62141E+01
 -1      3055 7.89705E+01
 -1      3056 8.24753E+01
 -1      3057 8.58660E+01
 -1      3058 8.82954E+01
 -1      3059 8.96737E+01
 -1      3060 9.03473E+01
 -1      3061 9.06295E+01
 -1      3062 9.07163E+01
 -1      3063 9.07622E+01
 -1      3064 9.07622E+01
 -1      3065 9.07408E+01
 -1      3066 9.02249E+01
 -1      3067 8.76970E+01
 -1      3068 8.38507E+01
 -1      3069 8.51728E+01
 -1      3070 1.00468E+02
 -1      3071 1.00468E+02
 -1      3072 8.22405E+01
 -1      3073 7.78159E+01
 -1      3074 7.78159E+01
 -1      3075 7.22570E+01
 -1      3076 7.26422E+01
 -1      3077 7.62141E+01
 -1      3078 7.89705E+01
 -1      3079 8.24753E+01
 -1      3080 8.58660E+01
 -1      3081 8.82954E+01
 -1      3082 8.96737E+01
 -1      3083 9.03473E+01
 -1      3084 9.06295E+01
 -1      3085 9.07163E+01
 -1      3086 9.07622E+01
 -1      3087 9.07622E+01
 -1      3088 9.07408E+01
 -1      3089 9.02249E+01
 -1      3090 8.76970E+01
 -1      3091 8.38507E+01
 -1      3092 8.51728E+01
 -1      3093 8.63147E+01
 -1      3094 8.63147E+01
 -1      3095 8.22405E+01
 -1      3096 7.43586E+01
 -1      3097 7.43586E+01
 -1      3098 7.22570E+01
 -1      3099 5.60503E+01
 -1      3100 4.46869E+01
 -1      3101 4.29429E+01
 -1      3102 4.29429E+01
 -1      3103 4.27771E+01
 -1      3104 4.26128E+01
 -1      3105 4.25007E+01
 -1      3106 4.24364E+01
 -1      3107 4.24032E+01
 -1      3108 4.23849E+01
 -1      3109 4.23806E+01
 -1      3110 4.23973E+01
 -1      3111 4.24642E+01
 -1      3112 4.26181E+01
 -1      3113 4.28249E+01
 -1      3114 4.28249E+01
 -1      3115 4.97915E+01
 -1      3116 4.99943E+01
 -1      3117 6.33513E+01
 -1      3118 7.49672E+01
 -1      3119 8.82745E+01
 -1      3120 8.82745E+01
 -1      3121 6.47028E+01
 -1      3122 4.64244E+01
 -1      3123 3.04618E+01
 -1      3124 2.76022E+01
 -1      3125 2.76022E+01
 -1      3126 2.73538E+01
 -1      3127 2.71579E+01
 -1      3128 2.70635E+01
 -1      3129 2.70214E+01
 -1      3130 2.70038E+01
 -1      3131 2.70010E+01
 -1      3132 2.70032E+01
 -1      3133 2.70670E+01
 -1      3134 2.71864E+01
 -1      3135 2.75518E+01
 -1      3136 2.75518E+01
 -1      3137 2.79688E+01
 -1      3138 3.88970E+01
 -1      3139 3.90463E+01
 -1      3140 6.20843E+01
 -1      3141 7.56886E+01
 -1      3142 8.82745E+01
 -1      3143 8.82745E+01
 -1      3144 5.92482E+01
 -1      3145 3.36576E+01
 -1      3146 7.76473E+00
 -1      3147 4.12685E+00
 -1      3148 4.11490E+00
 -1      3149 3.96015E+00
 -1      3150 3.85184E+00
 -1      3151 3.80398E+00
 -1      3152 3.78483E+00
 -1      3153 3.77749E+00
 -1      3154 3.77788E+00
 -1      3155 3.78090E+00
 -1      3156 3.81798E+00
 -1      3157 3.88985E+00
 -1      3158 4.05922E+00
 -1      3159 4.05922E+00
 -1      3160 4.13466E+00
 -1      3161 1.91775E+01
 -1      3162 1.91775E+01
 -1      3163 5.68835E+01
 -1      3164 7.56886E+01
 -1      3165 8.72176E+01
 -1      3166 8.72176E+01
 -1      3167 5.80675E+01
 -1      3168 3.20792E+01
 -1      3169 5.08307E+00
 -1      3170 3.12820E+00
 -1      3171 3.10381E+00
 -1      3172 2.95822E+00
 -1      3173 2.85473E+00
 -1      3174 2.80524E+00
 -1      3175 2.78438E+00
 -1      3176 2.77618E+00
 -1      3177 2.77567E+00
 -1      3178 2.77895E+00
 -1      3179 2.81683E+00
 -1      3180 2.89108E+00
 -1      3181 3.07133E+00
 -1      3182 3.07133E+00
 -1      3183 3.05994E+00
 -1      3184 1.74537E+01
 -1      3185 1.74537E+01
 -1      3186 5.48652E+01
 -1      3187 7.56778E+01
 -1      3188 8.72176E+01
 -1      3189 8.72176E+01
 -1      3190 5.92482E+01
 -1      3191 3.36576E+01
 -1      3192 7.76473E+00
 -1      3193 4.12685E+00
 -1      3194 4.11490E+00
 -1      3195 3.96015E+00
 -1      3196 3.85184E+00
 -1      3197 3.80398E+00
 -1      3198 3.78483E+00
 -1      3199 3.77749E+00
 -1      3200 3.77788E+00
 -1      3201 3.78090E+00
 -1      3202 3.81798E+00
 -1      3203 3.88985E+00
 -1      3204 4.05922E+00
 -1      3205 4.05922E+00
 -1      3206 4.13466E+00
 -1      3207 1.91775E+01
 -1      3208 1.91775E+01
 -1      3209 5.68835E+01
 -1      3210 7.56886E+01
 -1      3211 8.72176E+01
 -1      3212 8.72176E+01
 -1      3213 6.47028E+01
 -1      3214 4.64244E+01
 -1      3215 3.04618E+01
 -1      3216 2.76022E+01
 -1      3217 2.76022E+01
 -1      3218 2.73538E+01
 -1      3219 2.71579E+01
 -1      3220 2.70635E+01
 -1      3221 2.70214E+01
 -1      3222 2.70038E+01
 -1      3223 2.70010E+01
 -1      3224 2.70032E+01
 -1      3225 2.70670E+01
 -1      3226 2.71864E+01
 -1      3227 2.75518E+01
 -1      3228 2.75518E+01
 -1      3229 2.79688E+01
 -1      3230 3.88970E+01
 -1      3231 3.90463E+01
 -1      3232 6.20843E+01
 -1      3233 7.56886E+01
 -1      3234 8.82745E+01
 -1      3235 8.82745E+01
 -1      3236 7.22570E+01
 -1      3237 5.60503E+01
 -1      3238 4.46869E+01
 -1      3239 4.29429E+01
 -1      3240 4.29429E+01
 -1      3241 4.27771E+01
 -1      3242 4.26128E+01
 -1      3243 4.25007E+01
 -1      3244 4.24364E+01
 -1      3245 4.24032E+01
 -1      3246 4.23849E+01
 -1      3247 4.23806E+01
 -1      3248 4.23973E+01
 -1      3249 4.24642E+01
 -1      3250 4.26181E+01
 -1      3251 4.28249E+01
 -1      3252 4.28249E+01
 -1      3253 4.97915E+01
 -1      3254 4.99943E+01
 -1      3255 6.33513E+01
 -1      3256 7.49672E+01
 -1      3257 8.82745E+01
 -1      3258 8.82745E+01
 -1      3259 7.22570E+01
 -1      3260 7.26422E+01
 -1      3261 7.62141E+01
 -1      3262 7.89705E+01
 -1      3263 8.24753E+01
 -1      3264 8.58660E+01
 -1      3265 8.82954E+01
 -1      3266 8.96737E+01
 -1      3267 9.03473E+01
 -1      3268 9.06295E+01
 -1      3269 9.07163E+01
 -1      3270 9.07622E+01
 -1      3271 9.07622E+01
 -1      3272 9.07408E+01
 -1      3273 9.02249E+01
 -1      3274 8.76970E+01
 -1      3275 8.38507E+01
 -1      3276 8.51728E+01
 -1      3277 8.63147E+01
 -1      3278 8.63147E+01
 -1      3279 8.22405E+01
 -1      3280 7.43586E+01
 -1      3281 7.43586E+01
 -1      3282 7.02262E+01
 -1      3283 7.26422E+01
 -1      3284 7.62141E+01
 -1      3285 7.89705E+01
 -1      3286 8.24753E+01
 -1      3287 8.58660E+01
 -1      3288 8.82954E+01
 -1      3289 8.96737E+01
 -1      3290 9.03473E+01
 -1      3291 9.06295E+01
 -1      3292 9.07163E+01
 -1      3293 9.07622E+01
 -1      3294 9.07622E+01
 -1      3295 9.07408E+01
 -1      3296 9.02249E+01
 -1      3297 8.76970E+01
 -1      3298 8.38507E+01
 -1      3299 8.51728E+01
 -1      3300 1.00468E+02
 -1      3301 1.00468E+02
 -1      3302 8.22405E+01
 -1      3303 7.78159E+01
 -1      3304 7.78159E+01
 -3
    1PSTEP                         7           3           1          
  100CL  103 3.50000E-01        3304                     0    3           1
 -4  DISP        4    1
 -5  D1          1    2    1    0
 -5  D2          1    2    2    0
 -5  D3          1    2    3    0
 -5  ALL         1    2    0    0    1ALL
 -1         1 0.00000E+00 0.00000E+00 0.00000E+00
 -1         2 1.93851E-02 1.50714E-04-2.25739E-05
 -1         3 0.00000E+00 0.00000E+00 0.00000E+00
 -1         4 1.90131E-02 8.04028E-05-2.58769E-05
 -1         5 0.00000E+00 0.00000E+00 0.00000E+00
 -1         6 1.89378E-02 3.73402E-05-2.79271E-05
 -1         7 0.00000E+00 0.00000E+00 0.00000E+00
 -1         8 1.89170E-02 2.64695E-10-2.80619E-05
 -1         9 0.00000E+00 0.00000E+00 0.00000E+00
 -1        10 1.89378E-02-3.73396E-05-2.79271E-05
 -1        11 0.00000E+00 0.00000E+00 0.00000E+00
 -1        12 1.90131E-02-8.04022E-05-2.58769E-05
 -1        13 0.00000E+00 0.00000E+00 0.00000E+00
 -1        14 1.93851E-02-1.50713E-04-2.25739E-05
 -1        15 0.00000E+00 0.00000E+00 0.00000E+00
 -1        16 1.90386E-02 8.67551E-05-4.18372E-04
 -1        17 0.00000E+00 0.00000E+00 0.00000E+00
 -1        18 1.88543E-02 6.22803E-05-3.98168E-04
 -1        19 0.00000E+00 0.00000E+00 0.00000E+00
 -1        20 1.87757E-02 3.31550E-05-4.00646E-04
 -1        21 0.00000E+00 0.00000E+00 0.00000E+00
 -1        22 1.87570E-02 2.64680E-10-4.00815E-04
 -1        23 0.00000E+00 0.00000E+00 0.00000E+00
 -1        24 1.87757E-02-3.31545E-05-4.00646E-04
 -1        25 0.00000E+00 0.00000E+00 0.00000E+00
 -1        26 1.88543E-02-6.22798E-05-3.98168E-04
 -1        27 0.00000E+00 0.00000E+00 0.00000E+00
 -1        28 1.90386E-02-8.67546E-05-4.18372E-04
 -1        29 0.00000E+00 0.00000E+00 0.00000E+00
 -1        30 1.89809E-02 4.29562E-05-8.16478E-04
 -1        31 0.00000E+00 0.00000E+00 0.00000E+00
 -1        32 1.88045E-02 4.01508E-05-7.97922E-04
 -1        33 0.00000E+00 0.00000E+00 0.00000E+00
 -1        34 1.87455E-02 2.78698E-05-7.86844E-04
 -1        35 0.00000E+00 0.00000E+00 0.00000E+00
 -1        36 1.87281E-02 2.64733E-10-7.82357E-04
 -1        37 0.00000E+00 0.00000E+00 0.00000E+00
 -1        38 1.87455E-02-2.78693E-05-7.86844E-04
 -1        39 0.00000E+00 0.00000E+00 0.00000E+00
 -1        40 1.88045E-02-4.01503E-05-7.97922E-04
 -1        41 0.00000E+00 0.00000E+00 0.00000E+00
 -1        42 1.89809E-02-4.29556E-05-8.16478E-04
 -1        43 0.00000E+00 0.00000E+00 0.00000E+00
 -1        44 1.90050E-02 3.11241E-05-1.24960E-03
 -1        45 0.00000E+00 0.00000E+00 0.00000E+00
 -1        46 1.88376E-02 4.25518E-05-1.22896E-03
 -1        47 0.00000E+00 0.00000E+00 0.00000E+00
 -1        48 1.87798E-02 3.31805E-05-1.19316E-03
 -1        49 0.00000E+00 0.00000E+00 0.00000E+00
 -1        50 1.87637E-02 2.64783E-10-1.17691E-03
 -1        51 0.00000E+00 0.00000E+00 0.00000E+00
 -1        52 1.87798E-02-3.31800E-05-1.19316E-03
 -1        53 0.00000E+00 0.00000E+00 0.00000E+00
 -1        54 1.88376E-02-4.25513E-05-1.22896E-03
 -1        55 0.00000E+00 0.00000E+00 0.00000E+00
 -1        56 1.90050E-02-3.11236E-05-1.24960E-03
 -1        57 0.00000E+00 0.00000E+00 0.00000E+00
 -1        58 1.91200E-02 3.94755E-05-1.75326E-03
 -1        59 0.00000E+00 0.00000E+00 0.00000E+00
 -1        60 1.89481E-02 6.69789E-05-1.69523E-03
 -1        61 0.00000E+00 0.00000E+00 0.00000E+00
 -1        62 1.88860E-02 4.71846E-05-1.60917E-03
 -1        63 0.00000E+00 0.00000E+00 0.00000E+00
 -1        64 1.88668E-02 2.64823E-10-1.57596E-03
 -1        65 0.00000E+00 0.00000E+00 0.00000E+00
 -1        66 1.88860E-02-4.71841E-05-1.60917E-03
 -1        67 0.00000E+00 0.00000E+00 0.00000E+00
 -1        68 1.89481E-02-6.69783E-05-1.69523E-03
 -1        69 0.00000E+00 0.00000E+00 0.00000E+00
 -1        70 1.91200E-02-3.94750E-05-1.75326E-03
 -1        71 0.00000E+00 0.00000E+00 0.00000E+00
 -1        72 1.93594E-02 4.52500E-05-2.40413E-03
 -1        73 0.00000E+00 0.00000E+00 0.00000E+00
 -1        74 1.91919E-02 7.66387E-05-2.18168E-03
 -1        75 0.00000E+00 0.00000E+00 0.00000E+00
 -1        76 1.90995E-02 2.91399E-05-2.02725E-03
 -1        77 0.00000E+00 0.00000E+00 0.00000E+00
 -1        78 1.90725E-02 2.64863E-10-1.99202E-03
 -1        79 0.00000E+00 0.00000E+00 0.00000E+00
 -1        80 1.90995E-02-2.91394E-05-2.02725E-03
 -1        81 0.00000E+00 0.00000E+00 0.00000E+00
 -1        82 1.91919E-02-7.66382E-05-2.18168E-03
 -1        83 0.00000E+00 0.00000E+00 0.00000E+00
 -1        84 1.93594E-02-4.52495E-05-2.40413E-03
 -1        85 0.00000E+00 0.00000E+00 0.00000E+00
 -1        86 2.01057E-02-2.14840E-04-3.35488E-03
 -1        87 0.00000E+00 0.00000E+00 0.00000E+00
 -1        88 1.96919E-02-1.27663E-04-2.66108E-03
 -1        89 0.00000E+00 0.00000E+00 0.00000E+00
 -1        90 1.95599E-02-5.30815E-05-2.51210E-03
 -1        91 0.00000E+00 0.00000E+00 0.00000E+00
 -1        92 1.95244E-02 2.64915E-10-2.46562E-03
 -1        93 0.00000E+00 0.00000E+00 0.00000E+00
 -1        94 1.95599E-02 5.30820E-05-2.51210E-03
 -1        95 0.00000E+00 0.00000E+00 0.00000E+00
 -1        96 1.96919E-02 1.27664E-04-2.66108E-03
 -1        97 0.00000E+00 0.00000E+00 0.00000E+00
 -1        98 2.01057E-02 2.14841E-04-3.35488E-03
 -1        99 6.74981E-04 1.82236E-04-6.41169E-06
 -1       100 6.74981E-04-1.82236E-04-6.41169E-06
 -1       101 1.55820E-03 1.28292E-04-1.60091E-05
 -1       102 1.55820E-03-1.28292E-04-1.60091E-05
 -1       103 2.54394E-03 1.03399E-04-1.71058E-05
 -1       104 2.54394E-03-1.03399E-04-1.71058E-05
 -1       105 3.52199E-03 9.67999E-05-1.72825E-05
 -1       106 3.52199E-03-9.67998E-05-1.72825E-05
 -1       107 4.47987E-03 9.67559E-05-1.68764E-05
 -1       108 4.47987E-03-9.67557E-05-1.68764E-05
 -1       109 5.42914E-03 9.78446E-05-1.66970E-05
 -1       110 5.42914E-03-9.78444E-05-1.66970E-05
 -1       111 6.37742E-03 9.89235E-05-1.66244E-05
 -1       112 6.37742E-03-9.89233E-05-1.66244E-05
 -1       113 7.32746E-03 9.98149E-05-1.66105E-05
 -1       114 7.32746E-03-9.98146E-05-1.66105E-05
 -1       115 8.27996E-03 1.00586E-04-1.66116E-05
 -1       116 8.27996E-03-1.00586E-04-1.66116E-05
 -1       117 9.23496E-03 1.01305E-04-1.66154E-05
 -1       118 9.23496E-03-1.01305E-04-1.66154E-05
 -1       119 1.01924E-02 1.02013E-04-1.66198E-05
 -1       120 1.01924E-02-1.02013E-04-1.66198E-05
 -1       121 1.11524E-02 1.02746E-04-1.66249E-05
 -1       122 1.11524E-02-1.02746E-04-1.66249E-05
 -1       123 1.21151E-02 1.03573E-04-1.66266E-05
 -1       124 1.21151E-02-1.03573E-04-1.66266E-05
 -1       125 1.30802E-02 1.04603E-04-1.65934E-05
 -1       126 1.30802E-02-1.04603E-04-1.65934E-05
 -1       127 1.40466E-02 1.05915E-04-1.64758E-05
 -1       128 1.40466E-02-1.05914E-04-1.64758E-05
 -1       129 1.50087E-02 1.07324E-04-1.60548E-05
 -1       130 1.50087E-02-1.07324E-04-1.60548E-05
 -1       131 1.59511E-02 1.06282E-04-1.57233E-05
 -1       132 1.59511E-02-1.06281E-04-1.57233E-05
 -1       133 1.68565E-02 9.14418E-05-1.52646E-05
 -1       134 1.68565E-02-9.14414E-05-1.52646E-05
 -1       135 1.77745E-02 8.61909E-06-2.26136E-05
 -1       136 1.77745E-02-8.61858E-06-2.26136E-05
 -1       137 6.81690E-04 1.82390E-04-1.62392E-04
 -1       138 6.81690E-04-1.82390E-04-1.62392E-04
 -1       139 1.56916E-03 1.28269E-04-2.54574E-04
 -1       140 1.56916E-03-1.28269E-04-2.54574E-04
 -1       141 2.55312E-03 1.04397E-04-2.76173E-04
 -1       142 2.55312E-03-1.04397E-04-2.76173E-04
 -1       143 3.52802E-03 9.83912E-05-2.73244E-04
 -1       144 3.52802E-03-9.83911E-05-2.73244E-04
 -1       145 4.48417E-03 9.86635E-05-2.68376E-04
 -1       146 4.48417E-03-9.86634E-05-2.68376E-04
 -1       147 5.43300E-03 9.98200E-05-2.66091E-04
 -1       148 5.43300E-03-9.98198E-05-2.66091E-04
 -1       149 6.38123E-03 1.00892E-04-2.65502E-04
 -1       150 6.38123E-03-1.00891E-04-2.65502E-04
 -1       151 7.33130E-03 1.01768E-04-2.65590E-04
 -1       152 7.33130E-03-1.01768E-04-2.65590E-04
 -1       153 8.28383E-03 1.02530E-04-2.65864E-04
 -1       154 8.28383E-03-1.02529E-04-2.65864E-04
 -1       155 9.23884E-03 1.03243E-04-2.66160E-04
 -1       156 9.23884E-03-1.03243E-04-2.66160E-04
 -1       157 1.01963E-02 1.03946E-04-2.66463E-04
 -1       158 1.01963E-02-1.03946E-04-2.66463E-04
 -1       159 1.11563E-02 1.04672E-04-2.66784E-04
 -1       160 1.11563E-02-1.04672E-04-2.66784E-04
 -1       161 1.21189E-02 1.05485E-04-2.67066E-04
 -1       162 1.21189E-02-1.05485E-04-2.67066E-04
 -1       163 1.30839E-02 1.06496E-04-2.66981E-04
 -1       164 1.30839E-02-1.06495E-04-2.66981E-04
 -1       165 1.40504E-02 1.07796E-04-2.65668E-04
 -1       166 1.40504E-02-1.07795E-04-2.65668E-04
 -1       167 1.50134E-02 1.09431E-04-2.60895E-04
 -1       168 1.50134E-02-1.09431E-04-2.60895E-04
 -1       169 1.59592E-02 1.08841E-04-2.53036E-04
 -1       170 1.59592E-02-1.08841E-04-2.53036E-04
 -1       171 1.68641E-02 9.54109E-05-2.48109E-04
 -1       172 1.68641E-02-9.54104E-05-2.48109E-04
 -1       173 1.78259E-02 1.65597E-05-3.32330E-04
 -1       174 1.78259E-02-1.65592E-05-3.32330E-04
 -1       175 6.93963E-04 1.82140E-04-3.27741E-04
 -1       176 6.93963E-04-1.82140E-04-3.27741E-04
 -1       177 1.59256E-03 1.27930E-04-4.99709E-04
 -1       178 1.59256E-03-1.27930E-04-4.99709E-04
 -1       179 2.57137E-03 1.06526E-04-5.37384E-04
 -1       180 2.57137E-03-1.06525E-04-5.37384E-04
 -1       181 3.53697E-03 1.02424E-04-5.31031E-04
 -1       182 3.53697E-03-1.02424E-04-5.31031E-04
 -1       183 4.48857E-03 1.03548E-04-5.22339E-04
 -1       184 4.48857E-03-1.03548E-04-5.22339E-04
 -1       185 5.43620E-03 1.04892E-04-5.18322E-04
 -1       186 5.43620E-03-1.04892E-04-5.18322E-04
 -1       187 6.38429E-03 1.05960E-04-5.17316E-04
 -1       188 6.38429E-03-1.05960E-04-5.17316E-04
 -1       189 7.33445E-03 1.06809E-04-5.17532E-04
 -1       190 7.33445E-03-1.06809E-04-5.17532E-04
 -1       191 8.28706E-03 1.07552E-04-5.18074E-04
 -1       192 8.28706E-03-1.07552E-04-5.18074E-04
 -1       193 9.24210E-03 1.08257E-04-5.18656E-04
 -1       194 9.24210E-03-1.08257E-04-5.18656E-04
 -1       195 1.01996E-02 1.08955E-04-5.19248E-04
 -1       196 1.01996E-02-1.08955E-04-5.19248E-04
 -1       197 1.11595E-02 1.09666E-04-5.19876E-04
 -1       198 1.11595E-02-1.09666E-04-5.19876E-04
 -1       199 1.21219E-02 1.10450E-04-5.20434E-04
 -1       200 1.21219E-02-1.10449E-04-5.20434E-04
 -1       201 1.30868E-02 1.11405E-04-5.20353E-04
 -1       202 1.30868E-02-1.11405E-04-5.20353E-04
 -1       203 1.40535E-02 1.12737E-04-5.17953E-04
 -1       204 1.40535E-02-1.12737E-04-5.17953E-04
 -1       205 1.50192E-02 1.14694E-04-5.10051E-04
 -1       206 1.50192E-02-1.14693E-04-5.10051E-04
 -1       207 1.59728E-02 1.16323E-04-4.93563E-04
 -1       208 1.59728E-02-1.16323E-04-4.93563E-04
 -1       209 1.68983E-02 1.04258E-04-4.90919E-04
 -1       210 1.68983E-02-1.04257E-04-4.90919E-04
 -1       211 1.78184E-02 3.16706E-05-6.05405E-04
 -1       212 1.78184E-02-3.16701E-05-6.05405E-04
 -1       213 7.15461E-04 1.80049E-04-5.13913E-04
 -1       214 7.15461E-04-1.80049E-04-5.13913E-04
 -1       215 1.63084E-03 1.25588E-04-7.58665E-04
 -1       216 1.63084E-03-1.25588E-04-7.58665E-04
 -1       217 2.59692E-03 1.08544E-04-8.04496E-04
 -1       218 2.59692E-03-1.08544E-04-8.04496E-04
 -1       219 3.54719E-03 1.07759E-04-7.94617E-04
 -1       220 3.54719E-03-1.07759E-04-7.94617E-04
 -1       221 4.49260E-03 1.10156E-04-7.83455E-04
 -1       222 4.49260E-03-1.10156E-04-7.83455E-04
 -1       223 5.43865E-03 1.11748E-04-7.78280E-04
 -1       224 5.43865E-03-1.11748E-04-7.78280E-04
 -1       225 6.38659E-03 1.12805E-04-7.77054E-04
 -1       226 6.38659E-03-1.12805E-04-7.77054E-04
 -1       227 7.33692E-03 1.13611E-04-7.77440E-04
 -1       228 7.33692E-03-1.13610E-04-7.77440E-04
 -1       229 8.28965E-03 1.14327E-04-7.78244E-04
 -1       230 8.28965E-03-1.14327E-04-7.78244E-04
 -1       231 9.24474E-03 1.15022E-04-7.79099E-04
 -1       232 9.24474E-03-1.15022E-04-7.79099E-04
 -1       233 1.02022E-02 1.15712E-04-7.79968E-04
 -1       234 1.02022E-02-1.15712E-04-7.79968E-04
 -1       235 1.11620E-02 1.16404E-04-7.80883E-04
 -1       236 1.11620E-02-1.16404E-04-7.80883E-04
 -1       237 1.21242E-02 1.17136E-04-7.81715E-04
 -1       238 1.21242E-02-1.17135E-04-7.81715E-04
 -1       239 1.30889E-02 1.18026E-04-7.81698E-04
 -1       240 1.30889E-02-1.18026E-04-7.81698E-04
 -1       241 1.40559E-02 1.19317E-04-7.78653E-04
 -1       242 1.40559E-02-1.19316E-04-7.78653E-04
 -1       243 1.50245E-02 1.21911E-04-7.68468E-04
 -1       244 1.50245E-02-1.21910E-04-7.68468E-04
 -1       245 1.59921E-02 1.26172E-04-7.47388E-04
 -1       246 1.59921E-02-1.26172E-04-7.47388E-04
 -1       247 1.69394E-02 1.19150E-04-7.37550E-04
 -1       248 1.69394E-02-1.19149E-04-7.37550E-04
 -1       249 1.78488E-02 5.23395E-05-8.68184E-04
 -1       250 1.78488E-02-5.23390E-05-8.68184E-04
 -1       251 7.54264E-04 1.71160E-04-7.39882E-04
 -1       252 7.54264E-04-1.71160E-04-7.39882E-04
 -1       253 1.68777E-03 1.14656E-04-1.04078E-03
 -1       254 1.68777E-03-1.14656E-04-1.04078E-03
 -1       255 2.62529E-03 1.04940E-04-1.08457E-03
 -1       256 2.62529E-03-1.04940E-04-1.08457E-03
 -1       257 3.55627E-03 1.08895E-04-1.07294E-03
 -1       258 3.55627E-03-1.08895E-04-1.07294E-03
 -1       259 4.49575E-03 1.12764E-04-1.06094E-03
 -1       260 4.49575E-03-1.12764E-04-1.06094E-03
 -1       261 5.44019E-03 1.14601E-04-1.05522E-03
 -1       262 5.44019E-03-1.14601E-04-1.05522E-03
 -1       263 6.38819E-03 1.15640E-04-1.05404E-03
 -1       264 6.38819E-03-1.15640E-04-1.05404E-03
 -1       265 7.33875E-03 1.16376E-04-1.05462E-03
 -1       266 7.33875E-03-1.16376E-04-1.05462E-03
 -1       267 8.29162E-03 1.17060E-04-1.05568E-03
 -1       268 8.29162E-03-1.17059E-04-1.05568E-03
 -1       269 9.24677E-03 1.17742E-04-1.05680E-03
 -1       270 9.24677E-03-1.17742E-04-1.05680E-03
 -1       271 1.02042E-02 1.18424E-04-1.05792E-03
 -1       272 1.02042E-02-1.18424E-04-1.05792E-03
 -1       273 1.11639E-02 1.19093E-04-1.05911E-03
 -1       274 1.11639E-02-1.19093E-04-1.05911E-03
 -1       275 1.21258E-02 1.19759E-04-1.06019E-03
 -1       276 1.21258E-02-1.19759E-04-1.06019E-03
 -1       277 1.30901E-02 1.20537E-04-1.06035E-03
 -1       278 1.30901E-02-1.20536E-04-1.06035E-03
 -1       279 1.40572E-02 1.21817E-04-1.05705E-03
 -1       280 1.40572E-02-1.21817E-04-1.05705E-03
 -1       281 1.50287E-02 1.24854E-04-1.04589E-03
 -1       282 1.50287E-02-1.24853E-04-1.04589E-03
 -1       283 1.60090E-02 1.32589E-04-1.02394E-03
 -1       284 1.60090E-02-1.32588E-04-1.02394E-03
 -1       285 1.69915E-02 1.33709E-04-1.00326E-03
 -1       286 1.69915E-02-1.33708E-04-1.00326E-03
 -1       287 1.79266E-02 7.67924E-05-1.12987E-03
 -1       288 1.79266E-02-7.67919E-05-1.12987E-03
 -1       289 8.32605E-04 1.38048E-04-1.04215E-03
 -1       290 8.32605E-04-1.38048E-04-1.04215E-03
 -1       291 1.76500E-03 7.67224E-05-1.35760E-03
 -1       292 1.76500E-03-7.67224E-05-1.35760E-03
 -1       293 2.64579E-03 7.84121E-05-1.39368E-03
 -1       294 2.64579E-03-7.84120E-05-1.39368E-03
 -1       295 3.56322E-03 8.83924E-05-1.38524E-03
 -1       296 3.56322E-03-8.83923E-05-1.38524E-03
 -1       297 4.49694E-03 9.34287E-05-1.37301E-03
 -1       298 4.49694E-03-9.34286E-05-1.37301E-03
 -1       299 5.44080E-03 9.56452E-05-1.36762E-03
 -1       300 5.44080E-03-9.56450E-05-1.36762E-03
 -1       301 6.38911E-03 9.65735E-05-1.36662E-03
 -1       302 6.38911E-03-9.65733E-05-1.36662E-03
 -1       303 7.33998E-03 9.72360E-05-1.36744E-03
 -1       304 7.33998E-03-9.72357E-05-1.36744E-03
 -1       305 8.29299E-03 9.78773E-05-1.36874E-03
 -1       306 8.29299E-03-9.78771E-05-1.36874E-03
 -1       307 9.24819E-03 9.85473E-05-1.37010E-03
 -1       308 9.24819E-03-9.85470E-05-1.37010E-03
 -1       309 1.02056E-02 9.92219E-05-1.37147E-03
 -1       310 1.02056E-02-9.92216E-05-1.37147E-03
 -1       311 1.11652E-02 9.98624E-05-1.37290E-03
 -1       312 1.11652E-02-9.98621E-05-1.37290E-03
 -1       313 1.21269E-02 1.00459E-04-1.37422E-03
 -1       314 1.21269E-02-1.00458E-04-1.37422E-03
 -1       315 1.30906E-02 1.01066E-04-1.37456E-03
 -1       316 1.30906E-02-1.01066E-04-1.37456E-03
 -1       317 1.40571E-02 1.02319E-04-1.37151E-03
 -1       318 1.40571E-02-1.02319E-04-1.37151E-03
 -1       319 1.50310E-02 1.05768E-04-1.36032E-03
 -1       320 1.50310E-02-1.05768E-04-1.36032E-03
 -1       321 1.60180E-02 1.16320E-04-1.33974E-03
 -1       322 1.60180E-02-1.16319E-04-1.33974E-03
 -1       323 1.70403E-02 1.31902E-04-1.31908E-03
 -1       324 1.70403E-02-1.31901E-04-1.31908E-03
 -1       325 1.80620E-02 8.19933E-05-1.39891E-03
 -1       326 1.80620E-02-8.19928E-05-1.39891E-03
 -1       327 1.07156E-03-2.26769E-05-1.48537E-03
 -1       328 1.07156E-03 2.26769E-05-1.48537E-03
 -1       329 1.80815E-03-8.43219E-05-1.71203E-03
 -1       330 1.80815E-03 8.43219E-05-1.71203E-03
 -1       331 2.65905E-03-6.15522E-05-1.77118E-03
 -1       332 2.65905E-03 6.15523E-05-1.77118E-03
 -1       333 3.56338E-03-4.84532E-05-1.76184E-03
 -1       334 3.56338E-03 4.84532E-05-1.76184E-03
 -1       335 4.49582E-03-4.11117E-05-1.75194E-03
 -1       336 4.49582E-03 4.11118E-05-1.75194E-03
 -1       337 5.44045E-03-3.88838E-05-1.74698E-03
 -1       338 5.44045E-03 3.88839E-05-1.74698E-03
 -1       339 6.38947E-03-3.80364E-05-1.74631E-03
 -1       340 6.38947E-03 3.80366E-05-1.74631E-03
 -1       341 7.34068E-03-3.74858E-05-1.74734E-03
 -1       342 7.34068E-03 3.74861E-05-1.74734E-03
 -1       343 8.29380E-03-3.68898E-05-1.74886E-03
 -1       344 8.29380E-03 3.68901E-05-1.74886E-03
 -1       345 9.24902E-03-3.62367E-05-1.75045E-03
 -1       346 9.24902E-03 3.62370E-05-1.75045E-03
 -1       347 1.02064E-02-3.55726E-05-1.75206E-03
 -1       348 1.02064E-02 3.55729E-05-1.75206E-03
 -1       349 1.11660E-02-3.49604E-05-1.75372E-03
 -1       350 1.11660E-02 3.49608E-05-1.75372E-03
 -1       351 1.21275E-02-3.44603E-05-1.75523E-03
 -1       352 1.21275E-02 3.44607E-05-1.75523E-03
 -1       353 1.30906E-02-3.39999E-05-1.75582E-03
 -1       354 1.30906E-02 3.40003E-05-1.75582E-03
 -1       355 1.40559E-02-3.30660E-05-1.75292E-03
 -1       356 1.40559E-02 3.30665E-05-1.75292E-03
 -1       357 1.50282E-02-2.86971E-05-1.74368E-03
 -1       358 1.50282E-02 2.86976E-05-1.74368E-03
 -1       359 1.60205E-02-1.63335E-05-1.72096E-03
 -1       360 1.60205E-02 1.63340E-05-1.72096E-03
 -1       361 1.70523E-02 1.34255E-05-1.72533E-03
 -1       362 1.70523E-02-1.34250E-05-1.72533E-03
 -1       363 1.82049E-02 7.51454E-06-1.71067E-03
 -1       364 1.82049E-02-7.51403E-06-1.71067E-03
 -1       365 6.54445E-04 1.17162E-04-6.01804E-06
 -1       366 1.06610E-03-5.29659E-06-1.18319E-03
 -1       367 1.57030E-03 9.21087E-05-1.58727E-05
 -1       368 1.81568E-03-4.12537E-05-1.45024E-03
 -1       369 2.54769E-03 6.99533E-05-1.74552E-05
 -1       370 2.65631E-03-3.45692E-05-1.51183E-03
 -1       371 3.52254E-03 6.60819E-05-1.75769E-05
 -1       372 3.56147E-03-2.37005E-05-1.50950E-03
 -1       373 4.47957E-03 6.60788E-05-1.72425E-05
 -1       374 4.49479E-03-1.89218E-05-1.50050E-03
 -1       375 5.42881E-03 6.68260E-05-1.70621E-05
 -1       376 5.44006E-03-1.73080E-05-1.49583E-03
 -1       377 6.37715E-03 6.75346E-05-1.69908E-05
 -1       378 6.38926E-03-1.67628E-05-1.49503E-03
 -1       379 7.32723E-03 6.81315E-05-1.69751E-05
 -1       380 7.34050E-03-1.63928E-05-1.49598E-03
 -1       381 8.27975E-03 6.86474E-05-1.69749E-05
 -1       382 8.29361E-03-1.59983E-05-1.49745E-03
 -1       383 9.23476E-03 6.91281E-05-1.69782E-05
 -1       384 9.24883E-03-1.55637E-05-1.49903E-03
 -1       385 1.01922E-02 6.96011E-05-1.69822E-05
 -1       386 1.02063E-02-1.51220E-05-1.50063E-03
 -1       387 1.11522E-02 7.00910E-05-1.69867E-05
 -1       388 1.11658E-02-1.47156E-05-1.50225E-03
 -1       389 1.21148E-02 7.06442E-05-1.69859E-05
 -1       390 1.21273E-02-1.43841E-05-1.50369E-03
 -1       391 1.30799E-02 7.13303E-05-1.69519E-05
 -1       392 1.30903E-02-1.40821E-05-1.50409E-03
 -1       393 1.40461E-02 7.21531E-05-1.68260E-05
 -1       394 1.40553E-02-1.34846E-05-1.50120E-03
 -1       395 1.50083E-02 7.32088E-05-1.64521E-05
 -1       396 1.50264E-02-1.04037E-05-1.49159E-03
 -1       397 1.59530E-02 7.29814E-05-1.61139E-05
 -1       398 1.60172E-02-1.64429E-06-1.47522E-03
 -1       399 1.68655E-02 6.29405E-05-1.58787E-05
 -1       400 1.70488E-02 2.45182E-05-1.47501E-03
 -1       401 1.78145E-02-1.06776E-05-2.32303E-05
 -1       402 1.82678E-02-3.28604E-05-1.56383E-03
 -1       403 6.49134E-04 5.76074E-05-5.45733E-06
 -1       404 1.05364E-03 1.97244E-06-1.13493E-03
 -1       405 1.57042E-03 4.81027E-05-1.57384E-05
 -1       406 1.81847E-03-1.51266E-05-1.38989E-03
 -1       407 2.55123E-03 3.61309E-05-1.72854E-05
 -1       408 2.65837E-03-1.41659E-05-1.45820E-03
 -1       409 3.52287E-03 3.38334E-05-1.75105E-05
 -1       410 3.56070E-03-8.58901E-06-1.45821E-03
 -1       411 4.47939E-03 3.40023E-05-1.71704E-05
 -1       412 4.49432E-03-6.00628E-06-1.45040E-03
 -1       413 5.42861E-03 3.43485E-05-1.70021E-05
 -1       414 5.43978E-03-5.20257E-06-1.44583E-03
 -1       415 6.37700E-03 3.47052E-05-1.69300E-05
 -1       416 6.38911E-03-4.91908E-06-1.44500E-03
 -1       417 7.32712E-03 3.50023E-05-1.69113E-05
 -1       418 7.34037E-03-4.73588E-06-1.44590E-03
 -1       419 8.27965E-03 3.52609E-05-1.69113E-05
 -1       420 8.29350E-03-4.53870E-06-1.44735E-03
 -1       421 9.23467E-03 3.55015E-05-1.69142E-05
 -1       422 9.24871E-03-4.32197E-06-1.44892E-03
 -1       423 1.01921E-02 3.57383E-05-1.69181E-05
 -1       424 1.02061E-02-4.10157E-06-1.45051E-03
 -1       425 1.11521E-02 3.59836E-05-1.69223E-05
 -1       426 1.11657E-02-3.89937E-06-1.45212E-03
 -1       427 1.21147E-02 3.62614E-05-1.69207E-05
 -1       428 1.21272E-02-3.73207E-06-1.45352E-03
 -1       429 1.30797E-02 3.65974E-05-1.68861E-05
 -1       430 1.30902E-02-3.59422E-06-1.45385E-03
 -1       431 1.40458E-02 3.70189E-05-1.67598E-05
 -1       432 1.40548E-02-3.23172E-06-1.45087E-03
 -1       433 1.50081E-02 3.74364E-05-1.64129E-05
 -1       434 1.50256E-02-1.94119E-06-1.44173E-03
 -1       435 1.59546E-02 3.83268E-05-1.60201E-05
 -1       436 1.60156E-02 4.19517E-06-1.42707E-03
 -1       437 1.68768E-02 2.98282E-05-1.61047E-05
 -1       438 1.70658E-02 1.40903E-05-1.43577E-03
 -1       439 1.77875E-02-5.61361E-06-2.29423E-05
 -1       440 1.82307E-02-2.38691E-05-1.52108E-03
 -1       441 6.47972E-04 5.60273E-12-5.26879E-06
 -1       442 1.04988E-03 3.65144E-12-1.12054E-03
 -1       443 1.56994E-03 1.61911E-11-1.56126E-05
 -1       444 1.81857E-03 1.38664E-11-1.37114E-03
 -1       445 2.55224E-03 2.99000E-11-1.72038E-05
 -1       446 2.65938E-03 2.78430E-11-1.44113E-03
 -1       447 3.52312E-03 4.59215E-11-1.74401E-05
 -1       448 3.56060E-03 4.40440E-11-1.44197E-03
 -1       449 4.47930E-03 6.29744E-11-1.71076E-05
 -1       450 4.49413E-03 6.13906E-11-1.43453E-03
 -1       451 5.42856E-03 8.03762E-11-1.69393E-05
 -1       452 5.43969E-03 7.91216E-11-1.43002E-03
 -1       453 6.37696E-03 9.72713E-11-1.68670E-05
 -1       454 6.38905E-03 9.67734E-11-1.42918E-03
 -1       455 7.32709E-03 1.14326E-10-1.68512E-05
 -1       456 7.34033E-03 1.14104E-10-1.43007E-03
 -1       457 8.27962E-03 1.31028E-10-1.68503E-05
 -1       458 8.29346E-03 1.30983E-10-1.43151E-03
 -1       459 9.23464E-03 1.47229E-10-1.68533E-05
 -1       460 9.24868E-03 1.47298E-10-1.43308E-03
 -1       461 1.01921E-02 1.62808E-10-1.68571E-05
 -1       462 1.02061E-02 1.62947E-10-1.43467E-03
 -1       463 1.11521E-02 1.77655E-10-1.68611E-05
 -1       464 1.11657E-02 1.77841E-10-1.43627E-03
 -1       465 1.21146E-02 1.91699E-10-1.68595E-05
 -1       466 1.21272E-02 1.91904E-10-1.43765E-03
 -1       467 1.30797E-02 2.04859E-10-1.68233E-05
 -1       468 1.30901E-02 2.05076E-10-1.43796E-03
 -1       469 1.40458E-02 2.17110E-10-1.67014E-05
 -1       470 1.40548E-02 2.17312E-10-1.43494E-03
 -1       471 1.50077E-02 2.28459E-10-1.63476E-05
 -1       472 1.50249E-02 2.28587E-10-1.42601E-03
 -1       473 1.59561E-02 2.38845E-10-1.59828E-05
 -1       474 1.60167E-02 2.38885E-10-1.41199E-03
 -1       475 1.68784E-02 2.49082E-10-1.60632E-05
 -1       476 1.70696E-02 2.48226E-10-1.42337E-03
 -1       477 1.77782E-02 2.56569E-10-2.30411E-05
 -1       478 1.82154E-02 2.56784E-10-1.50563E-03
 -1       479 6.49134E-04-5.76073E-05-5.45733E-06
 -1       480 1.05364E-03-1.97243E-06-1.13493E-03
 -1       481 1.57042E-03-4.81026E-05-1.57384E-05
 -1       482 1.81847E-03 1.51266E-05-1.38989E-03
 -1       483 2.55123E-03-3.61308E-05-1.72854E-05
 -1       484 2.65837E-03 1.41659E-05-1.45820E-03
 -1       485 3.52287E-03-3.38333E-05-1.75105E-05
 -1       486 3.56070E-03 8.58910E-06-1.45821E-03
 -1       487 4.47939E-03-3.40022E-05-1.71704E-05
 -1       488 4.49432E-03 6.00640E-06-1.45040E-03
 -1       489 5.42861E-03-3.43483E-05-1.70021E-05
 -1       490 5.43978E-03 5.20273E-06-1.44583E-03
 -1       491 6.37700E-03-3.47050E-05-1.69300E-05
 -1       492 6.38911E-03 4.91927E-06-1.44500E-03
 -1       493 7.32712E-03-3.50021E-05-1.69113E-05
 -1       494 7.34037E-03 4.73611E-06-1.44590E-03
 -1       495 8.27965E-03-3.52606E-05-1.69113E-05
 -1       496 8.29350E-03 4.53896E-06-1.44735E-03
 -1       497 9.23467E-03-3.55012E-05-1.69142E-05
 -1       498 9.24871E-03 4.32227E-06-1.44892E-03
 -1       499 1.01921E-02-3.57380E-05-1.69181E-05
 -1       500 1.02061E-02 4.10190E-06-1.45051E-03
 -1       501 1.11521E-02-3.59832E-05-1.69223E-05
 -1       502 1.11657E-02 3.89972E-06-1.45212E-03
 -1       503 1.21147E-02-3.62610E-05-1.69207E-05
 -1       504 1.21272E-02 3.73246E-06-1.45352E-03
 -1       505 1.30797E-02-3.65970E-05-1.68861E-05
 -1       506 1.30902E-02 3.59463E-06-1.45385E-03
 -1       507 1.40458E-02-3.70185E-05-1.67598E-05
 -1       508 1.40548E-02 3.23215E-06-1.45087E-03
 -1       509 1.50081E-02-3.74359E-05-1.64129E-05
 -1       510 1.50256E-02 1.94164E-06-1.44173E-03
 -1       511 1.59546E-02-3.83263E-05-1.60201E-05
 -1       512 1.60156E-02-4.19469E-06-1.42707E-03
 -1       513 1.68768E-02-2.98277E-05-1.61047E-05
 -1       514 1.70658E-02-1.40898E-05-1.43577E-03
 -1       515 1.77875E-02 5.61413E-06-2.29423E-05
 -1       516 1.82307E-02 2.38696E-05-1.52108E-03
 -1       517 6.54445E-04-1.17162E-04-6.01804E-06
 -1       518 1.06610E-03 5.29660E-06-1.18319E-03
 -1       519 1.57030E-03-9.21087E-05-1.58727E-05
 -1       520 1.81568E-03 4.12537E-05-1.45024E-03
 -1       521 2.54769E-03-6.99532E-05-1.74552E-05
 -1       522 2.65631E-03 3.45693E-05-1.51183E-03
 -1       523 3.52254E-03-6.60818E-05-1.75769E-05
 -1       524 3.56147E-03 2.37006E-05-1.50950E-03
 -1       525 4.47957E-03-6.60787E-05-1.72425E-05
 -1       526 4.49479E-03 1.89219E-05-1.50050E-03
 -1       527 5.42881E-03-6.68259E-05-1.70621E-05
 -1       528 5.44006E-03 1.73082E-05-1.49583E-03
 -1       529 6.37715E-03-6.75344E-05-1.69908E-05
 -1       530 6.38926E-03 1.67630E-05-1.49503E-03
 -1       531 7.32723E-03-6.81313E-05-1.69751E-05
 -1       532 7.34050E-03 1.63931E-05-1.49598E-03
 -1       533 8.27975E-03-6.86471E-05-1.69749E-05
 -1       534 8.29361E-03 1.59986E-05-1.49745E-03
 -1       535 9.23476E-03-6.91278E-05-1.69782E-05
 -1       536 9.24883E-03 1.55640E-05-1.49903E-03
 -1       537 1.01922E-02-6.96007E-05-1.69822E-05
 -1       538 1.02063E-02 1.51223E-05-1.50063E-03
 -1       539 1.11522E-02-7.00906E-05-1.69867E-05
 -1       540 1.11658E-02 1.47160E-05-1.50225E-03
 -1       541 1.21148E-02-7.06438E-05-1.69859E-05
 -1       542 1.21273E-02 1.43845E-05-1.50369E-03
 -1       543 1.30799E-02-7.13299E-05-1.69519E-05
 -1       544 1.30903E-02 1.40825E-05-1.50409E-03
 -1       545 1.40461E-02-7.21527E-05-1.68260E-05
 -1       546 1.40553E-02 1.34851E-05-1.50120E-03
 -1       547 1.50083E-02-7.32084E-05-1.64521E-05
 -1       548 1.50264E-02 1.04041E-05-1.49159E-03
 -1       549 1.59530E-02-7.29810E-05-1.61139E-05
 -1       550 1.60172E-02 1.64476E-06-1.47522E-03
 -1       551 1.68655E-02-6.29400E-05-1.58787E-05
 -1       552 1.70488E-02-2.45177E-05-1.47501E-03
 -1       553 1.78145E-02 1.06781E-05-2.32303E-05
 -1       554 1.82678E-02 3.28609E-05-1.56383E-03
 -1       555 6.61262E-04 1.17816E-04-1.60211E-04
 -1       556 1.58122E-03 9.29170E-05-2.52269E-04
 -1       557 2.55666E-03 7.13842E-05-2.75196E-04
 -1       558 3.52846E-03 6.79474E-05-2.73325E-04
 -1       559 4.48385E-03 6.81467E-05-2.68950E-04
 -1       560 5.43267E-03 6.89362E-05-2.66783E-04
 -1       561 6.38097E-03 6.96384E-05-2.66196E-04
 -1       562 7.33108E-03 7.02241E-05-2.66269E-04
 -1       563 8.28363E-03 7.07325E-05-2.66531E-04
 -1       564 9.23866E-03 7.12088E-05-2.66822E-04
 -1       565 1.01961E-02 7.16784E-05-2.67120E-04
 -1       566 1.11561E-02 7.21628E-05-2.67433E-04
 -1       567 1.21186E-02 7.27083E-05-2.67696E-04
 -1       568 1.30836E-02 7.33726E-05-2.67594E-04
 -1       569 1.40499E-02 7.42285E-05-2.66257E-04
 -1       570 1.50130E-02 7.52631E-05-2.61918E-04
 -1       571 1.59602E-02 7.59972E-05-2.54389E-04
 -1       572 1.68783E-02 6.47709E-05-2.53594E-04
 -1       573 1.78347E-02-2.29507E-06-3.30838E-04
 -1       574 6.56114E-04 5.81688E-05-1.56409E-04
 -1       575 1.58139E-03 4.88354E-05-2.48104E-04
 -1       576 2.56008E-03 3.71452E-05-2.71676E-04
 -1       577 3.52869E-03 3.50886E-05-2.70452E-04
 -1       578 4.48363E-03 3.53543E-05-2.66361E-04
 -1       579 5.43246E-03 3.57210E-05-2.64273E-04
 -1       580 6.38081E-03 3.60743E-05-2.63691E-04
 -1       581 7.33096E-03 3.63659E-05-2.63755E-04
 -1       582 8.28352E-03 3.66205E-05-2.64012E-04
 -1       583 9.23854E-03 3.68590E-05-2.64300E-04
 -1       584 1.01960E-02 3.70939E-05-2.64596E-04
 -1       585 1.11560E-02 3.73368E-05-2.64904E-04
 -1       586 1.21185E-02 3.76091E-05-2.65157E-04
 -1       587 1.30834E-02 3.79414E-05-2.65039E-04
 -1       588 1.40496E-02 3.83520E-05-2.63732E-04
 -1       589 1.50125E-02 3.88586E-05-2.59538E-04
 -1       590 1.59621E-02 3.98887E-05-2.52571E-04
 -1       591 1.68876E-02 3.18110E-05-2.53275E-04
 -1       592 1.78132E-02-2.78360E-06-3.26301E-04
 -1       593 6.55021E-04 5.47706E-12-1.54648E-04
 -1       594 1.58094E-03 1.61306E-11-2.46120E-04
 -1       595 2.56104E-03 2.98046E-11-2.69877E-04
 -1       596 3.52891E-03 4.57211E-11-2.68866E-04
 -1       597 4.48352E-03 6.27696E-11-2.64868E-04
 -1       598 5.43240E-03 8.01121E-11-2.62808E-04
 -1       599 6.38076E-03 9.72214E-11-2.62229E-04
 -1       600 7.33092E-03 1.14249E-10-2.62291E-04
 -1       601 8.28348E-03 1.30963E-10-2.62545E-04
 -1       602 9.23851E-03 1.47168E-10-2.62832E-04
 -1       603 1.01960E-02 1.62746E-10-2.63127E-04
 -1       604 1.11559E-02 1.77594E-10-2.63434E-04
 -1       605 1.21184E-02 1.91635E-10-2.63683E-04
 -1       606 1.30834E-02 2.04796E-10-2.63563E-04
 -1       607 1.40495E-02 2.17050E-10-2.62261E-04
 -1       608 1.50123E-02 2.28381E-10-2.58129E-04
 -1       609 1.59634E-02 2.38854E-10-2.51335E-04
 -1       610 1.68895E-02 2.48600E-10-2.52493E-04
 -1       611 1.78038E-02 2.56706E-10-3.24198E-04
 -1       612 6.56114E-04-5.81688E-05-1.56409E-04
 -1       613 1.58139E-03-4.88354E-05-2.48104E-04
 -1       614 2.56008E-03-3.71451E-05-2.71676E-04
 -1       615 3.52869E-03-3.50885E-05-2.70452E-04
 -1       616 4.48363E-03-3.53542E-05-2.66361E-04
 -1       617 5.43246E-03-3.57208E-05-2.64273E-04
 -1       618 6.38081E-03-3.60741E-05-2.63691E-04
 -1       619 7.33096E-03-3.63656E-05-2.63755E-04
 -1       620 8.28352E-03-3.66203E-05-2.64012E-04
 -1       621 9.23854E-03-3.68587E-05-2.64300E-04
 -1       622 1.01960E-02-3.70936E-05-2.64596E-04
 -1       623 1.11560E-02-3.73364E-05-2.64904E-04
 -1       624 1.21185E-02-3.76087E-05-2.65157E-04
 -1       625 1.30834E-02-3.79410E-05-2.65039E-04
 -1       626 1.40496E-02-3.83515E-05-2.63732E-04
 -1       627 1.50125E-02-3.88581E-05-2.59538E-04
 -1       628 1.59621E-02-3.98882E-05-2.52571E-04
 -1       629 1.68876E-02-3.18105E-05-2.53275E-04
 -1       630 1.78132E-02 2.78411E-06-3.26301E-04
 -1       631 6.61262E-04-1.17816E-04-1.60211E-04
 -1       632 1.58122E-03-9.29170E-05-2.52269E-04
 -1       633 2.55666E-03-7.13842E-05-2.75196E-04
 -1       634 3.52846E-03-6.79473E-05-2.73325E-04
 -1       635 4.48385E-03-6.81466E-05-2.68950E-04
 -1       636 5.43267E-03-6.89360E-05-2.66783E-04
 -1       637 6.38097E-03-6.96382E-05-2.66196E-04
 -1       638 7.33108E-03-7.02239E-05-2.66269E-04
 -1       639 8.28363E-03-7.07323E-05-2.66531E-04
 -1       640 9.23866E-03-7.12085E-05-2.66822E-04
 -1       641 1.01961E-02-7.16780E-05-2.67120E-04
 -1       642 1.11561E-02-7.21624E-05-2.67433E-04
 -1       643 1.21186E-02-7.27079E-05-2.67696E-04
 -1       644 1.30836E-02-7.33721E-05-2.67594E-04
 -1       645 1.40499E-02-7.42281E-05-2.66257E-04
 -1       646 1.50130E-02-7.52626E-05-2.61918E-04
 -1       647 1.59602E-02-7.59967E-05-2.54389E-04
 -1       648 1.68783E-02-6.47704E-05-2.53594E-04
 -1       649 1.78347E-02 2.29558E-06-3.30838E-04
 -1       650 6.74128E-04 1.19973E-04-3.21518E-04
 -1       651 1.60438E-03 9.51800E-05-4.92782E-04
 -1       652 2.57425E-03 7.53115E-05-5.32975E-04
 -1       653 3.53704E-03 7.32239E-05-5.28790E-04
 -1       654 4.48814E-03 7.39830E-05-5.20997E-04
 -1       655 5.43585E-03 7.48918E-05-5.17189E-04
 -1       656 6.38403E-03 7.55883E-05-5.16186E-04
 -1       657 7.33424E-03 7.61545E-05-5.16373E-04
 -1       658 8.28686E-03 7.66500E-05-5.16897E-04
 -1       659 9.24191E-03 7.71207E-05-5.17470E-04
 -1       660 1.01994E-02 7.75860E-05-5.18056E-04
 -1       661 1.11593E-02 7.80612E-05-5.18668E-04
 -1       662 1.21217E-02 7.85835E-05-5.19194E-04
 -1       663 1.30865E-02 7.92210E-05-5.19062E-04
 -1       664 1.40530E-02 8.00503E-05-5.16694E-04
 -1       665 1.50184E-02 8.14396E-05-5.09218E-04
 -1       666 1.59738E-02 8.32028E-05-4.94660E-04
 -1       667 1.69086E-02 7.41068E-05-4.95637E-04
 -1       668 1.78375E-02 1.00462E-05-6.08713E-04
 -1       669 6.69722E-04 6.01860E-05-3.11885E-04
 -1       670 1.60456E-03 5.09747E-05-4.81688E-04
 -1       671 2.57732E-03 4.01532E-05-5.23163E-04
 -1       672 3.53704E-03 3.87977E-05-5.20215E-04
 -1       673 4.48785E-03 3.93434E-05-5.12956E-04
 -1       674 5.43563E-03 3.97660E-05-5.09288E-04
 -1       675 6.38388E-03 4.01164E-05-5.08294E-04
 -1       676 7.33411E-03 4.03974E-05-5.08466E-04
 -1       677 8.28675E-03 4.06456E-05-5.08979E-04
 -1       678 9.24180E-03 4.08811E-05-5.09547E-04
 -1       679 1.01993E-02 4.11140E-05-5.10128E-04
 -1       680 1.11591E-02 4.13519E-05-5.10732E-04
 -1       681 1.21215E-02 4.16134E-05-5.11238E-04
 -1       682 1.30863E-02 4.19287E-05-5.11083E-04
 -1       683 1.40526E-02 4.23335E-05-5.08742E-04
 -1       684 1.50178E-02 4.29953E-05-5.01575E-04
 -1       685 1.59754E-02 4.45614E-05-4.88044E-04
 -1       686 1.69172E-02 3.76151E-05-4.91626E-04
 -1       687 1.78182E-02 4.47232E-06-5.99831E-04
 -1       688 6.68936E-04 5.27852E-12-3.07559E-04
 -1       689 1.60415E-03 1.58929E-11-4.76650E-04
 -1       690 2.57818E-03 2.95886E-11-5.18509E-04
 -1       691 3.53719E-03 4.54724E-11-5.15956E-04
 -1       692 4.48771E-03 6.25166E-11-5.08875E-04
 -1       693 5.43556E-03 7.98907E-11-5.05258E-04
 -1       694 6.38382E-03 9.71367E-11-5.04268E-04
 -1       695 7.33407E-03 1.14201E-10-5.04435E-04
 -1       696 8.28671E-03 1.30930E-10-5.04944E-04
 -1       697 9.24176E-03 1.47147E-10-5.05510E-04
 -1       698 1.01992E-02 1.62731E-10-5.06090E-04
 -1       699 1.11591E-02 1.77582E-10-5.06691E-04
 -1       700 1.21215E-02 1.91621E-10-5.07191E-04
 -1       701 1.30863E-02 2.04783E-10-5.07028E-04
 -1       702 1.40525E-02 2.17033E-10-5.04701E-04
 -1       703 1.50175E-02 2.28360E-10-4.97632E-04
 -1       704 1.59765E-02 2.38821E-10-4.84486E-04
 -1       705 1.69189E-02 2.48327E-10-4.88755E-04
 -1       706 1.78102E-02 2.56712E-10-5.95301E-04
 -1       707 6.69722E-04-6.01860E-05-3.11885E-04
 -1       708 1.60456E-03-5.09747E-05-4.81688E-04
 -1       709 2.57732E-03-4.01532E-05-5.23163E-04
 -1       710 3.53704E-03-3.87977E-05-5.20215E-04
 -1       711 4.48785E-03-3.93433E-05-5.12956E-04
 -1       712 5.43563E-03-3.97659E-05-5.09288E-04
 -1       713 6.38388E-03-4.01162E-05-5.08294E-04
 -1       714 7.33411E-03-4.03972E-05-5.08466E-04
 -1       715 8.28675E-03-4.06453E-05-5.08979E-04
 -1       716 9.24180E-03-4.08808E-05-5.09547E-04
 -1       717 1.01993E-02-4.11136E-05-5.10128E-04
 -1       718 1.11591E-02-4.13516E-05-5.10732E-04
 -1       719 1.21215E-02-4.16130E-05-5.11238E-04
 -1       720 1.30863E-02-4.19282E-05-5.11083E-04
 -1       721 1.40526E-02-4.23331E-05-5.08742E-04
 -1       722 1.50178E-02-4.29948E-05-5.01575E-04
 -1       723 1.59754E-02-4.45609E-05-4.88044E-04
 -1       724 1.69172E-02-3.76146E-05-4.91626E-04
 -1       725 1.78182E-02-4.47181E-06-5.99831E-04
 -1       726 6.74128E-04-1.19973E-04-3.21518E-04
 -1       727 1.60438E-03-9.51799E-05-4.92782E-04
 -1       728 2.57425E-03-7.53115E-05-5.32975E-04
 -1       729 3.53704E-03-7.32238E-05-5.28790E-04
 -1       730 4.48813E-03-7.39829E-05-5.20997E-04
 -1       731 5.43585E-03-7.48917E-05-5.17189E-04
 -1       732 6.38403E-03-7.55881E-05-5.16186E-04
 -1       733 7.33424E-03-7.61543E-05-5.16373E-04
 -1       734 8.28686E-03-7.66498E-05-5.16897E-04
 -1       735 9.24191E-03-7.71204E-05-5.17470E-04
 -1       736 1.01994E-02-7.75856E-05-5.18056E-04
 -1       737 1.11593E-02-7.80609E-05-5.18668E-04
 -1       738 1.21217E-02-7.85831E-05-5.19194E-04
 -1       739 1.30865E-02-7.92206E-05-5.19062E-04
 -1       740 1.40530E-02-8.00499E-05-5.16694E-04
 -1       741 1.50184E-02-8.14392E-05-5.09218E-04
 -1       742 1.59738E-02-8.32024E-05-4.94660E-04
 -1       743 1.69086E-02-7.41063E-05-4.95637E-04
 -1       744 1.78375E-02-1.00456E-05-6.08713E-04
 -1       745 6.97360E-04 1.22834E-04-4.97601E-04
 -1       746 1.64223E-03 9.76543E-05-7.40428E-04
 -1       747 2.59863E-03 8.08642E-05-7.90391E-04
 -1       748 3.54667E-03 8.11086E-05-7.83825E-04
 -1       749 4.49200E-03 8.27039E-05-7.73851E-04
 -1       750 5.43828E-03 8.37707E-05-7.68937E-04
 -1       751 6.38635E-03 8.44586E-05-7.67706E-04
 -1       752 7.33672E-03 8.49934E-05-7.68049E-04
 -1       753 8.28946E-03 8.54710E-05-7.68828E-04
 -1       754 9.24455E-03 8.59347E-05-7.69672E-04
 -1       755 1.02020E-02 8.63953E-05-7.70533E-04
 -1       756 1.11618E-02 8.68573E-05-7.71429E-04
 -1       757 1.21240E-02 8.73459E-05-7.72213E-04
 -1       758 1.30886E-02 8.79317E-05-7.72125E-04
 -1       759 1.40553E-02 8.87445E-05-7.69092E-04
 -1       760 1.50234E-02 9.05061E-05-7.59447E-04
 -1       761 1.59919E-02 9.40489E-05-7.40952E-04
 -1       762 1.69482E-02 8.88213E-05-7.36899E-04
 -1       763 1.78719E-02 2.78739E-05-8.68823E-04
 -1       764 6.94624E-04 6.29788E-05-4.76332E-04
 -1       765 1.64248E-03 5.35067E-05-7.16130E-04
 -1       766 2.60109E-03 4.42751E-05-7.68161E-04
 -1       767 3.54635E-03 4.41447E-05-7.63393E-04
 -1       768 4.49162E-03 4.50961E-05-7.54160E-04
 -1       769 5.43804E-03 4.55992E-05-7.49434E-04
 -1       770 6.38620E-03 4.59434E-05-7.48208E-04
 -1       771 7.33660E-03 4.62083E-05-7.48529E-04
 -1       772 8.28934E-03 4.64473E-05-7.49292E-04
 -1       773 9.24444E-03 4.66793E-05-7.50129E-04
 -1       774 1.02019E-02 4.69098E-05-7.50984E-04
 -1       775 1.11617E-02 4.71411E-05-7.51868E-04
 -1       776 1.21239E-02 4.73858E-05-7.52625E-04
 -1       777 1.30884E-02 4.76726E-05-7.52500E-04
 -1       778 1.40549E-02 4.80736E-05-7.49491E-04
 -1       779 1.50227E-02 4.89034E-05-7.40260E-04
 -1       780 1.59925E-02 5.13573E-05-7.23231E-04
 -1       781 1.69563E-02 4.66254E-05-7.22794E-04
 -1       782 1.78561E-02 1.43841E-05-8.51131E-04
 -1       783 6.94453E-04 5.03777E-12-4.67486E-04
 -1       784 1.64214E-03 1.55385E-11-7.05875E-04
 -1       785 2.60177E-03 2.92682E-11-7.58541E-04
 -1       786 3.54639E-03 4.51691E-11-7.54324E-04
 -1       787 4.49145E-03 6.22389E-11-7.45348E-04
 -1       788 5.43797E-03 7.96768E-11-7.40687E-04
 -1       789 6.38614E-03 9.70344E-11-7.39465E-04
 -1       790 7.33656E-03 1.14158E-10-7.39779E-04
 -1       791 8.28930E-03 1.30913E-10-7.40538E-04
 -1       792 9.24440E-03 1.47147E-10-7.41372E-04
 -1       793 1.02018E-02 1.62741E-10-7.42225E-04
 -1       794 1.11617E-02 1.77599E-10-7.43104E-04
 -1       795 1.21238E-02 1.91640E-10-7.43853E-04
 -1       796 1.30883E-02 2.04802E-10-7.43716E-04
 -1       797 1.40548E-02 2.17048E-10-7.40720E-04
 -1       798 1.50223E-02 2.28368E-10-7.31641E-04
 -1       799 1.59934E-02 2.38780E-10-7.15087E-04
 -1       800 1.69579E-02 2.48218E-10-7.15834E-04
 -1       801 1.78492E-02 2.56697E-10-8.42394E-04
 -1       802 6.94624E-04-6.29788E-05-4.76332E-04
 -1       803 1.64248E-03-5.35067E-05-7.16130E-04
 -1       804 2.60109E-03-4.42751E-05-7.68161E-04
 -1       805 3.54635E-03-4.41446E-05-7.63393E-04
 -1       806 4.49162E-03-4.50960E-05-7.54160E-04
 -1       807 5.43804E-03-4.55990E-05-7.49434E-04
 -1       808 6.38620E-03-4.59432E-05-7.48208E-04
 -1       809 7.33660E-03-4.62081E-05-7.48529E-04
 -1       810 8.28934E-03-4.64470E-05-7.49292E-04
 -1       811 9.24444E-03-4.66790E-05-7.50129E-04
 -1       812 1.02019E-02-4.69095E-05-7.50984E-04
 -1       813 1.11617E-02-4.71408E-05-7.51868E-04
 -1       814 1.21239E-02-4.73854E-05-7.52625E-04
 -1       815 1.30884E-02-4.76722E-05-7.52500E-04
 -1       816 1.40549E-02-4.80732E-05-7.49491E-04
 -1       817 1.50227E-02-4.89029E-05-7.40260E-04
 -1       818 1.59925E-02-5.13568E-05-7.23231E-04
 -1       819 1.69563E-02-4.66249E-05-7.22794E-04
 -1       820 1.78561E-02-1.43836E-05-8.51131E-04
 -1       821 6.97360E-04-1.22834E-04-4.97601E-04
 -1       822 1.64223E-03-9.76543E-05-7.40428E-04
 -1       823 2.59863E-03-8.08641E-05-7.90391E-04
 -1       824 3.54667E-03-8.11085E-05-7.83825E-04
 -1       825 4.49200E-03-8.27038E-05-7.73851E-04
 -1       826 5.43828E-03-8.37705E-05-7.68937E-04
 -1       827 6.38635E-03-8.44584E-05-7.67706E-04
 -1       828 7.33672E-03-8.49932E-05-7.68049E-04
 -1       829 8.28946E-03-8.54707E-05-7.68828E-04
 -1       830 9.24455E-03-8.59344E-05-7.69672E-04
 -1       831 1.02020E-02-8.63950E-05-7.70533E-04
 -1       832 1.11618E-02-8.68569E-05-7.71429E-04
 -1       833 1.21240E-02-8.73455E-05-7.72213E-04
 -1       834 1.30886E-02-8.79313E-05-7.72125E-04
 -1       835 1.40553E-02-8.87441E-05-7.69092E-04
 -1       836 1.50234E-02-9.05057E-05-7.59447E-04
 -1       837 1.59919E-02-9.40485E-05-7.40952E-04
 -1       838 1.69482E-02-8.88208E-05-7.36899E-04
 -1       839 1.78719E-02-2.78734E-05-8.68823E-04
 -1       840 7.40674E-04 1.22288E-04-6.97279E-04
 -1       841 1.69834E-03 9.45131E-05-9.94763E-04
 -1       842 2.62521E-03 8.29414E-05-1.04496E-03
 -1       843 3.55508E-03 8.65161E-05-1.03768E-03
 -1       844 4.49496E-03 8.90445E-05-1.02698E-03
 -1       845 5.43980E-03 9.02975E-05-1.02155E-03
 -1       846 6.38796E-03 9.09600E-05-1.02034E-03
 -1       847 7.33856E-03 9.14506E-05-1.02087E-03
 -1       848 8.29143E-03 9.19051E-05-1.02189E-03
 -1       849 9.24658E-03 9.23609E-05-1.02300E-03
 -1       850 1.02040E-02 9.28164E-05-1.02412E-03
 -1       851 1.11637E-02 9.32625E-05-1.02527E-03
 -1       852 1.21257E-02 9.37069E-05-1.02630E-03
 -1       853 1.30898E-02 9.42148E-05-1.02635E-03
 -1       854 1.40566E-02 9.50125E-05-1.02304E-03
 -1       855 1.50272E-02 9.70820E-05-1.01242E-03
 -1       856 1.60072E-02 1.02804E-04-9.93377E-04
 -1       857 1.69972E-02 1.04337E-04-9.81402E-04
 -1       858 1.79545E-02 4.50540E-05-1.11303E-03
 -1       859 7.40978E-04 6.22140E-05-6.55771E-04
 -1       860 1.69847E-03 5.10629E-05-9.48554E-04
 -1       861 2.62692E-03 4.46398E-05-1.00195E-03
 -1       862 3.55440E-03 4.61687E-05-9.96850E-04
 -1       863 4.49446E-03 4.76048E-05-9.87080E-04
 -1       864 5.43955E-03 4.82004E-05-9.81851E-04
 -1       865 6.38781E-03 4.85310E-05-9.80634E-04
 -1       866 7.33844E-03 4.87734E-05-9.81133E-04
 -1       867 8.29132E-03 4.90006E-05-9.82141E-04
 -1       868 9.24647E-03 4.92286E-05-9.83233E-04
 -1       869 1.02039E-02 4.94565E-05-9.84346E-04
 -1       870 1.11636E-02 4.96795E-05-9.85490E-04
 -1       871 1.21255E-02 4.99021E-05-9.86482E-04
 -1       872 1.30897E-02 5.01477E-05-9.86487E-04
 -1       873 1.40562E-02 5.05445E-05-9.83171E-04
 -1       874 1.50263E-02 5.15120E-05-9.73069E-04
 -1       875 1.60070E-02 5.51175E-05-9.55639E-04
 -1       876 1.70048E-02 5.39415E-05-9.48805E-04
 -1       877 1.79410E-02 2.14554E-05-1.07936E-03
 -1       878 7.41370E-04 4.73865E-12-6.41486E-04
 -1       879 1.69824E-03 1.50876E-11-9.32139E-04
 -1       880 2.62740E-03 2.88617E-11-9.86374E-04
 -1       881 3.55434E-03 4.48219E-11-9.81991E-04
 -1       882 4.49425E-03 6.19515E-11-9.72524E-04
 -1       883 5.43947E-03 7.94725E-11-9.67371E-04
 -1       884 6.38776E-03 9.69313E-11-9.66155E-04
 -1       885 7.33840E-03 1.14122E-10-9.66645E-04
 -1       886 8.29128E-03 1.30913E-10-9.67648E-04
 -1       887 9.24643E-03 1.47170E-10-9.68736E-04
 -1       888 1.02039E-02 1.62779E-10-9.69847E-04
 -1       889 1.11636E-02 1.77646E-10-9.70985E-04
 -1       890 1.21255E-02 1.91692E-10-9.71967E-04
 -1       891 1.30896E-02 2.04855E-10-9.71955E-04
 -1       892 1.40561E-02 2.17098E-10-9.68649E-04
 -1       893 1.50258E-02 2.28404E-10-9.58725E-04
 -1       894 1.60076E-02 2.38771E-10-9.41843E-04
 -1       895 1.70067E-02 2.48171E-10-9.36741E-04
 -1       896 1.79341E-02 2.56698E-10-1.06562E-03
 -1       897 7.40978E-04-6.22139E-05-6.55771E-04
 -1       898 1.69847E-03-5.10629E-05-9.48554E-04
 -1       899 2.62692E-03-4.46397E-05-1.00195E-03
 -1       900 3.55440E-03-4.61686E-05-9.96850E-04
 -1       901 4.49446E-03-4.76047E-05-9.87080E-04
 -1       902 5.43955E-03-4.82002E-05-9.81851E-04
 -1       903 6.38781E-03-4.85309E-05-9.80634E-04
 -1       904 7.33844E-03-4.87732E-05-9.81133E-04
 -1       905 8.29132E-03-4.90004E-05-9.82141E-04
 -1       906 9.24647E-03-4.92283E-05-9.83233E-04
 -1       907 1.02039E-02-4.94562E-05-9.84346E-04
 -1       908 1.11636E-02-4.96791E-05-9.85490E-04
 -1       909 1.21255E-02-4.99017E-05-9.86482E-04
 -1       910 1.30897E-02-5.01473E-05-9.86487E-04
 -1       911 1.40562E-02-5.05440E-05-9.83171E-04
 -1       912 1.50263E-02-5.15115E-05-9.73069E-04
 -1       913 1.60070E-02-5.51170E-05-9.55639E-04
 -1       914 1.70048E-02-5.39411E-05-9.48805E-04
 -1       915 1.79410E-02-2.14549E-05-1.07936E-03
 -1       916 7.40674E-04-1.22288E-04-6.97279E-04
 -1       917 1.69834E-03-9.45131E-05-9.94763E-04
 -1       918 2.62521E-03-8.29414E-05-1.04496E-03
 -1       919 3.55508E-03-8.65160E-05-1.03768E-03
 -1       920 4.49496E-03-8.90443E-05-1.02698E-03
 -1       921 5.43980E-03-9.02973E-05-1.02155E-03
 -1       922 6.38796E-03-9.09598E-05-1.02034E-03
 -1       923 7.33856E-03-9.14503E-05-1.02087E-03
 -1       924 8.29143E-03-9.19048E-05-1.02189E-03
 -1       925 9.24658E-03-9.23606E-05-1.02300E-03
 -1       926 1.02040E-02-9.28161E-05-1.02412E-03
 -1       927 1.11637E-02-9.32621E-05-1.02527E-03
 -1       928 1.21257E-02-9.37065E-05-1.02630E-03
 -1       929 1.30898E-02-9.42144E-05-1.02635E-03
 -1       930 1.40566E-02-9.50120E-05-1.02304E-03
 -1       931 1.50272E-02-9.70815E-05-1.01242E-03
 -1       932 1.60072E-02-1.02804E-04-9.93377E-04
 -1       933 1.69972E-02-1.04337E-04-9.81402E-04
 -1       934 1.79545E-02-4.50534E-05-1.11303E-03
 -1       935 8.33046E-04 1.00380E-04-9.24903E-04
 -1       936 1.77147E-03 6.48277E-05-1.24178E-03
 -1       937 2.64431E-03 6.26181E-05-1.28705E-03
 -1       938 3.56118E-03 6.96353E-05-1.28322E-03
 -1       939 4.49602E-03 7.32568E-05-1.27246E-03
 -1       940 5.44039E-03 7.46837E-05-1.26732E-03
 -1       941 6.38890E-03 7.53003E-05-1.26626E-03
 -1       942 7.33980E-03 7.57331E-05-1.26700E-03
 -1       943 8.29281E-03 7.61604E-05-1.26826E-03
 -1       944 9.24800E-03 7.66069E-05-1.26960E-03
 -1       945 1.02054E-02 7.70567E-05-1.27097E-03
 -1       946 1.11651E-02 7.74848E-05-1.27237E-03
 -1       947 1.21267E-02 7.78752E-05-1.27362E-03
 -1       948 1.30904E-02 7.82864E-05-1.27383E-03
 -1       949 1.40566E-02 7.90132E-05-1.27072E-03
 -1       950 1.50290E-02 8.15212E-05-1.25996E-03
 -1       951 1.60151E-02 8.87970E-05-1.24286E-03
 -1       952 1.70405E-02 1.02291E-04-1.22991E-03
 -1       953 1.80966E-02 3.78696E-05-1.33921E-03
 -1       954 8.33755E-04 4.15501E-05-8.62273E-04
 -1       955 1.77155E-03 2.80836E-05-1.17375E-03
 -1       956 2.64563E-03 2.54931E-05-1.22312E-03
 -1       957 3.56026E-03 2.89908E-05-1.22183E-03
 -1       958 4.49544E-03 3.09602E-05-1.21208E-03
 -1       959 5.44013E-03 3.16561E-05-1.20711E-03
 -1       960 6.38875E-03 3.19635E-05-1.20603E-03
 -1       961 7.33968E-03 3.21776E-05-1.20674E-03
 -1       962 8.29270E-03 3.23903E-05-1.20798E-03
 -1       963 9.24789E-03 3.26132E-05-1.20931E-03
 -1       964 1.02053E-02 3.28379E-05-1.21067E-03
 -1       965 1.11649E-02 3.30512E-05-1.21205E-03
 -1       966 1.21266E-02 3.32463E-05-1.21326E-03
 -1       967 1.30902E-02 3.34418E-05-1.21343E-03
 -1       968 1.40561E-02 3.38193E-05-1.21024E-03
 -1       969 1.50279E-02 3.49439E-05-1.20007E-03
 -1       970 1.60143E-02 3.96801E-05-1.18456E-03
 -1       971 1.70491E-02 4.39360E-05-1.17832E-03
 -1       972 1.80809E-02 9.05973E-06-1.29020E-03
 -1       973 8.33490E-04 4.31828E-12-8.50520E-04
 -1       974 1.77133E-03 1.45325E-11-1.15756E-03
 -1       975 2.64624E-03 2.83825E-11-1.20843E-03
 -1       976 3.56011E-03 4.44415E-11-1.20786E-03
 -1       977 4.49522E-03 6.16646E-11-1.19848E-03
 -1       978 5.44005E-03 7.92839E-11-1.19358E-03
 -1       979 6.38870E-03 9.68402E-11-1.19250E-03
 -1       980 7.33965E-03 1.14102E-10-1.19320E-03
 -1       981 8.29266E-03 1.30935E-10-1.19443E-03
 -1       982 9.24785E-03 1.47219E-10-1.19576E-03
 -1       983 1.02053E-02 1.62847E-10-1.19711E-03
 -1       984 1.11649E-02 1.77726E-10-1.19849E-03
 -1       985 1.21266E-02 1.91779E-10-1.19969E-03
 -1       986 1.30901E-02 2.04946E-10-1.19983E-03
 -1       987 1.40560E-02 2.17184E-10-1.19664E-03
 -1       988 1.50273E-02 2.28474E-10-1.18667E-03
 -1       989 1.60149E-02 2.38803E-10-1.17170E-03
 -1       990 1.70517E-02 2.48177E-10-1.16807E-03
 -1       991 1.80716E-02 2.56725E-10-1.27624E-03
 -1       992 8.33755E-04-4.15501E-05-8.62273E-04
 -1       993 1.77155E-03-2.80836E-05-1.17375E-03
 -1       994 2.64563E-03-2.54930E-05-1.22312E-03
 -1       995 3.56026E-03-2.89907E-05-1.22183E-03
 -1       996 4.49544E-03-3.09601E-05-1.21208E-03
 -1       997 5.44013E-03-3.16559E-05-1.20711E-03
 -1       998 6.38875E-03-3.19633E-05-1.20603E-03
 -1       999 7.33968E-03-3.21774E-05-1.20674E-03
 -1      1000 8.29270E-03-3.23900E-05-1.20798E-03
 -1      1001 9.24789E-03-3.26129E-05-1.20931E-03
 -1      1002 1.02053E-02-3.28375E-05-1.21067E-03
 -1      1003 1.11649E-02-3.30508E-05-1.21205E-03
 -1      1004 1.21266E-02-3.32460E-05-1.21326E-03
 -1      1005 1.30902E-02-3.34413E-05-1.21343E-03
 -1      1006 1.40561E-02-3.38188E-05-1.21024E-03
 -1      1007 1.50279E-02-3.49435E-05-1.20007E-03
 -1      1008 1.60143E-02-3.96796E-05-1.18456E-03
 -1      1009 1.70491E-02-4.39355E-05-1.17832E-03
 -1      1010 1.80809E-02-9.05922E-06-1.29020E-03
 -1      1011 8.33046E-04-1.00380E-04-9.24903E-04
 -1      1012 1.77147E-03-6.48276E-05-1.24178E-03
 -1      1013 2.64431E-03-6.26181E-05-1.28705E-03
 -1      1014 3.56118E-03-6.96353E-05-1.28322E-03
 -1      1015 4.49602E-03-7.32567E-05-1.27246E-03
 -1      1016 5.44039E-03-7.46836E-05-1.26732E-03
 -1      1017 6.38890E-03-7.53001E-05-1.26626E-03
 -1      1018 7.33980E-03-7.57329E-05-1.26700E-03
 -1      1019 8.29281E-03-7.61601E-05-1.26826E-03
 -1      1020 9.24800E-03-7.66066E-05-1.26960E-03
 -1      1021 1.02054E-02-7.70563E-05-1.27097E-03
 -1      1022 1.11651E-02-7.74844E-05-1.27237E-03
 -1      1023 1.21267E-02-7.78748E-05-1.27362E-03
 -1      1024 1.30904E-02-7.82860E-05-1.27383E-03
 -1      1025 1.40566E-02-7.90128E-05-1.27072E-03
 -1      1026 1.50290E-02-8.15207E-05-1.25996E-03
 -1      1027 1.60151E-02-8.87966E-05-1.24286E-03
 -1      1028 1.70405E-02-1.02290E-04-1.22991E-03
 -1      1029 1.80966E-02-3.78691E-05-1.33921E-03
 -1      1030 0.00000E+00 0.00000E+00 0.00000E+00
 -1      1031 0.00000E+00 0.00000E+00 0.00000E+00
 -1      1032 0.00000E+00 0.00000E+00 0.00000E+00
 -1      1033 0.00000E+00 0.00000E+00 0.00000E+00
 -1      1034 0.00000E+00 0.00000E+00 0.00000E+00
 -1      1035 0.00000E+00 0.00000E+00 0.00000E+00
 -1      1036 0.00000E+00 0.00000E+00 0.00000E+00
 -1      1037 0.00000E+00 0.00000E+00 0.00000E+00
 -1      1038 0.00000E+00 0.00000E+00 0.00000E+00
 -1      1039 0.00000E+00 0.00000E+00 0.00000E+00
 -1      1040 0.00000E+00 0.00000E+00 0.00000E+00
 -1      1041 0.00000E+00 0.00000E+00 0.00000E+00
 -1      1042 0.00000E+00 0.00000E+00 0.00000E+00
 -1      1043 0.00000E+00 0.00000E+00 0.00000E+00
 -1      1044 0.00000E+00 0.00000E+00 0.00000E+00
 -1      1045 0.00000E+00 0.00000E+00 0.00000E+00
 -1      1046 0.00000E+00 0.00000E+00 0.00000E+00
 -1      1047 0.00000E+00 0.00000E+00 0.00000E+00
 -1      1048 0.00000E+00 0.00000E+00 0.00000E+00
 -1      1049 0.00000E+00 0.00000E+00 0.00000E+00
 -1      1050 0.00000E+00 0.00000E+00 0.00000E+00
 -1      1051 0.00000E+00 0.00000E+00 0.00000E+00
 -1      1052 0.00000E+00 0.00000E+00 0.00000E+00
 -1      1053 0.00000E+00 0.00000E+00 0.00000E+00
 -1      1054 0.00000E+00 0.00000E+00 0.00000E+00
 -1      1055 0.00000E+00 0.00000E+00 0.00000E+00
 -1      1056-3.74644E-08-2.99511E-08-2.70874E-08
 -1      1057 6.97465E-09-1.43623E-09-3.18828E-09
 -1      1058-3.68715E-08-2.44891E-08-1.92760E-08
 -1      1059 6.89758E-09-3.66780E-10-3.09166E-09
 -1      1060-4.02575E-08-2.28995E-08-2.17404E-08
 -1      1061 6.51812E-09 1.31608E-10-3.00008E-09
 -1      1062-4.55917E-08-2.02099E-08-2.54851E-08
 -1      1063 6.09373E-09 3.06332E-10-2.85238E-09
 -1      1064-5.10126E-08-1.52377E-08-2.91846E-08
 -1      1065 5.72592E-09 2.94649E-10-2.71959E-09
 -1      1066-5.49396E-08-8.20733E-09-3.17850E-08
 -1      1067 5.48001E-09 1.73291E-10-2.62681E-09
 -1      1068-5.63627E-08 3.71437E-16-3.27153E-08
 -1      1069 5.39391E-09-1.14848E-17-2.59363E-09
 -1      1070-5.49396E-08 8.20733E-09-3.17850E-08
 -1      1071 5.48001E-09-1.73291E-10-2.62681E-09
 -1      1072-5.10126E-08 1.52377E-08-2.91846E-08
 -1      1073 5.72592E-09-2.94649E-10-2.71959E-09
 -1      1074-4.55917E-08 2.02099E-08-2.54851E-08
 -1      1075 6.09373E-09-3.06332E-10-2.85238E-09
 -1      1076-4.02575E-08 2.28995E-08-2.17404E-08
 -1      1077 6.51812E-09-1.31608E-10-3.00008E-09
 -1      1078-3.68715E-08 2.44891E-08-1.92760E-08
 -1      1079 6.89758E-09 3.66780E-10-3.09166E-09
 -1      1080-3.74644E-08 2.99511E-08-2.70874E-08
 -1      1081 6.97465E-09 1.43623E-09-3.18828E-09
 -1      1082-5.83933E-08-4.01700E-08-3.26928E-08
 -1      1083 1.35054E-08-4.81469E-10-4.28210E-09
 -1      1084-5.81455E-08-3.96532E-08-3.07618E-08
 -1      1085 1.30400E-08 2.24448E-11-4.60394E-09
 -1      1086-6.34663E-08-3.68738E-08-3.53203E-08
 -1      1087 1.23337E-08 4.37026E-10-4.40861E-09
 -1      1088-7.18125E-08-3.20132E-08-4.29641E-08
 -1      1089 1.15841E-08 5.89364E-10-4.17345E-09
 -1      1090-8.02248E-08-2.38811E-08-5.03037E-08
 -1      1091 1.09367E-08 5.20264E-10-3.95514E-09
 -1      1092-8.62859E-08-1.27846E-08-5.54421E-08
 -1      1093 1.05032E-08 2.98864E-10-3.80228E-09
 -1      1094-8.84727E-08 5.28191E-16-5.72670E-08
 -1      1095 1.03512E-08-1.99387E-17-3.74701E-09
 -1      1096-8.62859E-08 1.27846E-08-5.54421E-08
 -1      1097 1.05032E-08-2.98864E-10-3.80228E-09
 -1      1098-8.02248E-08 2.38811E-08-5.03037E-08
 -1      1099 1.09367E-08-5.20264E-10-3.95514E-09
 -1      1100-7.18125E-08 3.20132E-08-4.29641E-08
 -1      1101 1.15841E-08-5.89364E-10-4.17345E-09
 -1      1102-6.34663E-08 3.68738E-08-3.53203E-08
 -1      1103 1.23337E-08-4.37026E-10-4.40861E-09
 -1      1104-5.81455E-08 3.96532E-08-3.07618E-08
 -1      1105 1.30400E-08-2.24448E-11-4.60394E-09
 -1      1106-5.83933E-08 4.01700E-08-3.26928E-08
 -1      1107 1.35054E-08 4.81469E-10-4.28210E-09
 -1      1108-6.77005E-08-4.03757E-08-2.74976E-08
 -1      1109 1.92174E-08 5.45723E-10-4.30269E-09
 -1      1110-6.69499E-08-4.17489E-08-3.35932E-08
 -1      1111 1.83886E-08 7.90984E-10-4.77160E-09
 -1      1112-7.32711E-08-4.01017E-08-4.27810E-08
 -1      1113 1.74431E-08 9.40420E-10-4.70937E-09
 -1      1114-8.31150E-08-3.49087E-08-5.40411E-08
 -1      1115 1.65020E-08 9.49882E-10-4.49398E-09
 -1      1116-9.30256E-08-2.59444E-08-6.46196E-08
 -1      1117 1.57033E-08 7.67808E-10-4.27108E-09
 -1      1118-1.00034E-07-1.38169E-08-7.18584E-08
 -1      1119 1.51669E-08 4.27398E-10-4.10344E-09
 -1      1120-1.02518E-07 5.92737E-16-7.43901E-08
 -1      1121 1.49762E-08-2.63636E-17-4.04127E-09
 -1      1122-1.00034E-07 1.38169E-08-7.18584E-08
 -1      1123 1.51669E-08-4.27398E-10-4.10344E-09
 -1      1124-9.30256E-08 2.59444E-08-6.46196E-08
 -1      1125 1.57033E-08-7.67808E-10-4.27108E-09
 -1      1126-8.31150E-08 3.49087E-08-5.40410E-08
 -1      1127 1.65020E-08-9.49882E-10-4.49398E-09
 -1      1128-7.32711E-08 4.01017E-08-4.27810E-08
 -1      1129 1.74431E-08-9.40421E-10-4.70937E-09
 -1      1130-6.69499E-08 4.17489E-08-3.35932E-08
 -1      1131 1.83886E-08-7.90984E-10-4.77160E-09
 -1      1132-6.77005E-08 4.03757E-08-2.74976E-08
 -1      1133 1.92174E-08-5.45723E-10-4.30269E-09
 -1      1134-6.56847E-08-3.05940E-08-1.90017E-08
 -1      1135 2.38907E-08 1.39346E-09-3.98421E-09
 -1      1136-6.48017E-08-3.25597E-08-3.20580E-08
 -1      1137 2.29013E-08 1.47510E-09-4.44398E-09
 -1      1138-7.03700E-08-3.20675E-08-4.54799E-08
 -1      1139 2.18301E-08 1.45193E-09-4.49949E-09
 -1      1140-7.97038E-08-2.83296E-08-5.99536E-08
 -1      1141 2.08297E-08 1.30310E-09-4.34785E-09
 -1      1142-8.91293E-08-2.10103E-08-7.29374E-08
 -1      1143 2.00074E-08 9.92988E-10-4.13634E-09
 -1      1144-9.53977E-08-1.10719E-08-8.14389E-08
 -1      1145 1.94447E-08 5.40401E-10-3.96224E-09
 -1      1146-9.74852E-08 5.13085E-16-8.43176E-08
 -1      1147 1.92445E-08-3.12684E-17-3.90158E-09
 -1      1148-9.53977E-08 1.10719E-08-8.14389E-08
 -1      1149 1.94447E-08-5.40401E-10-3.96224E-09
 -1      1150-8.91293E-08 2.10103E-08-7.29374E-08
 -1      1151 2.00074E-08-9.92988E-10-4.13634E-09
 -1      1152-7.97038E-08 2.83296E-08-5.99536E-08
 -1      1153 2.08297E-08-1.30310E-09-4.34785E-09
 -1      1154-7.03700E-08 3.20675E-08-4.54799E-08
 -1      1155 2.18301E-08-1.45193E-09-4.49949E-09
 -1      1156-6.48017E-08 3.25597E-08-3.20580E-08
 -1      1157 2.29013E-08-1.47510E-09-4.44398E-09
 -1      1158-6.56847E-08 3.05940E-08-1.90016E-08
 -1      1159 2.38907E-08-1.39347E-09-3.98421E-09
 -1      1160-5.57024E-08-1.33798E-08-1.28160E-08
 -1      1161 2.78615E-08 1.96400E-09-3.74937E-09
 -1      1162-5.46876E-08-1.44961E-08-2.99130E-08
 -1      1163 2.68452E-08 1.96747E-09-4.13020E-09
 -1      1164-5.62900E-08-1.46182E-08-4.57484E-08
 -1      1165 2.56572E-08 1.77652E-09-4.17849E-09
 -1      1166-6.14714E-08-1.31222E-08-6.20295E-08
 -1      1167 2.43138E-08 1.42412E-09-3.92520E-09
 -1      1168-6.70023E-08-9.55429E-09-7.61210E-08
 -1      1169 2.31390E-08 1.05938E-09-3.57002E-09
 -1      1170-6.96635E-08-4.85740E-09-8.48240E-08
 -1      1171 2.24771E-08 5.95734E-10-3.30337E-09
 -1      1172-7.04547E-08-4.65010E-17-8.76359E-08
 -1      1173 2.22355E-08-3.47552E-17-3.21424E-09
 -1      1174-6.96635E-08 4.85740E-09-8.48240E-08
 -1      1175 2.24771E-08-5.95734E-10-3.30337E-09
 -1      1176-6.70022E-08 9.55429E-09-7.61210E-08
 -1      1177 2.31390E-08-1.05938E-09-3.57002E-09
 -1      1178-6.14713E-08 1.31222E-08-6.20295E-08
 -1      1179 2.43138E-08-1.42412E-09-3.92520E-09
 -1      1180-5.62900E-08 1.46182E-08-4.57484E-08
 -1      1181 2.56572E-08-1.77652E-09-4.17849E-09
 -1      1182-5.46876E-08 1.44961E-08-2.99130E-08
 -1      1183 2.68452E-08-1.96747E-09-4.13020E-09
 -1      1184-5.57024E-08 1.33798E-08-1.28160E-08
 -1      1185 2.78615E-08-1.96400E-09-3.74937E-09
 -1      1186-4.55958E-08 6.28156E-09-1.09393E-08
 -1      1187 3.16528E-08 2.34672E-09-3.64038E-09
 -1      1188-4.27972E-08 5.82130E-09-2.93368E-08
 -1      1189 3.05863E-08 2.26671E-09-3.97248E-09
 -1      1190-3.69583E-08 5.87794E-09-4.61705E-08
 -1      1191 2.91549E-08 1.98818E-09-3.89700E-09
 -1      1192-3.10194E-08 5.74197E-09-6.31702E-08
 -1      1193 2.78556E-08 1.57120E-09-3.91486E-09
 -1      1194-2.63275E-08 4.45836E-09-7.74131E-08
 -1      1195 2.67809E-08 1.07752E-09-3.88173E-09
 -1      1196-2.37094E-08 2.30800E-09-8.60366E-08
 -1      1197 2.59412E-08 5.46715E-10-3.51629E-09
 -1      1198-2.29372E-08-2.01189E-15-8.87608E-08
 -1      1199 2.56255E-08-3.51863E-17-3.41539E-09
 -1      1200-2.37093E-08-2.30801E-09-8.60366E-08
 -1      1201 2.59412E-08-5.46715E-10-3.51629E-09
 -1      1202-2.63275E-08-4.45836E-09-7.74131E-08
 -1      1203 2.67809E-08-1.07752E-09-3.88173E-09
 -1      1204-3.10194E-08-5.74198E-09-6.31701E-08
 -1      1205 2.78556E-08-1.57120E-09-3.91486E-09
 -1      1206-3.69583E-08-5.87795E-09-4.61704E-08
 -1      1207 2.91549E-08-1.98818E-09-3.89700E-09
 -1      1208-4.27972E-08-5.82131E-09-2.93368E-08
 -1      1209 3.05863E-08-2.26671E-09-3.97248E-09
 -1      1210-4.55958E-08-6.28157E-09-1.09393E-08
 -1      1211 3.16528E-08-2.34672E-09-3.64038E-09
 -1      1212 0.00000E+00 0.00000E+00 0.00000E+00
 -1      1213 0.00000E+00 0.00000E+00 0.00000E+00
 -1      1214 0.00000E+00 0.00000E+00 0.00000E+00
 -1      1215 0.00000E+00 0.00000E+00 0.00000E+00
 -1      1216 0.00000E+00 0.00000E+00 0.00000E+00
 -1      1217 0.00000E+00 0.00000E+00 0.00000E+00
 -1      1218 0.00000E+00 0.00000E+00 0.00000E+00
 -1      1219 0.00000E+00 0.00000E+00 0.00000E+00
 -1      1220 0.00000E+00 0.00000E+00 0.00000E+00
 -1      1221 0.00000E+00 0.00000E+00 0.00000E+00
 -1      1222 0.00000E+00 0.00000E+00 0.00000E+00
 -1      1223 0.00000E+00 0.00000E+00 0.00000E+00
 -1      1224 0.00000E+00 0.00000E+00 0.00000E+00
 -1      1225 0.00000E+00 0.00000E+00 0.00000E+00
 -1      1226 0.00000E+00 0.00000E+00 0.00000E+00
 -1      1227 0.00000E+00 0.00000E+00 0.00000E+00
 -1      1228 0.00000E+00 0.00000E+00 0.00000E+00
 -1      1229 0.00000E+00 0.00000E+00 0.00000E+00
 -1      1230 0.00000E+00 0.00000E+00 0.00000E+00
 -1      1231 0.00000E+00 0.00000E+00 0.00000E+00
 -1      1232 0.00000E+00 0.00000E+00 0.00000E+00
 -1      1233 0.00000E+00 0.00000E+00 0.00000E+00
 -1      1234 0.00000E+00 0.00000E+00 0.00000E+00
 -1      1235 0.00000E+00 0.00000E+00 0.00000E+00
 -1      1236 0.00000E+00 0.00000E+00 0.00000E+00
 -1      1237 0.00000E+00 0.00000E+00 0.00000E+00
 -1      1238 0.00000E+00 0.00000E+00 0.00000E+00
 -1      1239 0.00000E+00 0.00000E+00 0.00000E+00
 -1      1240 0.00000E+00 0.00000E+00 0.00000E+00
 -1      1241 0.00000E+00 0.00000E+00 0.00000E+00
 -1      1242 0.00000E+00 0.00000E+00 0.00000E+00
 -1      1243 0.00000E+00 0.00000E+00 0.00000E+00
 -1      1244 0.00000E+00 0.00000E+00 0.00000E+00
 -1      1245 0.00000E+00 0.00000E+00 0.00000E+00
 -1      1246 0.00000E+00 0.00000E+00 0.00000E+00
 -1      1247 0.00000E+00 0.00000E+00 0.00000E+00
 -1      1248 0.00000E+00 0.00000E+00 0.00000E+00
 -1      1249 0.00000E+00 0.00000E+00 0.00000E+00
 -1      1250 0.00000E+00 0.00000E+00 0.00000E+00
 -1      1251 0.00000E+00 0.00000E+00 0.00000E+00
 -1      1252 0.00000E+00 0.00000E+00 0.00000E+00
 -1      1253 0.00000E+00 0.00000E+00 0.00000E+00
 -1      1254 0.00000E+00 0.00000E+00 0.00000E+00
 -1      1255 0.00000E+00 0.00000E+00 0.00000E+00
 -1      1256 0.00000E+00 0.00000E+00 0.00000E+00
 -1      1257 0.00000E+00 0.00000E+00 0.00000E+00
 -1      1258-3.33159E-08-3.97511E-08-2.58466E-08
 -1      1259-3.33159E-08 3.97511E-08-2.58466E-08
 -1      1260-3.10857E-08-6.67086E-08-4.48195E-08
 -1      1261-3.10857E-08 6.67086E-08-4.48195E-08
 -1      1262-1.91141E-08-8.50414E-08-5.67644E-08
 -1      1263-1.91141E-08 8.50414E-08-5.67644E-08
 -1      1264-8.44681E-09-9.28218E-08-6.16534E-08
 -1      1265-8.44681E-09 9.28218E-08-6.16534E-08
 -1      1266-2.46028E-09-9.45696E-08-6.24494E-08
 -1      1267-2.46028E-09 9.45696E-08-6.24494E-08
 -1      1268-4.51926E-11-9.44226E-08-6.21690E-08
 -1      1269-4.51927E-11 9.44226E-08-6.21690E-08
 -1      1270 7.78931E-10-9.41217E-08-6.19533E-08
 -1      1271 7.78931E-10 9.41217E-08-6.19533E-08
 -1      1272 1.13330E-09-9.40294E-08-6.19362E-08
 -1      1273 1.13330E-09 9.40294E-08-6.19362E-08
 -1      1274 1.38329E-09-9.40654E-08-6.20016E-08
 -1      1275 1.38329E-09 9.40654E-08-6.20016E-08
 -1      1276 1.59591E-09-9.41303E-08-6.20698E-08
 -1      1277 1.59591E-09 9.41303E-08-6.20698E-08
 -1      1278 1.79329E-09-9.41778E-08-6.21166E-08
 -1      1279 1.79329E-09 9.41778E-08-6.21166E-08
 -1      1280 2.03524E-09-9.41730E-08-6.21289E-08
 -1      1281 2.03524E-09 9.41730E-08-6.21289E-08
 -1      1282 2.42203E-09-9.40293E-08-6.20484E-08
 -1      1283 2.42203E-09 9.40293E-08-6.20484E-08
 -1      1284 2.98617E-09-9.35778E-08-6.17302E-08
 -1      1285 2.98617E-09 9.35778E-08-6.17302E-08
 -1      1286 3.38506E-09-9.27156E-08-6.10331E-08
 -1      1287 3.38506E-09 9.27156E-08-6.10331E-08
 -1      1288 2.74047E-09-9.19144E-08-6.03027E-08
 -1      1289 2.74047E-09 9.19144E-08-6.03027E-08
 -1      1290 1.12280E-09-9.27857E-08-6.10419E-08
 -1      1291 1.12280E-09 9.27857E-08-6.10419E-08
 -1      1292 3.50066E-09-9.65938E-08-6.45037E-08
 -1      1293 3.50066E-09 9.65938E-08-6.45037E-08
 -1      1294 1.83586E-08-9.64671E-08-6.53723E-08
 -1      1295 1.83586E-08 9.64671E-08-6.53723E-08
 -1      1296 3.78783E-08-7.32207E-08-4.92383E-08
 -1      1297 3.78783E-08 7.32207E-08-4.92383E-08
 -1      1298 3.85148E-08-3.27823E-08-2.06122E-08
 -1      1299 3.85148E-08 3.27823E-08-2.06122E-08
 -1      1300 2.27970E-08-9.27367E-09-4.48385E-09
 -1      1301 2.27970E-08 9.27367E-09-4.48385E-09
 -1      1302 1.02638E-08-1.63544E-09 1.12636E-10
 -1      1303 1.02638E-08 1.63544E-09 1.12636E-10
 -1      1304-5.75438E-08-6.09120E-08-3.57040E-08
 -1      1305-5.75438E-08 6.09120E-08-3.57040E-08
 -1      1306-4.97363E-08-1.01697E-07-6.03397E-08
 -1      1307-4.97363E-08 1.01697E-07-6.03397E-08
 -1      1308-3.12894E-08-1.30405E-07-7.68286E-08
 -1      1309-3.12894E-08 1.30405E-07-7.68286E-08
 -1      1310-1.42554E-08-1.42261E-07-8.24736E-08
 -1      1311-1.42554E-08 1.42261E-07-8.24736E-08
 -1      1312-4.47567E-09-1.45023E-07-8.26503E-08
 -1      1313-4.47567E-09 1.45023E-07-8.26503E-08
 -1      1314-2.26984E-10-1.44857E-07-8.17972E-08
 -1      1315-2.26984E-10 1.44857E-07-8.17972E-08
 -1      1316 1.42954E-09-1.44441E-07-8.13909E-08
 -1      1317 1.42954E-09 1.44441E-07-8.13909E-08
 -1      1318 2.21974E-09-1.44322E-07-8.13847E-08
 -1      1319 2.21974E-09 1.44322E-07-8.13847E-08
 -1      1320 2.74968E-09-1.44388E-07-8.15048E-08
 -1      1321 2.74968E-09 1.44388E-07-8.15048E-08
 -1      1322 3.16750E-09-1.44492E-07-8.16153E-08
 -1      1323 3.16750E-09 1.44492E-07-8.16153E-08
 -1      1324 3.53631E-09-1.44566E-07-8.16928E-08
 -1      1325 3.53631E-09 1.44566E-07-8.16928E-08
 -1      1326 3.96209E-09-1.44558E-07-8.17349E-08
 -1      1327 3.96209E-09 1.44558E-07-8.17349E-08
 -1      1328 4.60204E-09-1.44339E-07-8.16658E-08
 -1      1329 4.60204E-09 1.44339E-07-8.16658E-08
 -1      1330 5.51313E-09-1.43654E-07-8.12395E-08
 -1      1331 5.51313E-09 1.43654E-07-8.12395E-08
 -1      1332 6.22333E-09-1.42342E-07-8.01334E-08
 -1      1333 6.22333E-09 1.42342E-07-8.01334E-08
 -1      1334 5.50811E-09-1.41072E-07-7.88015E-08
 -1      1335 5.50811E-09 1.41072E-07-7.88015E-08
 -1      1336 3.51277E-09-1.42200E-07-7.99847E-08
 -1      1337 3.51277E-09 1.42200E-07-7.99847E-08
 -1      1338 7.53372E-09-1.47956E-07-8.65413E-08
 -1      1339 7.53372E-09 1.47956E-07-8.65413E-08
 -1      1340 3.00099E-08-1.48587E-07-9.01087E-08
 -1      1341 3.00099E-08 1.48587E-07-9.01087E-08
 -1      1342 5.92022E-08-1.12955E-07-6.71675E-08
 -1      1343 5.92022E-08 1.12955E-07-6.71675E-08
 -1      1344 6.02496E-08-4.97160E-08-2.48867E-08
 -1      1345 6.02496E-08 4.97160E-08-2.48867E-08
 -1      1346 3.68144E-08-1.40450E-08-2.29807E-09
 -1      1347 3.68144E-08 1.40450E-08-2.29807E-09
 -1      1348 1.87849E-08-2.70232E-09 1.82141E-09
 -1      1349 1.87849E-08 2.70232E-09 1.82141E-09
 -1      1350-6.83829E-08-6.57027E-08-3.64494E-08
 -1      1351-6.83829E-08 6.57027E-08-3.64494E-08
 -1      1352-5.76390E-08-1.11405E-07-6.00519E-08
 -1      1353-5.76390E-08 1.11405E-07-6.00519E-08
 -1      1354-3.65198E-08-1.43333E-07-7.64441E-08
 -1      1355-3.65198E-08 1.43333E-07-7.64441E-08
 -1      1356-1.73809E-08-1.56386E-07-8.10126E-08
 -1      1357-1.73809E-08 1.56386E-07-8.10126E-08
 -1      1358-5.94806E-09-1.59455E-07-7.99474E-08
 -1      1359-5.94806E-09 1.59455E-07-7.99474E-08
 -1      1360-5.30697E-10-1.59367E-07-7.84384E-08
 -1      1361-5.30698E-10 1.59367E-07-7.84384E-08
 -1      1362 1.91041E-09-1.59012E-07-7.78504E-08
 -1      1363 1.91041E-09 1.59012E-07-7.78504E-08
 -1      1364 3.19013E-09-1.58959E-07-7.78516E-08
 -1      1365 3.19013E-09 1.58959E-07-7.78516E-08
 -1      1366 4.01943E-09-1.59081E-07-7.80062E-08
 -1      1367 4.01943E-09 1.59081E-07-7.80062E-08
 -1      1368 4.63026E-09-1.59222E-07-7.81382E-08
 -1      1369 4.63026E-09 1.59222E-07-7.81382E-08
 -1      1370 5.14061E-09-1.59317E-07-7.82336E-08
 -1      1371 5.14061E-09 1.59317E-07-7.82336E-08
 -1      1372 5.68870E-09-1.59314E-07-7.83100E-08
 -1      1373 5.68870E-09 1.59314E-07-7.83100E-08
 -1      1374 6.45039E-09-1.59076E-07-7.82933E-08
 -1      1375 6.45039E-09 1.59076E-07-7.82933E-08
 -1      1376 7.50906E-09-1.58319E-07-7.78694E-08
 -1      1377 7.50906E-09 1.58319E-07-7.78694E-08
 -1      1378 8.47618E-09-1.56832E-07-7.65498E-08
 -1      1379 8.47618E-09 1.56832E-07-7.65498E-08
 -1      1380 8.25195E-09-1.55285E-07-7.47858E-08
 -1      1381 8.25195E-09 1.55285E-07-7.47858E-08
 -1      1382 6.88847E-09-1.56232E-07-7.63150E-08
 -1      1383 6.88847E-09 1.56232E-07-7.63150E-08
 -1      1384 1.13157E-08-1.62616E-07-8.54453E-08
 -1      1385 1.13157E-08 1.62616E-07-8.54453E-08
 -1      1386 3.47626E-08-1.65159E-07-9.16991E-08
 -1      1387 3.47626E-08 1.65159E-07-9.16991E-08
 -1      1388 6.56919E-08-1.25854E-07-6.73150E-08
 -1      1389 6.56919E-08 1.25854E-07-6.73150E-08
 -1      1390 6.66919E-08-5.31966E-08-2.12336E-08
 -1      1391 6.66919E-08 5.31966E-08-2.12336E-08
 -1      1392 4.22424E-08-1.47714E-08 2.59997E-09
 -1      1393 4.22424E-08 1.47714E-08 2.59997E-09
 -1      1394 2.44587E-08-2.80466E-09 4.10723E-09
 -1      1395 2.44587E-08 2.80466E-09 4.10723E-09
 -1      1396-6.60254E-08-5.27134E-08-3.22578E-08
 -1      1397-6.60254E-08 5.27134E-08-3.22578E-08
 -1      1398-5.49867E-08-9.14893E-08-5.07390E-08
 -1      1399-5.49867E-08 9.14893E-08-5.07390E-08
 -1      1400-3.55978E-08-1.18783E-07-6.46608E-08
 -1      1401-3.55978E-08 1.18783E-07-6.46608E-08
 -1      1402-1.81655E-08-1.30146E-07-6.76064E-08
 -1      1403-1.81655E-08 1.30146E-07-6.76064E-08
 -1      1404-7.02096E-09-1.32981E-07-6.53910E-08
 -1      1405-7.02096E-09 1.32981E-07-6.53910E-08
 -1      1406-9.96011E-10-1.33131E-07-6.33454E-08
 -1      1407-9.96012E-10 1.33131E-07-6.33454E-08
 -1      1408 2.17087E-09-1.33034E-07-6.26031E-08
 -1      1409 2.17087E-09 1.33034E-07-6.26031E-08
 -1      1410 3.96081E-09-1.33144E-07-6.25864E-08
 -1      1411 3.96081E-09 1.33144E-07-6.25864E-08
 -1      1412 5.08440E-09-1.33347E-07-6.27449E-08
 -1      1413 5.08440E-09 1.33347E-07-6.27449E-08
 -1      1414 5.86336E-09-1.33522E-07-6.28769E-08
 -1      1415 5.86336E-09 1.33522E-07-6.28769E-08
 -1      1416 6.48083E-09-1.33630E-07-6.29771E-08
 -1      1417 6.48083E-09 1.33630E-07-6.29771E-08
 -1      1418 7.09314E-09-1.33638E-07-6.30797E-08
 -1      1419 7.09314E-09 1.33638E-07-6.30797E-08
 -1      1420 7.85740E-09-1.33435E-07-6.31192E-08
 -1      1421 7.85740E-09 1.33435E-07-6.31192E-08
 -1      1422 8.86865E-09-1.32769E-07-6.27501E-08
 -1      1423 8.86865E-09 1.32769E-07-6.27501E-08
 -1      1424 9.97623E-09-1.31421E-07-6.13900E-08
 -1      1425 9.97623E-09 1.31421E-07-6.13900E-08
 -1      1426 1.06524E-08-1.29927E-07-5.94695E-08
 -1      1427 1.06524E-08 1.29927E-07-5.94695E-08
 -1      1428 1.09756E-08-1.30467E-07-6.13335E-08
 -1      1429 1.09756E-08 1.30467E-07-6.13335E-08
 -1      1430 1.52242E-08-1.35843E-07-7.21141E-08
 -1      1431 1.52242E-08 1.35843E-07-7.21141E-08
 -1      1432 3.34316E-08-1.39629E-07-7.92610E-08
 -1      1433 3.34316E-08 1.39629E-07-7.92610E-08
 -1      1434 5.77747E-08-1.06823E-07-5.68119E-08
 -1      1435 5.77747E-08 1.06823E-07-5.68119E-08
 -1      1436 5.85664E-08-4.33363E-08-1.52757E-08
 -1      1437 5.85664E-08 4.33363E-08-1.52757E-08
 -1      1438 4.00429E-08-1.18823E-08 7.30554E-09
 -1      1439 4.00429E-08 1.18823E-08 7.30554E-09
 -1      1440 2.75286E-08-2.10586E-09 6.05042E-09
 -1      1441 2.75286E-08 2.10586E-09 6.05042E-09
 -1      1442-5.40418E-08-2.42024E-08-2.77708E-08
 -1      1443-5.40418E-08 2.42024E-08-2.77708E-08
 -1      1444-4.44995E-08-4.36708E-08-4.11187E-08
 -1      1445-4.44995E-08 4.36708E-08-4.11187E-08
 -1      1446-3.06111E-08-5.95012E-08-5.25153E-08
 -1      1447-3.06111E-08 5.95012E-08-5.25153E-08
 -1      1448-1.76526E-08-6.71348E-08-5.43044E-08
 -1      1449-1.76526E-08 6.71348E-08-5.43044E-08
 -1      1450-7.99612E-09-6.95791E-08-5.13886E-08
 -1      1451-7.99612E-09 6.95791E-08-5.13886E-08
 -1      1452-1.66148E-09-7.02121E-08-4.89938E-08
 -1      1453-1.66148E-09 7.02121E-08-4.89938E-08
 -1      1454 2.17763E-09-7.05548E-08-4.81006E-08
 -1      1455 2.17763E-09 7.05548E-08-4.81006E-08
 -1      1456 4.43996E-09-7.09024E-08-4.80191E-08
 -1      1457 4.43996E-09 7.09024E-08-4.80191E-08
 -1      1458 5.81019E-09-7.12025E-08-4.81439E-08
 -1      1459 5.81019E-09 7.12025E-08-4.81439E-08
 -1      1460 6.71259E-09-7.14081E-08-4.82559E-08
 -1      1461 6.71259E-09 7.14081E-08-4.82559E-08
 -1      1462 7.39977E-09-7.15207E-08-4.83493E-08
 -1      1463 7.39977E-09 7.15207E-08-4.83493E-08
 -1      1464 8.03328E-09-7.15415E-08-4.84636E-08
 -1      1465 8.03328E-09 7.15415E-08-4.84636E-08
 -1      1466 8.71792E-09-7.14081E-08-4.85385E-08
 -1      1467 8.71792E-09 7.14081E-08-4.85385E-08
 -1      1468 9.51942E-09-7.09555E-08-4.82232E-08
 -1      1469 9.51942E-09 7.09555E-08-4.82232E-08
 -1      1470 1.05573E-08-7.00396E-08-4.69298E-08
 -1      1471 1.05573E-08 7.00396E-08-4.69298E-08
 -1      1472 1.22356E-08-6.90352E-08-4.51050E-08
 -1      1473 1.22356E-08 6.90352E-08-4.51050E-08
 -1      1474 1.52379E-08-6.92943E-08-4.73305E-08
 -1      1475 1.52379E-08 6.92943E-08-4.73305E-08
 -1      1476 1.99896E-08-7.18884E-08-5.86847E-08
 -1      1477 1.99896E-08 7.18884E-08-5.86847E-08
 -1      1478 2.84801E-08-7.39172E-08-6.50919E-08
 -1      1479 2.84801E-08 7.39172E-08-6.50919E-08
 -1      1480 3.84627E-08-5.72810E-08-4.53805E-08
 -1      1481 3.84627E-08 5.72810E-08-4.53805E-08
 -1      1482 3.93846E-08-2.37365E-08-1.09614E-08
 -1      1483 3.93846E-08 2.37365E-08-1.09614E-08
 -1      1484 3.32096E-08-7.11844E-09 9.90283E-09
 -1      1485 3.32096E-08 7.11844E-09 9.90283E-09
 -1      1486 2.92082E-08-1.02030E-09 7.12677E-09
 -1      1487 2.92082E-08 1.02030E-09 7.12677E-09
 -1      1488-4.25453E-08 1.09551E-08-2.65238E-08
 -1      1489-4.25453E-08-1.09551E-08-2.65238E-08
 -1      1490-3.44184E-08 1.65300E-08-3.81911E-08
 -1      1491-3.44184E-08-1.65300E-08-3.81911E-08
 -1      1492-2.58294E-08 1.48756E-08-4.86757E-08
 -1      1493-2.58294E-08-1.48756E-08-4.86757E-08
 -1      1494-1.74420E-08 1.15298E-08-5.01359E-08
 -1      1495-1.74420E-08-1.15298E-08-5.01359E-08
 -1      1496-9.09700E-09 9.40552E-09-4.69604E-08
 -1      1497-9.09700E-09-9.40552E-09-4.69604E-08
 -1      1498-2.39768E-09 8.15553E-09-4.43154E-08
 -1      1499-2.39768E-09-8.15553E-09-4.43154E-08
 -1      1500 1.99960E-09 7.30082E-09-4.32294E-08
 -1      1501 1.99960E-09-7.30082E-09-4.32294E-08
 -1      1502 4.58140E-09 6.69154E-09-4.30288E-08
 -1      1503 4.58140E-09-6.69154E-09-4.30288E-08
 -1      1504 6.07955E-09 6.29125E-09-4.30885E-08
 -1      1505 6.07955E-09-6.29125E-09-4.30885E-08
 -1      1506 7.03130E-09 6.05973E-09-4.31685E-08
 -1      1507 7.03130E-09-6.05972E-09-4.31685E-08
 -1      1508 7.74759E-09 5.94637E-09-4.32497E-08
 -1      1509 7.74759E-09-5.94637E-09-4.32497E-08
 -1      1510 8.38601E-09 5.91478E-09-4.33643E-08
 -1      1511 8.38601E-09-5.91478E-09-4.33643E-08
 -1      1512 8.98255E-09 5.96852E-09-4.34460E-08
 -1      1513 8.98255E-09-5.96852E-09-4.34461E-08
 -1      1514 9.51455E-09 6.16548E-09-4.31485E-08
 -1      1515 9.51455E-09-6.16548E-09-4.31485E-08
 -1      1516 1.02629E-08 6.52784E-09-4.19270E-08
 -1      1517 1.02629E-08-6.52784E-09-4.19270E-08
 -1      1518 1.26205E-08 6.80273E-09-4.03475E-08
 -1      1519 1.26205E-08-6.80273E-09-4.03475E-08
 -1      1520 1.86723E-08 6.53869E-09-4.29130E-08
 -1      1521 1.86723E-08-6.53869E-09-4.29130E-08
 -1      1522 2.50641E-08 7.68469E-09-5.41877E-08
 -1      1523 2.50641E-08-7.68469E-09-5.41877E-08
 -1      1524 2.41393E-08 9.78966E-09-5.95764E-08
 -1      1525 2.41393E-08-9.78966E-09-5.95764E-08
 -1      1526 1.94371E-08 5.73711E-09-4.09746E-08
 -1      1527 1.94371E-08-5.73711E-09-4.09746E-08
 -1      1528 2.06530E-08-9.29881E-10-1.00584E-08
 -1      1529 2.06530E-08 9.29881E-10-1.00584E-08
 -1      1530 2.72164E-08-2.32639E-09 1.02683E-08
 -1      1531 2.72164E-08 2.32639E-09 1.02683E-08
 -1      1532 3.13441E-08 1.40568E-10 7.32293E-09
 -1      1533 3.13441E-08-1.40568E-10 7.32293E-09
 -1      1534 0.00000E+00 0.00000E+00 0.00000E+00
 -1      1535-3.78765E-08 1.24024E-08-6.06632E-08
 -1      1536 0.00000E+00 0.00000E+00 0.00000E+00
 -1      1537-2.85900E-08 2.01466E-08-9.63678E-08
 -1      1538 0.00000E+00 0.00000E+00 0.00000E+00
 -1      1539-2.18300E-08 1.95063E-08-1.20543E-07
 -1      1540 0.00000E+00 0.00000E+00 0.00000E+00
 -1      1541-1.55729E-08 1.62541E-08-1.25807E-07
 -1      1542 0.00000E+00 0.00000E+00 0.00000E+00
 -1      1543-8.27927E-09 1.40787E-08-1.22774E-07
 -1      1544 0.00000E+00 0.00000E+00 0.00000E+00
 -1      1545-1.89524E-09 1.29500E-08-1.19513E-07
 -1      1546 0.00000E+00 0.00000E+00 0.00000E+00
 -1      1547 2.45514E-09 1.22714E-08-1.17950E-07
 -1      1548 0.00000E+00 0.00000E+00 0.00000E+00
 -1      1549 5.02879E-09 1.17973E-08-1.17511E-07
 -1      1550 0.00000E+00 0.00000E+00 0.00000E+00
 -1      1551 6.50718E-09 1.14756E-08-1.17480E-07
 -1      1552 0.00000E+00 0.00000E+00 0.00000E+00
 -1      1553 7.43298E-09 1.12826E-08-1.17535E-07
 -1      1554 0.00000E+00 0.00000E+00 0.00000E+00
 -1      1555 8.12293E-09 1.11853E-08-1.17615E-07
 -1      1556 0.00000E+00 0.00000E+00 0.00000E+00
 -1      1557 8.72540E-09 1.11611E-08-1.17721E-07
 -1      1558 0.00000E+00 0.00000E+00 0.00000E+00
 -1      1559 9.25303E-09 1.12220E-08-1.17734E-07
 -1      1560 0.00000E+00 0.00000E+00 0.00000E+00
 -1      1561 9.66585E-09 1.14086E-08-1.17208E-07
 -1      1562 0.00000E+00 0.00000E+00 0.00000E+00
 -1      1563 1.03153E-08 1.16487E-08-1.15460E-07
 -1      1564 0.00000E+00 0.00000E+00 0.00000E+00
 -1      1565 1.27910E-08 1.15246E-08-1.13087E-07
 -1      1566 0.00000E+00 0.00000E+00 0.00000E+00
 -1      1567 1.93965E-08 1.08146E-08-1.15346E-07
 -1      1568 0.00000E+00 0.00000E+00 0.00000E+00
 -1      1569 2.64115E-08 1.27007E-08-1.30643E-07
 -1      1570 0.00000E+00 0.00000E+00 0.00000E+00
 -1      1571 2.23221E-08 1.72912E-08-1.41052E-07
 -1      1572 0.00000E+00 0.00000E+00 0.00000E+00
 -1      1573 1.09830E-08 1.14764E-08-1.01990E-07
 -1      1574 0.00000E+00 0.00000E+00 0.00000E+00
 -1      1575 1.22184E-08-1.16389E-09-3.13096E-08
 -1      1576 0.00000E+00 0.00000E+00 0.00000E+00
 -1      1577 2.37496E-08-3.29007E-09 6.61606E-09
 -1      1578 0.00000E+00 0.00000E+00 0.00000E+00
 -1      1579 2.99021E-08-1.24353E-10 6.31223E-09
 -1      1580 0.00000E+00 0.00000E+00 0.00000E+00
 -1      1581-2.83968E-08 1.82416E-08-1.00972E-07
 -1      1582 0.00000E+00 0.00000E+00 0.00000E+00
 -1      1583-1.79964E-08 3.38950E-08-1.69514E-07
 -1      1584 0.00000E+00 0.00000E+00 0.00000E+00
 -1      1585-1.57087E-08 3.64425E-08-2.10519E-07
 -1      1586 0.00000E+00 0.00000E+00 0.00000E+00
 -1      1587-1.26830E-08 3.36831E-08-2.18849E-07
 -1      1588 0.00000E+00 0.00000E+00 0.00000E+00
 -1      1589-6.73650E-09 3.13434E-08-2.15224E-07
 -1      1590 0.00000E+00 0.00000E+00 0.00000E+00
 -1      1591-7.25371E-10 3.01667E-08-2.11016E-07
 -1      1592 0.00000E+00 0.00000E+00 0.00000E+00
 -1      1593 3.60131E-09 2.95737E-08-2.08922E-07
 -1      1594 0.00000E+00 0.00000E+00 0.00000E+00
 -1      1595 6.20738E-09 2.92046E-08-2.08260E-07
 -1      1596 0.00000E+00 0.00000E+00 0.00000E+00
 -1      1597 7.70032E-09 2.89576E-08-2.08155E-07
 -1      1598 0.00000E+00 0.00000E+00 0.00000E+00
 -1      1599 8.62079E-09 2.88066E-08-2.08195E-07
 -1      1600 0.00000E+00 0.00000E+00 0.00000E+00
 -1      1601 9.29226E-09 2.87304E-08-2.08280E-07
 -1      1602 0.00000E+00 0.00000E+00 0.00000E+00
 -1      1603 9.85551E-09 2.87175E-08-2.08389E-07
 -1      1604 0.00000E+00 0.00000E+00 0.00000E+00
 -1      1605 1.03020E-08 2.87798E-08-2.08354E-07
 -1      1606 0.00000E+00 0.00000E+00 0.00000E+00
 -1      1607 1.05720E-08 2.89174E-08-2.07615E-07
 -1      1608 0.00000E+00 0.00000E+00 0.00000E+00
 -1      1609 1.10661E-08 2.89303E-08-2.05169E-07
 -1      1610 0.00000E+00 0.00000E+00 0.00000E+00
 -1      1611 1.35447E-08 2.82517E-08-2.01525E-07
 -1      1612 0.00000E+00 0.00000E+00 0.00000E+00
 -1      1613 2.09183E-08 2.69462E-08-2.02182E-07
 -1      1614 0.00000E+00 0.00000E+00 0.00000E+00
 -1      1615 3.01759E-08 2.98659E-08-2.23136E-07
 -1      1616 0.00000E+00 0.00000E+00 0.00000E+00
 -1      1617 2.04646E-08 4.04275E-08-2.47388E-07
 -1      1618 0.00000E+00 0.00000E+00 0.00000E+00
 -1      1619-5.55767E-09 2.98634E-08-1.81960E-07
 -1      1620 0.00000E+00 0.00000E+00 0.00000E+00
 -1      1621-3.54614E-09-6.49123E-10-5.07875E-08
 -1      1622 0.00000E+00 0.00000E+00 0.00000E+00
 -1      1623 1.88594E-08-4.18173E-09 6.35051E-09
 -1      1624 0.00000E+00 0.00000E+00 0.00000E+00
 -1      1625 2.80137E-08-3.98982E-10 5.46773E-09
 -1      1626 0.00000E+00 0.00000E+00 0.00000E+00
 -1      1627-1.74140E-08 2.21558E-08-1.82747E-07
 -1      1628 0.00000E+00 0.00000E+00 0.00000E+00
 -1      1629-5.29119E-09 4.39408E-08-3.48016E-07
 -1      1630 0.00000E+00 0.00000E+00 0.00000E+00
 -1      1631-8.05219E-09 4.94974E-08-4.18875E-07
 -1      1632 0.00000E+00 0.00000E+00 0.00000E+00
 -1      1633-8.08705E-09 4.75466E-08-4.30814E-07
 -1      1634 0.00000E+00 0.00000E+00 0.00000E+00
 -1      1635-3.31488E-09 4.52896E-08-4.24131E-07
 -1      1636 0.00000E+00 0.00000E+00 0.00000E+00
 -1      1637 2.39320E-09 4.41206E-08-4.17537E-07
 -1      1638 0.00000E+00 0.00000E+00 0.00000E+00
 -1      1639 6.70351E-09 4.35961E-08-4.14401E-07
 -1      1640 0.00000E+00 0.00000E+00 0.00000E+00
 -1      1641 9.34194E-09 4.33130E-08-4.13405E-07
 -1      1642 0.00000E+00 0.00000E+00 0.00000E+00
 -1      1643 1.08549E-08 4.31336E-08-4.13235E-07
 -1      1644 0.00000E+00 0.00000E+00 0.00000E+00
 -1      1645 1.17769E-08 4.30240E-08-4.13285E-07
 -1      1646 0.00000E+00 0.00000E+00 0.00000E+00
 -1      1647 1.24359E-08 4.29699E-08-4.13403E-07
 -1      1648 0.00000E+00 0.00000E+00 0.00000E+00
 -1      1649 1.29676E-08 4.29665E-08-4.13548E-07
 -1      1650 0.00000E+00 0.00000E+00 0.00000E+00
 -1      1651 1.33449E-08 4.30202E-08-4.13486E-07
 -1      1652 0.00000E+00 0.00000E+00 0.00000E+00
 -1      1653 1.34874E-08 4.30937E-08-4.12334E-07
 -1      1654 0.00000E+00 0.00000E+00 0.00000E+00
 -1      1655 1.37635E-08 4.29123E-08-4.08514E-07
 -1      1656 0.00000E+00 0.00000E+00 0.00000E+00
 -1      1657 1.61315E-08 4.18749E-08-4.00826E-07
 -1      1658 0.00000E+00 0.00000E+00 0.00000E+00
 -1      1659 2.39316E-08 4.02875E-08-3.98008E-07
 -1      1660 0.00000E+00 0.00000E+00 0.00000E+00
 -1      1661 3.67895E-08 4.40008E-08-4.19257E-07
 -1      1662 0.00000E+00 0.00000E+00 0.00000E+00
 -1      1663 2.28182E-08 5.86006E-08-5.10346E-07
 -1      1664 0.00000E+00 0.00000E+00 0.00000E+00
 -1      1665-2.31691E-08 4.52661E-08-3.94805E-07
 -1      1666 0.00000E+00 0.00000E+00 0.00000E+00
 -1      1667-2.13359E-08 5.65425E-10-4.95131E-08
 -1      1668 0.00000E+00 0.00000E+00 0.00000E+00
 -1      1669 1.54415E-08-4.35083E-09 4.05226E-09
 -1      1670 0.00000E+00 0.00000E+00 0.00000E+00
 -1      1671 2.61063E-08-5.85188E-10 5.83345E-09
 -1      1672 0.00000E+00 0.00000E+00 0.00000E+00
 -1      1673-7.84660E-09 1.77233E-08-2.58223E-07
 -1      1674 0.00000E+00 0.00000E+00 0.00000E+00
 -1      1675 6.07076E-09 3.57751E-08-5.22101E-07
 -1      1676 0.00000E+00 0.00000E+00 0.00000E+00
 -1      1677-1.32601E-09 4.13125E-08-6.24777E-07
 -1      1678 0.00000E+00 0.00000E+00 0.00000E+00
 -1      1679-3.88683E-09 4.02004E-08-6.40018E-07
 -1      1680 0.00000E+00 0.00000E+00 0.00000E+00
 -1      1681 2.80238E-11 3.85171E-08-6.30586E-07
 -1      1682 0.00000E+00 0.00000E+00 0.00000E+00
 -1      1683 5.53193E-09 3.76283E-08-6.21700E-07
 -1      1684 0.00000E+00 0.00000E+00 0.00000E+00
 -1      1685 9.83617E-09 3.72470E-08-6.17574E-07
 -1      1686 0.00000E+00 0.00000E+00 0.00000E+00
 -1      1687 1.24997E-08 3.70565E-08-6.16268E-07
 -1      1688 0.00000E+00 0.00000E+00 0.00000E+00
 -1      1689 1.40297E-08 3.69392E-08-6.16049E-07
 -1      1690 0.00000E+00 0.00000E+00 0.00000E+00
 -1      1691 1.49550E-08 3.68674E-08-6.16121E-07
 -1      1692 0.00000E+00 0.00000E+00 0.00000E+00
 -1      1693 1.56062E-08 3.68320E-08-6.16280E-07
 -1      1694 0.00000E+00 0.00000E+00 0.00000E+00
 -1      1695 1.61153E-08 3.68319E-08-6.16469E-07
 -1      1696 0.00000E+00 0.00000E+00 0.00000E+00
 -1      1697 1.64422E-08 3.68696E-08-6.16380E-07
 -1      1698 0.00000E+00 0.00000E+00 0.00000E+00
 -1      1699 1.64814E-08 3.69034E-08-6.14838E-07
 -1      1700 0.00000E+00 0.00000E+00 0.00000E+00
 -1      1701 1.65548E-08 3.66989E-08-6.09628E-07
 -1      1702 0.00000E+00 0.00000E+00 0.00000E+00
 -1      1703 1.87392E-08 3.58044E-08-5.98228E-07
 -1      1704 0.00000E+00 0.00000E+00 0.00000E+00
 -1      1705 2.68794E-08 3.45571E-08-5.91749E-07
 -1      1706 0.00000E+00 0.00000E+00 0.00000E+00
 -1      1707 4.34107E-08 3.82688E-08-6.14998E-07
 -1      1708 0.00000E+00 0.00000E+00 0.00000E+00
 -1      1709 2.65064E-08 4.97160E-08-7.72040E-07
 -1      1710 0.00000E+00 0.00000E+00 0.00000E+00
 -1      1711-3.85618E-08 3.93868E-08-6.21489E-07
 -1      1712 0.00000E+00 0.00000E+00 0.00000E+00
 -1      1713-3.73895E-08 2.07460E-09-4.39435E-08
 -1      1714 0.00000E+00 0.00000E+00 0.00000E+00
 -1      1715 1.33499E-08-3.62952E-09 2.00170E-09
 -1      1716 0.00000E+00 0.00000E+00 0.00000E+00
 -1      1717 2.46226E-08-5.77815E-10 6.52622E-09
 -1      1718 0.00000E+00 0.00000E+00 0.00000E+00
 -1      1719-2.40308E-09 8.65389E-09-2.81183E-07
 -1      1720 0.00000E+00 0.00000E+00 0.00000E+00
 -1      1721 1.25407E-08 1.74190E-08-5.77340E-07
 -1      1722 0.00000E+00 0.00000E+00 0.00000E+00
 -1      1723 2.05613E-09 2.04881E-08-6.95325E-07
 -1      1724 0.00000E+00 0.00000E+00 0.00000E+00
 -1      1725-2.15594E-09 2.00277E-08-7.13156E-07
 -1      1726 0.00000E+00 0.00000E+00 0.00000E+00
 -1      1727 1.26894E-09 1.91814E-08-7.03086E-07
 -1      1728 0.00000E+00 0.00000E+00 0.00000E+00
 -1      1729 6.66034E-09 1.87353E-08-6.93480E-07
 -1      1730 0.00000E+00 0.00000E+00 0.00000E+00
 -1      1731 1.09618E-08 1.85465E-08-6.88973E-07
 -1      1732 0.00000E+00 0.00000E+00 0.00000E+00
 -1      1733 1.36400E-08 1.84534E-08-6.87534E-07
 -1      1734 0.00000E+00 0.00000E+00 0.00000E+00
 -1      1735 1.51802E-08 1.83957E-08-6.87279E-07
 -1      1736 0.00000E+00 0.00000E+00 0.00000E+00
 -1      1737 1.61078E-08 1.83597E-08-6.87352E-07
 -1      1738 0.00000E+00 0.00000E+00 0.00000E+00
 -1      1739 1.67543E-08 1.83416E-08-6.87521E-07
 -1      1740 0.00000E+00 0.00000E+00 0.00000E+00
 -1      1741 1.72496E-08 1.83415E-08-6.87720E-07
 -1      1742 0.00000E+00 0.00000E+00 0.00000E+00
 -1      1743 1.75472E-08 1.83606E-08-6.87598E-07
 -1      1744 0.00000E+00 0.00000E+00 0.00000E+00
 -1      1745 1.75208E-08 1.83758E-08-6.85901E-07
 -1      1746 0.00000E+00 0.00000E+00 0.00000E+00
 -1      1747 1.74852E-08 1.82654E-08-6.80080E-07
 -1      1748 0.00000E+00 0.00000E+00 0.00000E+00
 -1      1749 1.94963E-08 1.78044E-08-6.67834E-07
 -1      1750 0.00000E+00 0.00000E+00 0.00000E+00
 -1      1751 2.80699E-08 1.72048E-08-6.59246E-07
 -1      1752 0.00000E+00 0.00000E+00 0.00000E+00
 -1      1753 4.68748E-08 1.95788E-08-6.90610E-07
 -1      1754 0.00000E+00 0.00000E+00 0.00000E+00
 -1      1755 2.76927E-08 2.47157E-08-8.60496E-07
 -1      1756 0.00000E+00 0.00000E+00 0.00000E+00
 -1      1757-4.88561E-08 1.98484E-08-7.04748E-07
 -1      1758 0.00000E+00 0.00000E+00 0.00000E+00
 -1      1759-4.76027E-08 2.03864E-09-5.45992E-08
 -1      1760 0.00000E+00 0.00000E+00 0.00000E+00
 -1      1761 1.18623E-08-2.07409E-09 3.98572E-09
 -1      1762 0.00000E+00 0.00000E+00 0.00000E+00
 -1      1763 2.38548E-08-3.60025E-10 6.36254E-09
 -1      1764 0.00000E+00 0.00000E+00 0.00000E+00
 -1      1765-7.48729E-10-3.14434E-15-2.87542E-07
 -1      1766 0.00000E+00 0.00000E+00 0.00000E+00
 -1      1767 1.46174E-08-1.05228E-15-5.93391E-07
 -1      1768 0.00000E+00 0.00000E+00 0.00000E+00
 -1      1769 3.16857E-09-7.48290E-16-7.16309E-07
 -1      1770 0.00000E+00 0.00000E+00 0.00000E+00
 -1      1771-1.61619E-09-7.55654E-16-7.35116E-07
 -1      1772 0.00000E+00 0.00000E+00 0.00000E+00
 -1      1773 1.64935E-09-6.11530E-16-7.24882E-07
 -1      1774 0.00000E+00 0.00000E+00 0.00000E+00
 -1      1775 7.00190E-09-4.38358E-16-7.15057E-07
 -1      1776 0.00000E+00 0.00000E+00 0.00000E+00
 -1      1777 1.13007E-08 1.34859E-16-7.10438E-07
 -1      1778 0.00000E+00 0.00000E+00 0.00000E+00
 -1      1779 1.39831E-08 3.41082E-16-7.08950E-07
 -1      1780 0.00000E+00 0.00000E+00 0.00000E+00
 -1      1781 1.55265E-08 5.04191E-16-7.08686E-07
 -1      1782 0.00000E+00 0.00000E+00 0.00000E+00
 -1      1783 1.64549E-08 5.85181E-16-7.08758E-07
 -1      1784 0.00000E+00 0.00000E+00 0.00000E+00
 -1      1785 1.70998E-08 6.68890E-16-7.08930E-07
 -1      1786 0.00000E+00 0.00000E+00 0.00000E+00
 -1      1787 1.75906E-08 7.00452E-16-7.09130E-07
 -1      1788 0.00000E+00 0.00000E+00 0.00000E+00
 -1      1789 1.78787E-08 7.02783E-16-7.09001E-07
 -1      1790 0.00000E+00 0.00000E+00 0.00000E+00
 -1      1791 1.78304E-08 7.18052E-16-7.07239E-07
 -1      1792 0.00000E+00 0.00000E+00 0.00000E+00
 -1      1793 1.77638E-08 6.84464E-16-7.01275E-07
 -1      1794 0.00000E+00 0.00000E+00 0.00000E+00
 -1      1795 1.96994E-08 6.31759E-16-6.88665E-07
 -1      1796 0.00000E+00 0.00000E+00 0.00000E+00
 -1      1797 2.84872E-08 6.21343E-16-6.79705E-07
 -1      1798 0.00000E+00 0.00000E+00 0.00000E+00
 -1      1799 4.79578E-08 6.22887E-17-7.13525E-07
 -1      1800 0.00000E+00 0.00000E+00 0.00000E+00
 -1      1801 2.79698E-08 7.26460E-16-8.87757E-07
 -1      1802 0.00000E+00 0.00000E+00 0.00000E+00
 -1      1803-5.21046E-08 7.42819E-16-7.29615E-07
 -1      1804 0.00000E+00 0.00000E+00 0.00000E+00
 -1      1805-5.09705E-08 2.83353E-16-5.88100E-08
 -1      1806 0.00000E+00 0.00000E+00 0.00000E+00
 -1      1807 1.12625E-08 7.26302E-17 4.64772E-09
 -1      1808 0.00000E+00 0.00000E+00 0.00000E+00
 -1      1809 2.36397E-08 2.58705E-18 6.37513E-09
 -1      1810 0.00000E+00 0.00000E+00 0.00000E+00
 -1      1811-2.40307E-09-8.65390E-09-2.81183E-07
 -1      1812 0.00000E+00 0.00000E+00 0.00000E+00
 -1      1813 1.25407E-08-1.74190E-08-5.77340E-07
 -1      1814 0.00000E+00 0.00000E+00 0.00000E+00
 -1      1815 2.05613E-09-2.04881E-08-6.95325E-07
 -1      1816 0.00000E+00 0.00000E+00 0.00000E+00
 -1      1817-2.15594E-09-2.00277E-08-7.13156E-07
 -1      1818 0.00000E+00 0.00000E+00 0.00000E+00
 -1      1819 1.26894E-09-1.91814E-08-7.03086E-07
 -1      1820 0.00000E+00 0.00000E+00 0.00000E+00
 -1      1821 6.66034E-09-1.87353E-08-6.93480E-07
 -1      1822 0.00000E+00 0.00000E+00 0.00000E+00
 -1      1823 1.09618E-08-1.85465E-08-6.88973E-07
 -1      1824 0.00000E+00 0.00000E+00 0.00000E+00
 -1      1825 1.36400E-08-1.84534E-08-6.87534E-07
 -1      1826 0.00000E+00 0.00000E+00 0.00000E+00
 -1      1827 1.51802E-08-1.83957E-08-6.87279E-07
 -1      1828 0.00000E+00 0.00000E+00 0.00000E+00
 -1      1829 1.61078E-08-1.83597E-08-6.87352E-07
 -1      1830 0.00000E+00 0.00000E+00 0.00000E+00
 -1      1831 1.67543E-08-1.83416E-08-6.87521E-07
 -1      1832 0.00000E+00 0.00000E+00 0.00000E+00
 -1      1833 1.72496E-08-1.83415E-08-6.87720E-07
 -1      1834 0.00000E+00 0.00000E+00 0.00000E+00
 -1      1835 1.75472E-08-1.83606E-08-6.87598E-07
 -1      1836 0.00000E+00 0.00000E+00 0.00000E+00
 -1      1837 1.75208E-08-1.83758E-08-6.85901E-07
 -1      1838 0.00000E+00 0.00000E+00 0.00000E+00
 -1      1839 1.74852E-08-1.82654E-08-6.80080E-07
 -1      1840 0.00000E+00 0.00000E+00 0.00000E+00
 -1      1841 1.94963E-08-1.78044E-08-6.67834E-07
 -1      1842 0.00000E+00 0.00000E+00 0.00000E+00
 -1      1843 2.80699E-08-1.72048E-08-6.59246E-07
 -1      1844 0.00000E+00 0.00000E+00 0.00000E+00
 -1      1845 4.68748E-08-1.95788E-08-6.90610E-07
 -1      1846 0.00000E+00 0.00000E+00 0.00000E+00
 -1      1847 2.76927E-08-2.47157E-08-8.60496E-07
 -1      1848 0.00000E+00 0.00000E+00 0.00000E+00
 -1      1849-4.88561E-08-1.98484E-08-7.04748E-07
 -1      1850 0.00000E+00 0.00000E+00 0.00000E+00
 -1      1851-4.76027E-08-2.03863E-09-5.45992E-08
 -1      1852 0.00000E+00 0.00000E+00 0.00000E+00
 -1      1853 1.18623E-08 2.07409E-09 3.98572E-09
 -1      1854 0.00000E+00 0.00000E+00 0.00000E+00
 -1      1855 2.38548E-08 3.60025E-10 6.36254E-09
 -1      1856 0.00000E+00 0.00000E+00 0.00000E+00
 -1      1857-7.84659E-09-1.77233E-08-2.58223E-07
 -1      1858 0.00000E+00 0.00000E+00 0.00000E+00
 -1      1859 6.07076E-09-3.57751E-08-5.22101E-07
 -1      1860 0.00000E+00 0.00000E+00 0.00000E+00
 -1      1861-1.32601E-09-4.13125E-08-6.24777E-07
 -1      1862 0.00000E+00 0.00000E+00 0.00000E+00
 -1      1863-3.88683E-09-4.02004E-08-6.40018E-07
 -1      1864 0.00000E+00 0.00000E+00 0.00000E+00
 -1      1865 2.80240E-11-3.85171E-08-6.30586E-07
 -1      1866 0.00000E+00 0.00000E+00 0.00000E+00
 -1      1867 5.53193E-09-3.76283E-08-6.21700E-07
 -1      1868 0.00000E+00 0.00000E+00 0.00000E+00
 -1      1869 9.83617E-09-3.72470E-08-6.17574E-07
 -1      1870 0.00000E+00 0.00000E+00 0.00000E+00
 -1      1871 1.24997E-08-3.70565E-08-6.16268E-07
 -1      1872 0.00000E+00 0.00000E+00 0.00000E+00
 -1      1873 1.40297E-08-3.69392E-08-6.16049E-07
 -1      1874 0.00000E+00 0.00000E+00 0.00000E+00
 -1      1875 1.49550E-08-3.68674E-08-6.16121E-07
 -1      1876 0.00000E+00 0.00000E+00 0.00000E+00
 -1      1877 1.56062E-08-3.68320E-08-6.16280E-07
 -1      1878 0.00000E+00 0.00000E+00 0.00000E+00
 -1      1879 1.61153E-08-3.68319E-08-6.16469E-07
 -1      1880 0.00000E+00 0.00000E+00 0.00000E+00
 -1      1881 1.64422E-08-3.68696E-08-6.16380E-07
 -1      1882 0.00000E+00 0.00000E+00 0.00000E+00
 -1      1883 1.64814E-08-3.69034E-08-6.14838E-07
 -1      1884 0.00000E+00 0.00000E+00 0.00000E+00
 -1      1885 1.65548E-08-3.66989E-08-6.09628E-07
 -1      1886 0.00000E+00 0.00000E+00 0.00000E+00
 -1      1887 1.87392E-08-3.58044E-08-5.98228E-07
 -1      1888 0.00000E+00 0.00000E+00 0.00000E+00
 -1      1889 2.68794E-08-3.45571E-08-5.91749E-07
 -1      1890 0.00000E+00 0.00000E+00 0.00000E+00
 -1      1891 4.34107E-08-3.82688E-08-6.14998E-07
 -1      1892 0.00000E+00 0.00000E+00 0.00000E+00
 -1      1893 2.65064E-08-4.97160E-08-7.72040E-07
 -1      1894 0.00000E+00 0.00000E+00 0.00000E+00
 -1      1895-3.85618E-08-3.93868E-08-6.21489E-07
 -1      1896 0.00000E+00 0.00000E+00 0.00000E+00
 -1      1897-3.73895E-08-2.07460E-09-4.39435E-08
 -1      1898 0.00000E+00 0.00000E+00 0.00000E+00
 -1      1899 1.33499E-08 3.62952E-09 2.00170E-09
 -1      1900 0.00000E+00 0.00000E+00 0.00000E+00
 -1      1901 2.46226E-08 5.77815E-10 6.52622E-09
 -1      1902 0.00000E+00 0.00000E+00 0.00000E+00
 -1      1903-1.74140E-08-2.21558E-08-1.82747E-07
 -1      1904 0.00000E+00 0.00000E+00 0.00000E+00
 -1      1905-5.29119E-09-4.39408E-08-3.48016E-07
 -1      1906 0.00000E+00 0.00000E+00 0.00000E+00
 -1      1907-8.05219E-09-4.94974E-08-4.18875E-07
 -1      1908 0.00000E+00 0.00000E+00 0.00000E+00
 -1      1909-8.08705E-09-4.75466E-08-4.30814E-07
 -1      1910 0.00000E+00 0.00000E+00 0.00000E+00
 -1      1911-3.31488E-09-4.52896E-08-4.24131E-07
 -1      1912 0.00000E+00 0.00000E+00 0.00000E+00
 -1      1913 2.39320E-09-4.41206E-08-4.17537E-07
 -1      1914 0.00000E+00 0.00000E+00 0.00000E+00
 -1      1915 6.70351E-09-4.35961E-08-4.14401E-07
 -1      1916 0.00000E+00 0.00000E+00 0.00000E+00
 -1      1917 9.34194E-09-4.33130E-08-4.13405E-07
 -1      1918 0.00000E+00 0.00000E+00 0.00000E+00
 -1      1919 1.08549E-08-4.31336E-08-4.13235E-07
 -1      1920 0.00000E+00 0.00000E+00 0.00000E+00
 -1      1921 1.17769E-08-4.30240E-08-4.13285E-07
 -1      1922 0.00000E+00 0.00000E+00 0.00000E+00
 -1      1923 1.24359E-08-4.29699E-08-4.13403E-07
 -1      1924 0.00000E+00 0.00000E+00 0.00000E+00
 -1      1925 1.29676E-08-4.29665E-08-4.13548E-07
 -1      1926 0.00000E+00 0.00000E+00 0.00000E+00
 -1      1927 1.33449E-08-4.30202E-08-4.13486E-07
 -1      1928 0.00000E+00 0.00000E+00 0.00000E+00
 -1      1929 1.34874E-08-4.30937E-08-4.12334E-07
 -1      1930 0.00000E+00 0.00000E+00 0.00000E+00
 -1      1931 1.37635E-08-4.29123E-08-4.08514E-07
 -1      1932 0.00000E+00 0.00000E+00 0.00000E+00
 -1      1933 1.61315E-08-4.18749E-08-4.00827E-07
 -1      1934 0.00000E+00 0.00000E+00 0.00000E+00
 -1      1935 2.39316E-08-4.02875E-08-3.98008E-07
 -1      1936 0.00000E+00 0.00000E+00 0.00000E+00
 -1      1937 3.67895E-08-4.40008E-08-4.19257E-07
 -1      1938 0.00000E+00 0.00000E+00 0.00000E+00
 -1      1939 2.28182E-08-5.86006E-08-5.10346E-07
 -1      1940 0.00000E+00 0.00000E+00 0.00000E+00
 -1      1941-2.31691E-08-4.52661E-08-3.94805E-07
 -1      1942 0.00000E+00 0.00000E+00 0.00000E+00
 -1      1943-2.13359E-08-5.65425E-10-4.95131E-08
 -1      1944 0.00000E+00 0.00000E+00 0.00000E+00
 -1      1945 1.54415E-08 4.35083E-09 4.05226E-09
 -1      1946 0.00000E+00 0.00000E+00 0.00000E+00
 -1      1947 2.61063E-08 5.85188E-10 5.83345E-09
 -1      1948 0.00000E+00 0.00000E+00 0.00000E+00
 -1      1949-2.83968E-08-1.82416E-08-1.00972E-07
 -1      1950 0.00000E+00 0.00000E+00 0.00000E+00
 -1      1951-1.79964E-08-3.38950E-08-1.69514E-07
 -1      1952 0.00000E+00 0.00000E+00 0.00000E+00
 -1      1953-1.57087E-08-3.64425E-08-2.10519E-07
 -1      1954 0.00000E+00 0.00000E+00 0.00000E+00
 -1      1955-1.26830E-08-3.36831E-08-2.18849E-07
 -1      1956 0.00000E+00 0.00000E+00 0.00000E+00
 -1      1957-6.73650E-09-3.13434E-08-2.15224E-07
 -1      1958 0.00000E+00 0.00000E+00 0.00000E+00
 -1      1959-7.25371E-10-3.01667E-08-2.11016E-07
 -1      1960 0.00000E+00 0.00000E+00 0.00000E+00
 -1      1961 3.60131E-09-2.95737E-08-2.08922E-07
 -1      1962 0.00000E+00 0.00000E+00 0.00000E+00
 -1      1963 6.20738E-09-2.92046E-08-2.08260E-07
 -1      1964 0.00000E+00 0.00000E+00 0.00000E+00
 -1      1965 7.70032E-09-2.89576E-08-2.08155E-07
 -1      1966 0.00000E+00 0.00000E+00 0.00000E+00
 -1      1967 8.62079E-09-2.88066E-08-2.08195E-07
 -1      1968 0.00000E+00 0.00000E+00 0.00000E+00
 -1      1969 9.29226E-09-2.87304E-08-2.08280E-07
 -1      1970 0.00000E+00 0.00000E+00 0.00000E+00
 -1      1971 9.85551E-09-2.87175E-08-2.08389E-07
 -1      1972 0.00000E+00 0.00000E+00 0.00000E+00
 -1      1973 1.03020E-08-2.87798E-08-2.08354E-07
 -1      1974 0.00000E+00 0.00000E+00 0.00000E+00
 -1      1975 1.05720E-08-2.89174E-08-2.07615E-07
 -1      1976 0.00000E+00 0.00000E+00 0.00000E+00
 -1      1977 1.10661E-08-2.89303E-08-2.05169E-07
 -1      1978 0.00000E+00 0.00000E+00 0.00000E+00
 -1      1979 1.35447E-08-2.82517E-08-2.01525E-07
 -1      1980 0.00000E+00 0.00000E+00 0.00000E+00
 -1      1981 2.09183E-08-2.69462E-08-2.02182E-07
 -1      1982 0.00000E+00 0.00000E+00 0.00000E+00
 -1      1983 3.01759E-08-2.98659E-08-2.23136E-07
 -1      1984 0.00000E+00 0.00000E+00 0.00000E+00
 -1      1985 2.04646E-08-4.04275E-08-2.47388E-07
 -1      1986 0.00000E+00 0.00000E+00 0.00000E+00
 -1      1987-5.55767E-09-2.98634E-08-1.81960E-07
 -1      1988 0.00000E+00 0.00000E+00 0.00000E+00
 -1      1989-3.54614E-09 6.49124E-10-5.07875E-08
 -1      1990 0.00000E+00 0.00000E+00 0.00000E+00
 -1      1991 1.88594E-08 4.18173E-09 6.35051E-09
 -1      1992 0.00000E+00 0.00000E+00 0.00000E+00
 -1      1993 2.80137E-08 3.98982E-10 5.46773E-09
 -1      1994 0.00000E+00 0.00000E+00 0.00000E+00
 -1      1995-3.78765E-08-1.24024E-08-6.06632E-08
 -1      1996 0.00000E+00 0.00000E+00 0.00000E+00
 -1      1997-2.85900E-08-2.01466E-08-9.63678E-08
 -1      1998 0.00000E+00 0.00000E+00 0.00000E+00
 -1      1999-2.18300E-08-1.95063E-08-1.20543E-07
 -1      2000 0.00000E+00 0.00000E+00 0.00000E+00
 -1      2001-1.55729E-08-1.62541E-08-1.25807E-07
 -1      2002 0.00000E+00 0.00000E+00 0.00000E+00
 -1      2003-8.27927E-09-1.40787E-08-1.22774E-07
 -1      2004 0.00000E+00 0.00000E+00 0.00000E+00
 -1      2005-1.89524E-09-1.29500E-08-1.19513E-07
 -1      2006 0.00000E+00 0.00000E+00 0.00000E+00
 -1      2007 2.45514E-09-1.22714E-08-1.17950E-07
 -1      2008 0.00000E+00 0.00000E+00 0.00000E+00
 -1      2009 5.02879E-09-1.17973E-08-1.17511E-07
 -1      2010 0.00000E+00 0.00000E+00 0.00000E+00
 -1      2011 6.50718E-09-1.14756E-08-1.17480E-07
 -1      2012 0.00000E+00 0.00000E+00 0.00000E+00
 -1      2013 7.43298E-09-1.12826E-08-1.17535E-07
 -1      2014 0.00000E+00 0.00000E+00 0.00000E+00
 -1      2015 8.12293E-09-1.11853E-08-1.17615E-07
 -1      2016 0.00000E+00 0.00000E+00 0.00000E+00
 -1      2017 8.72540E-09-1.11611E-08-1.17721E-07
 -1      2018 0.00000E+00 0.00000E+00 0.00000E+00
 -1      2019 9.25303E-09-1.12220E-08-1.17734E-07
 -1      2020 0.00000E+00 0.00000E+00 0.00000E+00
 -1      2021 9.66585E-09-1.14086E-08-1.17208E-07
 -1      2022 0.00000E+00 0.00000E+00 0.00000E+00
 -1      2023 1.03153E-08-1.16487E-08-1.15460E-07
 -1      2024 0.00000E+00 0.00000E+00 0.00000E+00
 -1      2025 1.27910E-08-1.15246E-08-1.13087E-07
 -1      2026 0.00000E+00 0.00000E+00 0.00000E+00
 -1      2027 1.93965E-08-1.08146E-08-1.15346E-07
 -1      2028 0.00000E+00 0.00000E+00 0.00000E+00
 -1      2029 2.64115E-08-1.27007E-08-1.30643E-07
 -1      2030 0.00000E+00 0.00000E+00 0.00000E+00
 -1      2031 2.23221E-08-1.72912E-08-1.41052E-07
 -1      2032 0.00000E+00 0.00000E+00 0.00000E+00
 -1      2033 1.09830E-08-1.14764E-08-1.01990E-07
 -1      2034 0.00000E+00 0.00000E+00 0.00000E+00
 -1      2035 1.22184E-08 1.16389E-09-3.13096E-08
 -1      2036 0.00000E+00 0.00000E+00 0.00000E+00
 -1      2037 2.37496E-08 3.29007E-09 6.61606E-09
 -1      2038 0.00000E+00 0.00000E+00 0.00000E+00
 -1      2039 2.99021E-08 1.24353E-10 6.31223E-09
 -1      2040-2.99870E-08-3.36026E-08-1.43602E-08
 -1      2041-2.64380E-08-5.70496E-08-2.62931E-08
 -1      2042-1.64462E-08-7.30374E-08-3.28732E-08
 -1      2043-7.41675E-09-7.93679E-08-3.52742E-08
 -1      2044-2.22623E-09-8.06085E-08-3.53610E-08
 -1      2045-2.93267E-11-8.03335E-08-3.50210E-08
 -1      2046 7.90311E-10-8.00029E-08-3.48482E-08
 -1      2047 1.17157E-09-7.98822E-08-3.48371E-08
 -1      2048 1.43221E-09-7.98866E-08-3.48801E-08
 -1      2049 1.64229E-09-7.99260E-08-3.49220E-08
 -1      2050 1.83009E-09-7.99591E-08-3.49518E-08
 -1      2051 2.05076E-09-7.99561E-08-3.49669E-08
 -1      2052 2.39021E-09-7.98453E-08-3.49352E-08
 -1      2053 2.87957E-09-7.94821E-08-3.47576E-08
 -1      2054 3.24178E-09-7.87599E-08-3.43073E-08
 -1      2055 2.75420E-09-7.80441E-08-3.37728E-08
 -1      2056 1.57529E-09-7.87561E-08-3.42479E-08
 -1      2057 3.95312E-09-8.23432E-08-3.68522E-08
 -1      2058 1.61429E-08-8.29738E-08-3.82706E-08
 -1      2059 3.14090E-08-6.29377E-08-2.86163E-08
 -1      2060 3.20615E-08-2.72921E-08-1.06622E-08
 -1      2061 1.97426E-08-7.15756E-09-1.28729E-09
 -1      2062 9.37260E-09-1.18095E-09 7.70090E-10
 -1      2063-3.16395E-08-3.11356E-08-1.86745E-08
 -1      2064-2.71752E-08-5.37728E-08-3.47997E-08
 -1      2065-1.61597E-08-6.88239E-08-4.34515E-08
 -1      2066-6.93027E-09-7.46571E-08-4.62575E-08
 -1      2067-1.86410E-09-7.56901E-08-4.61903E-08
 -1      2068 1.77641E-10-7.53551E-08-4.56776E-08
 -1      2069 9.22040E-10-7.50008E-08-4.54124E-08
 -1      2070 1.27811E-09-7.48603E-08-4.53623E-08
 -1      2071 1.53018E-09-7.48467E-08-4.53901E-08
 -1      2072 1.73436E-09-7.48731E-08-4.54265E-08
 -1      2073 1.91497E-09-7.48991E-08-4.54554E-08
 -1      2074 2.12571E-09-7.48962E-08-4.54720E-08
 -1      2075 2.45557E-09-7.47986E-08-4.54385E-08
 -1      2076 2.95485E-09-7.44714E-08-4.52364E-08
 -1      2077 3.37484E-09-7.38062E-08-4.46957E-08
 -1      2078 2.91940E-09-7.31267E-08-4.39807E-08
 -1      2079 1.45307E-09-7.37850E-08-4.44285E-08
 -1      2080 3.17337E-09-7.72683E-08-4.78589E-08
 -1      2081 1.57874E-08-7.83423E-08-5.06066E-08
 -1      2082 3.27648E-08-5.95272E-08-3.79994E-08
 -1      2083 3.31641E-08-2.51806E-08-1.31087E-08
 -1      2084 1.93615E-08-6.39886E-09-1.28778E-09
 -1      2085 8.74593E-09-9.89299E-10 8.62336E-10
 -1      2086-3.57209E-08-2.69114E-08-2.48924E-08
 -1      2087-3.00677E-08-4.71886E-08-4.68966E-08
 -1      2088-1.70674E-08-6.03629E-08-5.86032E-08
 -1      2089-6.74139E-09-6.54067E-08-6.21533E-08
 -1      2090-1.47588E-09-6.62558E-08-6.19736E-08
 -1      2091 4.65868E-10-6.59276E-08-6.12656E-08
 -1      2092 1.11164E-09-6.55973E-08-6.08925E-08
 -1      2093 1.42138E-09-6.54607E-08-6.08002E-08
 -1      2094 1.65636E-09-6.54397E-08-6.08150E-08
 -1      2095 1.85331E-09-6.54573E-08-6.08490E-08
 -1      2096 2.02844E-09-6.54774E-08-6.08793E-08
 -1      2097 2.23559E-09-6.54746E-08-6.08978E-08
 -1      2098 2.57395E-09-6.53923E-08-6.08575E-08
 -1      2099 3.11959E-09-6.51135E-08-6.06126E-08
 -1      2100 3.63262E-09-6.45396E-08-5.99355E-08
 -1      2101 3.13962E-09-6.39458E-08-5.89697E-08
 -1      2102 1.05953E-09-6.45091E-08-5.93909E-08
 -1      2103 2.01574E-09-6.76017E-08-6.39441E-08
 -1      2104 1.64496E-08-6.88749E-08-6.83755E-08
 -1      2105 3.72997E-08-5.24588E-08-5.15609E-08
 -1      2106 3.74573E-08-2.17718E-08-1.70021E-08
 -1      2107 2.03495E-08-5.44390E-09-1.53872E-09
 -1      2108 8.37044E-09-8.06218E-10 9.42943E-10
 -1      2109-4.01760E-08-1.99673E-08-3.08831E-08
 -1      2110-3.33737E-08-3.54000E-08-5.86098E-08
 -1      2111-1.83115E-08-4.52774E-08-7.33164E-08
 -1      2112-6.71680E-09-4.90246E-08-7.76270E-08
 -1      2113-1.13580E-09-4.96386E-08-7.73610E-08
 -1      2114 7.45503E-10-4.93795E-08-7.64759E-08
 -1      2115 1.30041E-09-4.91241E-08-7.60044E-08
 -1      2116 1.56260E-09-4.90162E-08-7.58750E-08
 -1      2117 1.77967E-09-4.89965E-08-7.58799E-08
 -1      2118 1.96996E-09-4.90074E-08-7.59132E-08
 -1      2119 2.14125E-09-4.90213E-08-7.59457E-08
 -1      2120 2.34810E-09-4.90191E-08-7.59659E-08
 -1      2121 2.70111E-09-4.89588E-08-7.59183E-08
 -1      2122 3.30033E-09-4.87534E-08-7.56299E-08
 -1      2123 3.90525E-09-4.83279E-08-7.48186E-08
 -1      2124 3.34576E-09-4.78846E-08-7.36092E-08
 -1      2125 6.18814E-10-4.82963E-08-7.40066E-08
 -1      2126 9.16509E-10-5.06379E-08-7.96591E-08
 -1      2127 1.74292E-08-5.17828E-08-8.57257E-08
 -1      2128 4.23682E-08-3.95298E-08-6.48562E-08
 -1      2129 4.23459E-08-1.61811E-08-2.08653E-08
 -1      2130 2.17620E-08-4.00034E-09-1.81363E-09
 -1      2131 8.17604E-09-5.78443E-10 1.02139E-09
 -1      2132-4.34813E-08-1.06576E-08-3.50682E-08
 -1      2133-3.58604E-08-1.90178E-08-6.68494E-08
 -1      2134-1.92972E-08-2.43271E-08-8.36874E-08
 -1      2135-6.74743E-09-2.63297E-08-8.85412E-08
 -1      2136-9.05642E-10-2.66535E-08-8.82180E-08
 -1      2137 9.44999E-10-2.65111E-08-8.72104E-08
 -1      2138 1.43711E-09-2.63719E-08-8.66710E-08
 -1      2139 1.66499E-09-2.63125E-08-8.65164E-08
 -1      2140 1.86896E-09-2.63009E-08-8.65150E-08
 -1      2141 2.05463E-09-2.63060E-08-8.65482E-08
 -1      2142 2.22365E-09-2.63132E-08-8.65824E-08
 -1      2143 2.43126E-09-2.63120E-08-8.66040E-08
 -1      2144 2.79650E-09-2.62800E-08-8.65510E-08
 -1      2145 3.43617E-09-2.61707E-08-8.62318E-08
 -1      2146 4.10602E-09-2.59437E-08-8.53255E-08
 -1      2147 3.48910E-09-2.57063E-08-8.39437E-08
 -1      2148 2.90942E-10-2.59236E-08-8.43243E-08
 -1      2149 1.49599E-10-2.71907E-08-9.07660E-08
 -1      2150 1.82169E-08-2.78696E-08-9.80153E-08
 -1      2151 4.61434E-08-2.13091E-08-7.43094E-08
 -1      2152 4.60162E-08-8.65121E-09-2.36018E-08
 -1      2153 2.28978E-08-2.12325E-09-1.99926E-09
 -1      2154 8.09191E-09-3.03486E-10 1.08150E-09
 -1      2155-4.46896E-08-2.63739E-16-3.65626E-08
 -1      2156-3.67738E-08-3.50275E-16-6.98023E-08
 -1      2157-1.96658E-08-2.50484E-16-8.74086E-08
 -1      2158-6.76534E-09-1.84847E-16-9.24587E-08
 -1      2159-8.24500E-10-1.62989E-16-9.21156E-08
 -1      2160 1.01700E-09-1.54376E-16-9.10643E-08
 -1      2161 1.48680E-09-1.48471E-16-9.05008E-08
 -1      2162 1.70228E-09-1.47437E-16-9.03374E-08
 -1      2163 1.90149E-09-1.54068E-16-9.03337E-08
 -1      2164 2.08552E-09-1.60238E-16-9.03669E-08
 -1      2165 2.25378E-09-1.71136E-16-9.04018E-08
 -1      2166 2.46181E-09-1.80123E-16-9.04239E-08
 -1      2167 2.83170E-09-1.86500E-16-9.03690E-08
 -1      2168 3.48624E-09-1.91864E-16-9.00386E-08
 -1      2169 4.17928E-09-1.92596E-16-8.90982E-08
 -1      2170 3.54015E-09-1.92383E-16-8.76546E-08
 -1      2171 1.71102E-10-1.97191E-16-8.80292E-08
 -1      2172-1.23825E-10-2.08121E-16-9.47572E-08
 -1      2173 1.85122E-08-2.22296E-16-1.02437E-07
 -1      2174 4.75241E-08-1.65084E-16-7.77182E-08
 -1      2175 4.73634E-08-5.28794E-17-2.45868E-08
 -1      2176 2.33252E-08-7.82597E-18-2.06426E-09
 -1      2177 8.06956E-09-3.12145E-18 1.10387E-09
 -1      2178-4.34813E-08 1.06576E-08-3.50682E-08
 -1      2179-3.58604E-08 1.90178E-08-6.68494E-08
 -1      2180-1.92972E-08 2.43271E-08-8.36874E-08
 -1      2181-6.74743E-09 2.63297E-08-8.85412E-08
 -1      2182-9.05642E-10 2.66535E-08-8.82180E-08
 -1      2183 9.44999E-10 2.65111E-08-8.72104E-08
 -1      2184 1.43711E-09 2.63719E-08-8.66710E-08
 -1      2185 1.66499E-09 2.63125E-08-8.65164E-08
 -1      2186 1.86896E-09 2.63009E-08-8.65150E-08
 -1      2187 2.05463E-09 2.63060E-08-8.65482E-08
 -1      2188 2.22365E-09 2.63132E-08-8.65824E-08
 -1      2189 2.43126E-09 2.63120E-08-8.66040E-08
 -1      2190 2.79650E-09 2.62800E-08-8.65510E-08
 -1      2191 3.43617E-09 2.61707E-08-8.62318E-08
 -1      2192 4.10602E-09 2.59437E-08-8.53255E-08
 -1      2193 3.48910E-09 2.57063E-08-8.39437E-08
 -1      2194 2.90942E-10 2.59236E-08-8.43243E-08
 -1      2195 1.49599E-10 2.71907E-08-9.07660E-08
 -1      2196 1.82169E-08 2.78696E-08-9.80153E-08
 -1      2197 4.61434E-08 2.13091E-08-7.43094E-08
 -1      2198 4.60162E-08 8.65121E-09-2.36018E-08
 -1      2199 2.28978E-08 2.12325E-09-1.99926E-09
 -1      2200 8.09191E-09 3.03486E-10 1.08150E-09
 -1      2201-4.01760E-08 1.99673E-08-3.08831E-08
 -1      2202-3.33737E-08 3.54000E-08-5.86098E-08
 -1      2203-1.83115E-08 4.52774E-08-7.33164E-08
 -1      2204-6.71680E-09 4.90246E-08-7.76270E-08
 -1      2205-1.13580E-09 4.96386E-08-7.73610E-08
 -1      2206 7.45503E-10 4.93795E-08-7.64759E-08
 -1      2207 1.30041E-09 4.91241E-08-7.60044E-08
 -1      2208 1.56260E-09 4.90162E-08-7.58750E-08
 -1      2209 1.77967E-09 4.89965E-08-7.58799E-08
 -1      2210 1.96996E-09 4.90074E-08-7.59132E-08
 -1      2211 2.14125E-09 4.90213E-08-7.59457E-08
 -1      2212 2.34810E-09 4.90191E-08-7.59659E-08
 -1      2213 2.70111E-09 4.89588E-08-7.59183E-08
 -1      2214 3.30033E-09 4.87534E-08-7.56299E-08
 -1      2215 3.90525E-09 4.83279E-08-7.48186E-08
 -1      2216 3.34576E-09 4.78846E-08-7.36092E-08
 -1      2217 6.18814E-10 4.82963E-08-7.40066E-08
 -1      2218 9.16509E-10 5.06379E-08-7.96591E-08
 -1      2219 1.74292E-08 5.17828E-08-8.57257E-08
 -1      2220 4.23682E-08 3.95298E-08-6.48562E-08
 -1      2221 4.23459E-08 1.61811E-08-2.08653E-08
 -1      2222 2.17620E-08 4.00034E-09-1.81363E-09
 -1      2223 8.17604E-09 5.78443E-10 1.02139E-09
 -1      2224-3.57209E-08 2.69114E-08-2.48924E-08
 -1      2225-3.00677E-08 4.71886E-08-4.68966E-08
 -1      2226-1.70674E-08 6.03629E-08-5.86032E-08
 -1      2227-6.74139E-09 6.54067E-08-6.21533E-08
 -1      2228-1.47588E-09 6.62558E-08-6.19736E-08
 -1      2229 4.65868E-10 6.59276E-08-6.12656E-08
 -1      2230 1.11164E-09 6.55973E-08-6.08925E-08
 -1      2231 1.42138E-09 6.54607E-08-6.08002E-08
 -1      2232 1.65636E-09 6.54397E-08-6.08150E-08
 -1      2233 1.85331E-09 6.54573E-08-6.08490E-08
 -1      2234 2.02844E-09 6.54774E-08-6.08793E-08
 -1      2235 2.23559E-09 6.54746E-08-6.08978E-08
 -1      2236 2.57395E-09 6.53923E-08-6.08575E-08
 -1      2237 3.11959E-09 6.51135E-08-6.06126E-08
 -1      2238 3.63262E-09 6.45396E-08-5.99355E-08
 -1      2239 3.13962E-09 6.39458E-08-5.89697E-08
 -1      2240 1.05953E-09 6.45091E-08-5.93909E-08
 -1      2241 2.01574E-09 6.76017E-08-6.39441E-08
 -1      2242 1.64496E-08 6.88749E-08-6.83755E-08
 -1      2243 3.72997E-08 5.24588E-08-5.15609E-08
 -1      2244 3.74573E-08 2.17718E-08-1.70021E-08
 -1      2245 2.03495E-08 5.44390E-09-1.53872E-09
 -1      2246 8.37044E-09 8.06218E-10 9.42943E-10
 -1      2247-3.16395E-08 3.11356E-08-1.86745E-08
 -1      2248-2.71752E-08 5.37728E-08-3.47997E-08
 -1      2249-1.61597E-08 6.88239E-08-4.34515E-08
 -1      2250-6.93027E-09 7.46571E-08-4.62575E-08
 -1      2251-1.86410E-09 7.56901E-08-4.61903E-08
 -1      2252 1.77641E-10 7.53551E-08-4.56776E-08
 -1      2253 9.22039E-10 7.50008E-08-4.54124E-08
 -1      2254 1.27811E-09 7.48603E-08-4.53623E-08
 -1      2255 1.53018E-09 7.48467E-08-4.53901E-08
 -1      2256 1.73436E-09 7.48731E-08-4.54265E-08
 -1      2257 1.91497E-09 7.48991E-08-4.54554E-08
 -1      2258 2.12571E-09 7.48962E-08-4.54720E-08
 -1      2259 2.45557E-09 7.47986E-08-4.54385E-08
 -1      2260 2.95485E-09 7.44714E-08-4.52364E-08
 -1      2261 3.37484E-09 7.38062E-08-4.46957E-08
 -1      2262 2.91940E-09 7.31267E-08-4.39807E-08
 -1      2263 1.45307E-09 7.37850E-08-4.44285E-08
 -1      2264 3.17337E-09 7.72683E-08-4.78589E-08
 -1      2265 1.57874E-08 7.83423E-08-5.06066E-08
 -1      2266 3.27648E-08 5.95272E-08-3.79994E-08
 -1      2267 3.31641E-08 2.51806E-08-1.31087E-08
 -1      2268 1.93615E-08 6.39886E-09-1.28778E-09
 -1      2269 8.74593E-09 9.89299E-10 8.62336E-10
 -1      2270-2.99870E-08 3.36026E-08-1.43602E-08
 -1      2271-2.64380E-08 5.70496E-08-2.62931E-08
 -1      2272-1.64462E-08 7.30374E-08-3.28732E-08
 -1      2273-7.41675E-09 7.93679E-08-3.52742E-08
 -1      2274-2.22623E-09 8.06085E-08-3.53610E-08
 -1      2275-2.93268E-11 8.03335E-08-3.50210E-08
 -1      2276 7.90311E-10 8.00029E-08-3.48482E-08
 -1      2277 1.17157E-09 7.98822E-08-3.48371E-08
 -1      2278 1.43221E-09 7.98866E-08-3.48801E-08
 -1      2279 1.64229E-09 7.99260E-08-3.49220E-08
 -1      2280 1.83009E-09 7.99591E-08-3.49518E-08
 -1      2281 2.05076E-09 7.99561E-08-3.49669E-08
 -1      2282 2.39021E-09 7.98453E-08-3.49352E-08
 -1      2283 2.87957E-09 7.94821E-08-3.47576E-08
 -1      2284 3.24178E-09 7.87599E-08-3.43073E-08
 -1      2285 2.75420E-09 7.80441E-08-3.37728E-08
 -1      2286 1.57529E-09 7.87561E-08-3.42479E-08
 -1      2287 3.95312E-09 8.23432E-08-3.68522E-08
 -1      2288 1.61429E-08 8.29738E-08-3.82706E-08
 -1      2289 3.14090E-08 6.29377E-08-2.86163E-08
 -1      2290 3.20615E-08 2.72921E-08-1.06622E-08
 -1      2291 1.97426E-08 7.15756E-09-1.28729E-09
 -1      2292 9.37260E-09 1.18095E-09 7.70090E-10
 -1      2293-5.24853E-08-5.78239E-08-3.20373E-08
 -1      2294-4.30688E-08-9.83514E-08-5.47161E-08
 -1      2295-2.73002E-08-1.26153E-07-6.90403E-08
 -1      2296-1.26862E-08-1.37157E-07-7.33485E-08
 -1      2297-4.06906E-09-1.39410E-07-7.29530E-08
 -1      2298-1.57630E-10-1.39025E-07-7.19211E-08
 -1      2299 1.48393E-09-1.38512E-07-7.14496E-08
 -1      2300 2.30809E-09-1.38338E-07-7.13962E-08
 -1      2301 2.85066E-09-1.38365E-07-7.14755E-08
 -1      2302 3.26287E-09-1.38445E-07-7.15567E-08
 -1      2303 3.61624E-09-1.38507E-07-7.16183E-08
 -1      2304 4.00971E-09-1.38502E-07-7.16610E-08
 -1      2305 4.57965E-09-1.38308E-07-7.16206E-08
 -1      2306 5.38091E-09-1.37678E-07-7.12699E-08
 -1      2307 6.03856E-09-1.36427E-07-7.02770E-08
 -1      2308 5.54799E-09-1.35157E-07-6.89917E-08
 -1      2309 4.16142E-09-1.36215E-07-7.00417E-08
 -1      2310 8.19314E-09-1.42257E-07-7.65553E-08
 -1      2311 2.68394E-08-1.44040E-07-8.09376E-08
 -1      2312 4.98217E-08-1.09456E-07-6.00911E-08
 -1      2313 5.08826E-08-4.66732E-08-2.05762E-08
 -1      2314 3.23897E-08-1.23603E-08-4.76585E-10
 -1      2315 1.73530E-08-2.15099E-09 2.20623E-09
 -1      2316-5.55185E-08-5.20359E-08-4.17230E-08
 -1      2317-4.40171E-08-9.02432E-08-7.33187E-08
 -1      2318-2.66664E-08-1.15629E-07-9.20584E-08
 -1      2319-1.17366E-08-1.25438E-07-9.70474E-08
 -1      2320-3.39708E-09-1.27259E-07-9.62533E-08
 -1      2321 2.41588E-10-1.26769E-07-9.48444E-08
 -1      2322 1.75627E-09-1.26227E-07-9.41808E-08
 -1      2323 2.53961E-09-1.26025E-07-9.40450E-08
 -1      2324 3.06801E-09-1.26023E-07-9.40904E-08
 -1      2325 3.47004E-09-1.26079E-07-9.41581E-08
 -1      2326 3.81080E-09-1.26129E-07-9.42165E-08
 -1      2327 4.18656E-09-1.26125E-07-9.42622E-08
 -1      2328 4.73783E-09-1.25959E-07-9.42207E-08
 -1      2329 5.54921E-09-1.25405E-07-9.38280E-08
 -1      2330 6.30119E-09-1.24281E-07-9.26538E-08
 -1      2331 5.89821E-09-1.23106E-07-9.09442E-08
 -1      2332 4.05867E-09-1.24051E-07-9.17940E-08
 -1      2333 6.86862E-09-1.29754E-07-1.00122E-07
 -1      2334 2.61154E-08-1.32384E-07-1.08014E-07
 -1      2335 5.20120E-08-1.00844E-07-8.07067E-08
 -1      2336 5.25644E-08-4.16229E-08-2.52524E-08
 -1      2337 3.15092E-08-1.06629E-08-1.62290E-10
 -1      2338 1.62302E-08-1.71288E-09 2.41796E-09
 -1      2339-6.25137E-08-4.40943E-08-5.65877E-08
 -1      2340-4.84586E-08-7.78032E-08-1.01787E-07
 -1      2341-2.78657E-08-9.96032E-08-1.27620E-07
 -1      2342-1.12169E-08-1.07867E-07-1.34122E-07
 -1      2343-2.64586E-09-1.09309E-07-1.32986E-07
 -1      2344 7.92044E-10-1.08816E-07-1.31121E-07
 -1      2345 2.14050E-09-1.08310E-07-1.30220E-07
 -1      2346 2.84906E-09-1.08111E-07-1.29994E-07
 -1      2347 3.35071E-09-1.08094E-07-1.30012E-07
 -1      2348 3.74113E-09-1.08132E-07-1.30075E-07
 -1      2349 4.07222E-09-1.08171E-07-1.30137E-07
 -1      2350 4.44008E-09-1.08167E-07-1.30188E-07
 -1      2351 5.00141E-09-1.08030E-07-1.30134E-07
 -1      2352 5.88138E-09-1.07569E-07-1.29650E-07
 -1      2353 6.78837E-09-1.06618E-07-1.28169E-07
 -1      2354 6.37674E-09-1.05609E-07-1.25827E-07
 -1      2355 3.54594E-09-1.06387E-07-1.26445E-07
 -1      2356 4.86034E-09-1.11364E-07-1.37453E-07
 -1      2357 2.69386E-08-1.14401E-07-1.50127E-07
 -1      2358 5.93980E-08-8.74606E-08-1.12934E-07
 -1      2359 5.94170E-08-3.50614E-08-3.35501E-08
 -1      2360 3.27337E-08-8.79876E-09-3.24564E-10
 -1      2361 1.54146E-08-1.35232E-09 2.65078E-09
 -1      2362-7.01011E-08-3.23905E-08-7.07966E-08
 -1      2363-5.35880E-08-5.78793E-08-1.29320E-07
 -1      2364-2.96218E-08-7.40864E-08-1.62139E-07
 -1      2365-1.09692E-08-8.01422E-08-1.70166E-07
 -1      2366-1.97538E-09-8.11615E-08-1.68727E-07
 -1      2367 1.32776E-09-8.07664E-08-1.66437E-07
 -1      2368 2.52233E-09-8.03746E-08-1.65316E-07
 -1      2369 3.15433E-09-8.02158E-08-1.65011E-07
 -1      2370 3.62813E-09-8.01951E-08-1.65009E-07
 -1      2371 4.00812E-09-8.02196E-08-1.65071E-07
 -1      2372 4.33237E-09-8.02457E-08-1.65138E-07
 -1      2373 4.69788E-09-8.02433E-08-1.65194E-07
 -1      2374 5.27961E-09-8.01443E-08-1.65127E-07
 -1      2375 6.24054E-09-7.98084E-08-1.64552E-07
 -1      2376 7.30090E-09-7.91113E-08-1.62768E-07
 -1      2377 6.83108E-09-7.83646E-08-1.59806E-07
 -1      2378 2.95033E-09-7.89187E-08-1.60199E-07
 -1      2379 2.94369E-09-8.26613E-08-1.73874E-07
 -1      2380 2.82703E-08-8.53500E-08-1.91320E-07
 -1      2381 6.76536E-08-6.54811E-08-1.44655E-07
 -1      2382 6.72597E-08-2.57024E-08-4.16825E-08
 -1      2383 3.46607E-08-6.35508E-09-4.54306E-10
 -1      2384 1.48874E-08-9.56880E-10 2.90723E-09
 -1      2385-7.57023E-08-1.71885E-08-8.07486E-08
 -1      2386-5.74509E-08-3.09399E-08-1.48759E-07
 -1      2387-3.10373E-08-3.96155E-08-1.86589E-07
 -1      2388-1.08737E-08-4.28307E-08-1.95721E-07
 -1      2389-1.51782E-09-4.33629E-08-1.94076E-07
 -1      2390 1.71052E-09-4.31449E-08-1.91489E-07
 -1      2391 2.79894E-09-4.29311E-08-1.90216E-07
 -1      2392 3.37579E-09-4.28432E-08-1.89857E-07
 -1      2393 3.82924E-09-4.28299E-08-1.89842E-07
 -1      2394 4.20208E-09-4.28417E-08-1.89905E-07
 -1      2395 4.52226E-09-4.28551E-08-1.89976E-07
 -1      2396 4.88778E-09-4.28538E-08-1.90036E-07
 -1      2397 5.48708E-09-4.28016E-08-1.89958E-07
 -1      2398 6.50944E-09-4.26239E-08-1.89319E-07
 -1      2399 7.67771E-09-4.22544E-08-1.87319E-07
 -1      2400 7.14774E-09-4.18576E-08-1.83917E-07
 -1      2401 2.50162E-09-4.21464E-08-1.84155E-07
 -1      2402 1.61331E-09-4.41665E-08-1.99769E-07
 -1      2403 2.93620E-08-4.57335E-08-2.20665E-07
 -1      2404 7.37783E-08-3.51757E-08-1.67382E-07
 -1      2405 7.31456E-08-1.36518E-08-4.75014E-08
 -1      2406 3.62523E-08-3.34410E-09-5.20187E-10
 -1      2407 1.46009E-08-4.99748E-10 3.10338E-09
 -1      2408-7.77414E-08-6.15496E-16-8.42855E-08
 -1      2409-5.88672E-08-6.67836E-16-1.55694E-07
 -1      2410-3.15692E-08-4.55443E-16-1.95331E-07
 -1      2411-1.08511E-08-3.39990E-16-2.04863E-07
 -1      2412-1.35612E-09-2.96880E-16-2.03146E-07
 -1      2413 1.84869E-09-2.67181E-16-2.00454E-07
 -1      2414 2.89951E-09-2.35440E-16-1.99127E-07
 -1      2415 3.45646E-09-2.16255E-16-1.98749E-07
 -1      2416 3.90253E-09-2.17224E-16-1.98730E-07
 -1      2417 4.27282E-09-2.18890E-16-1.98793E-07
 -1      2418 4.59165E-09-2.33459E-16-1.98865E-07
 -1      2419 4.95743E-09-2.45199E-16-1.98927E-07
 -1      2420 5.56346E-09-2.54455E-16-1.98846E-07
 -1      2421 6.60844E-09-2.64425E-16-1.98182E-07
 -1      2422 7.81507E-09-2.66889E-16-1.96105E-07
 -1      2423 7.26019E-09-2.68973E-16-1.92547E-07
 -1      2424 2.33684E-09-2.81647E-16-1.92730E-07
 -1      2425 1.14236E-09-3.02174E-16-2.09050E-07
 -1      2426 2.97739E-08-3.28238E-16-2.31192E-07
 -1      2427 7.60076E-08-2.37761E-16-1.75562E-07
 -1      2428 7.53005E-08-5.81706E-17-4.96002E-08
 -1      2429 3.68571E-08-2.38331E-18-5.38240E-10
 -1      2430 1.45113E-08-4.00764E-18 3.17615E-09
 -1      2431-7.57023E-08 1.71885E-08-8.07486E-08
 -1      2432-5.74509E-08 3.09399E-08-1.48759E-07
 -1      2433-3.10373E-08 3.96155E-08-1.86589E-07
 -1      2434-1.08737E-08 4.28307E-08-1.95721E-07
 -1      2435-1.51782E-09 4.33629E-08-1.94076E-07
 -1      2436 1.71052E-09 4.31449E-08-1.91489E-07
 -1      2437 2.79894E-09 4.29311E-08-1.90216E-07
 -1      2438 3.37579E-09 4.28432E-08-1.89857E-07
 -1      2439 3.82924E-09 4.28299E-08-1.89842E-07
 -1      2440 4.20208E-09 4.28417E-08-1.89905E-07
 -1      2441 4.52226E-09 4.28551E-08-1.89976E-07
 -1      2442 4.88778E-09 4.28538E-08-1.90036E-07
 -1      2443 5.48708E-09 4.28016E-08-1.89958E-07
 -1      2444 6.50944E-09 4.26239E-08-1.89319E-07
 -1      2445 7.67771E-09 4.22544E-08-1.87319E-07
 -1      2446 7.14774E-09 4.18576E-08-1.83917E-07
 -1      2447 2.50162E-09 4.21464E-08-1.84155E-07
 -1      2448 1.61331E-09 4.41665E-08-1.99769E-07
 -1      2449 2.93620E-08 4.57335E-08-2.20665E-07
 -1      2450 7.37783E-08 3.51757E-08-1.67382E-07
 -1      2451 7.31456E-08 1.36518E-08-4.75014E-08
 -1      2452 3.62523E-08 3.34410E-09-5.20187E-10
 -1      2453 1.46009E-08 4.99748E-10 3.10338E-09
 -1      2454-7.01011E-08 3.23905E-08-7.07966E-08
 -1      2455-5.35880E-08 5.78793E-08-1.29320E-07
 -1      2456-2.96218E-08 7.40864E-08-1.62139E-07
 -1      2457-1.09692E-08 8.01422E-08-1.70166E-07
 -1      2458-1.97538E-09 8.11615E-08-1.68727E-07
 -1      2459 1.32776E-09 8.07664E-08-1.66437E-07
 -1      2460 2.52233E-09 8.03746E-08-1.65316E-07
 -1      2461 3.15433E-09 8.02158E-08-1.65011E-07
 -1      2462 3.62813E-09 8.01951E-08-1.65009E-07
 -1      2463 4.00812E-09 8.02196E-08-1.65071E-07
 -1      2464 4.33237E-09 8.02457E-08-1.65138E-07
 -1      2465 4.69788E-09 8.02433E-08-1.65194E-07
 -1      2466 5.27961E-09 8.01443E-08-1.65127E-07
 -1      2467 6.24054E-09 7.98084E-08-1.64552E-07
 -1      2468 7.30090E-09 7.91113E-08-1.62768E-07
 -1      2469 6.83108E-09 7.83646E-08-1.59806E-07
 -1      2470 2.95033E-09 7.89187E-08-1.60199E-07
 -1      2471 2.94369E-09 8.26613E-08-1.73874E-07
 -1      2472 2.82703E-08 8.53500E-08-1.91320E-07
 -1      2473 6.76536E-08 6.54811E-08-1.44655E-07
 -1      2474 6.72597E-08 2.57024E-08-4.16825E-08
 -1      2475 3.46607E-08 6.35508E-09-4.54306E-10
 -1      2476 1.48874E-08 9.56880E-10 2.90723E-09
 -1      2477-6.25137E-08 4.40943E-08-5.65877E-08
 -1      2478-4.84586E-08 7.78032E-08-1.01787E-07
 -1      2479-2.78657E-08 9.96032E-08-1.27620E-07
 -1      2480-1.12169E-08 1.07867E-07-1.34122E-07
 -1      2481-2.64586E-09 1.09309E-07-1.32986E-07
 -1      2482 7.92044E-10 1.08816E-07-1.31121E-07
 -1      2483 2.14050E-09 1.08310E-07-1.30220E-07
 -1      2484 2.84906E-09 1.08111E-07-1.29994E-07
 -1      2485 3.35071E-09 1.08094E-07-1.30012E-07
 -1      2486 3.74113E-09 1.08132E-07-1.30075E-07
 -1      2487 4.07222E-09 1.08171E-07-1.30137E-07
 -1      2488 4.44008E-09 1.08167E-07-1.30188E-07
 -1      2489 5.00141E-09 1.08030E-07-1.30134E-07
 -1      2490 5.88138E-09 1.07569E-07-1.29650E-07
 -1      2491 6.78837E-09 1.06618E-07-1.28169E-07
 -1      2492 6.37674E-09 1.05609E-07-1.25827E-07
 -1      2493 3.54594E-09 1.06387E-07-1.26445E-07
 -1      2494 4.86034E-09 1.11364E-07-1.37453E-07
 -1      2495 2.69386E-08 1.14401E-07-1.50127E-07
 -1      2496 5.93980E-08 8.74606E-08-1.12934E-07
 -1      2497 5.94170E-08 3.50614E-08-3.35501E-08
 -1      2498 3.27337E-08 8.79876E-09-3.24564E-10
 -1      2499 1.54146E-08 1.35232E-09 2.65078E-09
 -1      2500-5.55185E-08 5.20359E-08-4.17230E-08
 -1      2501-4.40171E-08 9.02432E-08-7.33187E-08
 -1      2502-2.66664E-08 1.15629E-07-9.20584E-08
 -1      2503-1.17366E-08 1.25438E-07-9.70474E-08
 -1      2504-3.39708E-09 1.27259E-07-9.62533E-08
 -1      2505 2.41588E-10 1.26769E-07-9.48444E-08
 -1      2506 1.75627E-09 1.26227E-07-9.41808E-08
 -1      2507 2.53961E-09 1.26025E-07-9.40450E-08
 -1      2508 3.06801E-09 1.26023E-07-9.40904E-08
 -1      2509 3.47004E-09 1.26079E-07-9.41581E-08
 -1      2510 3.81080E-09 1.26129E-07-9.42165E-08
 -1      2511 4.18656E-09 1.26125E-07-9.42622E-08
 -1      2512 4.73783E-09 1.25959E-07-9.42207E-08
 -1      2513 5.54921E-09 1.25405E-07-9.38280E-08
 -1      2514 6.30119E-09 1.24281E-07-9.26538E-08
 -1      2515 5.89821E-09 1.23106E-07-9.09442E-08
 -1      2516 4.05867E-09 1.24051E-07-9.17940E-08
 -1      2517 6.86862E-09 1.29754E-07-1.00122E-07
 -1      2518 2.61154E-08 1.32384E-07-1.08014E-07
 -1      2519 5.20120E-08 1.00844E-07-8.07067E-08
 -1      2520 5.25644E-08 4.16229E-08-2.52524E-08
 -1      2521 3.15092E-08 1.06629E-08-1.62290E-10
 -1      2522 1.62302E-08 1.71288E-09 2.41796E-09
 -1      2523-5.24853E-08 5.78239E-08-3.20373E-08
 -1      2524-4.30688E-08 9.83514E-08-5.47161E-08
 -1      2525-2.73002E-08 1.26153E-07-6.90403E-08
 -1      2526-1.26862E-08 1.37157E-07-7.33485E-08
 -1      2527-4.06906E-09 1.39410E-07-7.29530E-08
 -1      2528-1.57631E-10 1.39025E-07-7.19211E-08
 -1      2529 1.48393E-09 1.38512E-07-7.14496E-08
 -1      2530 2.30809E-09 1.38338E-07-7.13962E-08
 -1      2531 2.85066E-09 1.38365E-07-7.14755E-08
 -1      2532 3.26287E-09 1.38445E-07-7.15567E-08
 -1      2533 3.61624E-09 1.38507E-07-7.16183E-08
 -1      2534 4.00971E-09 1.38502E-07-7.16610E-08
 -1      2535 4.57965E-09 1.38308E-07-7.16206E-08
 -1      2536 5.38091E-09 1.37678E-07-7.12699E-08
 -1      2537 6.03856E-09 1.36427E-07-7.02770E-08
 -1      2538 5.54799E-09 1.35157E-07-6.89917E-08
 -1      2539 4.16142E-09 1.36215E-07-7.00417E-08
 -1      2540 8.19314E-09 1.42257E-07-7.65553E-08
 -1      2541 2.68394E-08 1.44040E-07-8.09376E-08
 -1      2542 4.98217E-08 1.09456E-07-6.00911E-08
 -1      2543 5.08826E-08 4.66732E-08-2.05762E-08
 -1      2544 3.23897E-08 1.23603E-08-4.76585E-10
 -1      2545 1.73530E-08 2.15099E-09 2.20623E-09
 -1      2546-6.29183E-08-6.48581E-08-4.61120E-08
 -1      2547-5.03272E-08-1.12369E-07-7.65267E-08
 -1      2548-3.19770E-08-1.44318E-07-9.64160E-08
 -1      2549-1.54994E-08-1.56788E-07-1.01642E-07
 -1      2550-5.38511E-09-1.59344E-07-1.00315E-07
 -1      2551-3.63421E-10-1.58967E-07-9.84770E-08
 -1      2552 2.04808E-09-1.58465E-07-9.76727E-08
 -1      2553 3.35626E-09-1.58332E-07-9.75538E-08
 -1      2554 4.19295E-09-1.58405E-07-9.76471E-08
 -1      2555 4.79300E-09-1.58519E-07-9.77503E-08
 -1      2556 5.28310E-09-1.58602E-07-9.78343E-08
 -1      2557 5.79294E-09-1.58602E-07-9.79073E-08
 -1      2558 6.47462E-09-1.58384E-07-9.78828E-08
 -1      2559 7.40708E-09-1.57665E-07-9.74220E-08
 -1      2560 8.31183E-09-1.56204E-07-9.59877E-08
 -1      2561 8.34235E-09-1.54614E-07-9.39968E-08
 -1      2562 7.62457E-09-1.55497E-07-9.54972E-08
 -1      2563 1.20475E-08-1.62361E-07-1.05876E-07
 -1      2564 3.13623E-08-1.66671E-07-1.13838E-07
 -1      2565 5.54946E-08-1.27088E-07-8.39543E-08
 -1      2566 5.64649E-08-5.13419E-08-2.63360E-08
 -1      2567 3.73559E-08-1.33653E-08 2.04963E-09
 -1      2568 2.27215E-08-2.30309E-09 3.96599E-09
 -1      2569-6.70378E-08-6.01061E-08-6.57337E-08
 -1      2570-5.16410E-08-1.06733E-07-1.13356E-07
 -1      2571-3.09790E-08-1.36648E-07-1.41821E-07
 -1      2572-1.40822E-08-1.47955E-07-1.48588E-07
 -1      2573-4.38916E-09-1.50020E-07-1.46692E-07
 -1      2574 2.63400E-10-1.49479E-07-1.44241E-07
 -1      2575 2.51000E-09-1.48909E-07-1.43115E-07
 -1      2576 3.76506E-09-1.48727E-07-1.42863E-07
 -1      2577 4.58314E-09-1.48761E-07-1.42907E-07
 -1      2578 5.16966E-09-1.48848E-07-1.42995E-07
 -1      2579 5.64321E-09-1.48916E-07-1.43078E-07
 -1      2580 6.12968E-09-1.48918E-07-1.43155E-07
 -1      2581 6.78602E-09-1.48726E-07-1.43119E-07
 -1      2582 7.72672E-09-1.48079E-07-1.42560E-07
 -1      2583 8.74982E-09-1.46734E-07-1.40773E-07
 -1      2584 8.95529E-09-1.45216E-07-1.37987E-07
 -1      2585 7.71302E-09-1.45977E-07-1.38993E-07
 -1      2586 1.01679E-08-1.52553E-07-1.52546E-07
 -1      2587 3.02302E-08-1.58445E-07-1.67461E-07
 -1      2588 5.90655E-08-1.21399E-07-1.24872E-07
 -1      2589 5.90680E-08-4.63911E-08-3.56480E-08
 -1      2590 3.58718E-08-1.17042E-08 2.12872E-09
 -1      2591 2.11694E-08-1.85844E-09 4.12799E-09
 -1      2592-7.59253E-08-5.13756E-08-9.12511E-08
 -1      2593-5.69586E-08-9.33779E-08-1.62770E-07
 -1      2594-3.19165E-08-1.19289E-07-2.03049E-07
 -1      2595-1.30260E-08-1.28780E-07-2.11986E-07
 -1      2596-3.22889E-09-1.30361E-07-2.09377E-07
 -1      2597 1.11299E-09-1.29783E-07-2.06156E-07
 -1      2598 3.14539E-09-1.29233E-07-2.04646E-07
 -1      2599 4.31012E-09-1.29040E-07-2.04254E-07
 -1      2600 5.09769E-09-1.29048E-07-2.04259E-07
 -1      2601 5.67050E-09-1.29110E-07-2.04341E-07
 -1      2602 6.13127E-09-1.29164E-07-2.04431E-07
 -1      2603 6.60479E-09-1.29166E-07-2.04518E-07
 -1      2604 7.26731E-09-1.29008E-07-2.04464E-07
 -1      2605 8.28257E-09-1.28468E-07-2.03762E-07
 -1      2606 9.49749E-09-1.27324E-07-2.01477E-07
 -1      2607 9.81219E-09-1.25997E-07-1.97564E-07
 -1      2608 7.44259E-09-1.26567E-07-1.97827E-07
 -1      2609 7.30240E-09-1.32333E-07-2.15768E-07
 -1      2610 3.05740E-08-1.39022E-07-2.40925E-07
 -1      2611 6.89211E-08-1.07259E-07-1.81502E-07
 -1      2612 6.77756E-08-3.87686E-08-4.77368E-08
 -1      2613 3.64657E-08-9.54986E-09 2.50194E-09
 -1      2614 1.98497E-08-1.45201E-09 4.48240E-09
 -1      2615-8.54629E-08-3.77000E-08-1.15673E-07
 -1      2616-6.31092E-08-6.96545E-08-2.10954E-07
 -1      2617-3.35242E-08-8.89727E-08-2.63032E-07
 -1      2618-1.23030E-08-9.59004E-08-2.74167E-07
 -1      2619-2.17197E-09-9.69963E-08-2.70890E-07
 -1      2620 1.94079E-09-9.65237E-08-2.66934E-07
 -1      2621 3.77494E-09-9.60908E-08-2.65066E-07
 -1      2622 4.84810E-09-9.59317E-08-2.64549E-07
 -1      2623 5.60457E-09-9.59268E-08-2.64524E-07
 -1      2624 6.16568E-09-9.59672E-08-2.64606E-07
 -1      2625 6.61742E-09-9.60044E-08-2.64706E-07
 -1      2626 7.08495E-09-9.60056E-08-2.64803E-07
 -1      2627 7.76651E-09-9.58922E-08-2.64731E-07
 -1      2628 8.87147E-09-9.54998E-08-2.63886E-07
 -1      2629 1.02757E-08-9.46625E-08-2.61104E-07
 -1      2630 1.06383E-08-9.36815E-08-2.56078E-07
 -1      2631 7.06795E-09-9.40611E-08-2.55609E-07
 -1      2632 4.54203E-09-9.84308E-08-2.78009E-07
 -1      2633 3.14649E-08-1.04134E-07-3.13572E-07
 -1      2634 7.97830E-08-8.08872E-08-2.38113E-07
 -1      2635 7.76906E-08-2.82409E-08-5.95789E-08
 -1      2636 3.78922E-08-6.81908E-09 3.00529E-09
 -1      2637 1.88675E-08-1.02196E-09 4.89544E-09
 -1      2638-9.23668E-08-1.98723E-08-1.32428E-07
 -1      2639-6.76737E-08-3.70425E-08-2.44342E-07
 -1      2640-3.48597E-08-4.73657E-08-3.04838E-07
 -1      2641-1.18908E-08-5.10339E-08-3.17576E-07
 -1      2642-1.44729E-09-5.16044E-08-3.13851E-07
 -1      2643 2.53056E-09-5.13446E-08-3.09391E-07
 -1      2644 4.22952E-09-5.11081E-08-3.07276E-07
 -1      2645 5.23744E-09-5.10188E-08-3.06674E-07
 -1      2646 5.97141E-09-5.10131E-08-3.06631E-07
 -1      2647 6.52468E-09-5.10329E-08-3.06714E-07
 -1      2648 6.97104E-09-5.10518E-08-3.06821E-07
 -1      2649 7.43650E-09-5.10523E-08-3.06926E-07
 -1      2650 8.13522E-09-5.09926E-08-3.06841E-07
 -1      2651 9.30767E-09-5.07860E-08-3.05894E-07
 -1      2652 1.08435E-08-5.03449E-08-3.02761E-07
 -1      2653 1.12113E-08-4.98293E-08-2.96962E-07
 -1      2654 6.76089E-09-5.00250E-08-2.96005E-07
 -1      2655 2.66925E-09-5.23955E-08-3.21680E-07
 -1      2656 3.22614E-08-5.55867E-08-3.64537E-07
 -1      2657 8.76274E-08-4.33883E-08-2.78215E-07
 -1      2658 8.50092E-08-1.49448E-08-6.80971E-08
 -1      2659 3.91903E-08-3.56397E-09 3.42311E-09
 -1      2660 1.82746E-08-5.33277E-10 5.21571E-09
 -1      2661-9.48343E-08-1.14564E-15-1.38265E-07
 -1      2662-6.93216E-08-9.71871E-16-2.56021E-07
 -1      2663-3.53644E-08-6.18829E-16-3.19525E-07
 -1      2664-1.17593E-08-4.66674E-16-3.32847E-07
 -1      2665-1.19179E-09-4.08629E-16-3.28970E-07
 -1      2666 2.74240E-09-3.50902E-16-3.24334E-07
 -1      2667 4.39407E-09-2.74865E-16-3.22133E-07
 -1      2668 5.37867E-09-2.24316E-16-3.21501E-07
 -1      2669 6.10452E-09-2.13013E-16-3.21451E-07
 -1      2670 6.65503E-09-1.99939E-16-3.21536E-07
 -1      2671 7.09962E-09-2.15213E-16-3.21645E-07
 -1      2672 7.56464E-09-2.24240E-16-3.21752E-07
 -1      2673 8.27005E-09-2.33515E-16-3.21663E-07
 -1      2674 9.46687E-09-2.49103E-16-3.20679E-07
 -1      2675 1.10492E-08-2.53053E-16-3.17423E-07
 -1      2676 1.14123E-08-2.57929E-16-3.11353E-07
 -1      2677 6.64202E-09-2.80140E-16-3.10233E-07
 -1      2678 2.02542E-09-3.15363E-16-3.37103E-07
 -1      2679 3.25722E-08-3.54349E-16-3.82509E-07
 -1      2680 9.04118E-08-2.46156E-16-2.92440E-07
 -1      2681 8.76428E-08-2.08219E-17-7.11823E-08
 -1      2682 3.97037E-08 1.47828E-17 3.57911E-09
 -1      2683 1.80793E-08-2.16472E-18 5.33552E-09
 -1      2684-9.23668E-08 1.98723E-08-1.32428E-07
 -1      2685-6.76737E-08 3.70425E-08-2.44342E-07
 -1      2686-3.48597E-08 4.73657E-08-3.04838E-07
 -1      2687-1.18908E-08 5.10339E-08-3.17576E-07
 -1      2688-1.44729E-09 5.16044E-08-3.13851E-07
 -1      2689 2.53056E-09 5.13446E-08-3.09391E-07
 -1      2690 4.22952E-09 5.11081E-08-3.07276E-07
 -1      2691 5.23744E-09 5.10188E-08-3.06674E-07
 -1      2692 5.97141E-09 5.10131E-08-3.06631E-07
 -1      2693 6.52468E-09 5.10329E-08-3.06714E-07
 -1      2694 6.97104E-09 5.10518E-08-3.06821E-07
 -1      2695 7.43650E-09 5.10523E-08-3.06926E-07
 -1      2696 8.13522E-09 5.09926E-08-3.06841E-07
 -1      2697 9.30767E-09 5.07860E-08-3.05894E-07
 -1      2698 1.08435E-08 5.03449E-08-3.02761E-07
 -1      2699 1.12113E-08 4.98293E-08-2.96962E-07
 -1      2700 6.76089E-09 5.00250E-08-2.96005E-07
 -1      2701 2.66925E-09 5.23955E-08-3.21680E-07
 -1      2702 3.22614E-08 5.55867E-08-3.64537E-07
 -1      2703 8.76274E-08 4.33883E-08-2.78215E-07
 -1      2704 8.50092E-08 1.49448E-08-6.80971E-08
 -1      2705 3.91903E-08 3.56397E-09 3.42311E-09
 -1      2706 1.82746E-08 5.33277E-10 5.21571E-09
 -1      2707-8.54629E-08 3.77000E-08-1.15673E-07
 -1      2708-6.31092E-08 6.96545E-08-2.10954E-07
 -1      2709-3.35242E-08 8.89727E-08-2.63032E-07
 -1      2710-1.23030E-08 9.59004E-08-2.74167E-07
 -1      2711-2.17197E-09 9.69963E-08-2.70890E-07
 -1      2712 1.94079E-09 9.65237E-08-2.66934E-07
 -1      2713 3.77494E-09 9.60908E-08-2.65066E-07
 -1      2714 4.84810E-09 9.59317E-08-2.64549E-07
 -1      2715 5.60457E-09 9.59268E-08-2.64524E-07
 -1      2716 6.16568E-09 9.59672E-08-2.64606E-07
 -1      2717 6.61742E-09 9.60044E-08-2.64706E-07
 -1      2718 7.08495E-09 9.60056E-08-2.64803E-07
 -1      2719 7.76651E-09 9.58922E-08-2.64731E-07
 -1      2720 8.87147E-09 9.54998E-08-2.63886E-07
 -1      2721 1.02757E-08 9.46625E-08-2.61104E-07
 -1      2722 1.06383E-08 9.36815E-08-2.56078E-07
 -1      2723 7.06795E-09 9.40611E-08-2.55609E-07
 -1      2724 4.54203E-09 9.84308E-08-2.78009E-07
 -1      2725 3.14649E-08 1.04134E-07-3.13572E-07
 -1      2726 7.97830E-08 8.08872E-08-2.38113E-07
 -1      2727 7.76906E-08 2.82409E-08-5.95789E-08
 -1      2728 3.78922E-08 6.81908E-09 3.00529E-09
 -1      2729 1.88675E-08 1.02196E-09 4.89544E-09
 -1      2730-7.59253E-08 5.13756E-08-9.12511E-08
 -1      2731-5.69586E-08 9.33779E-08-1.62770E-07
 -1      2732-3.19165E-08 1.19289E-07-2.03049E-07
 -1      2733-1.30260E-08 1.28780E-07-2.11986E-07
 -1      2734-3.22889E-09 1.30361E-07-2.09377E-07
 -1      2735 1.11299E-09 1.29783E-07-2.06156E-07
 -1      2736 3.14539E-09 1.29233E-07-2.04646E-07
 -1      2737 4.31012E-09 1.29040E-07-2.04254E-07
 -1      2738 5.09769E-09 1.29048E-07-2.04259E-07
 -1      2739 5.67050E-09 1.29110E-07-2.04341E-07
 -1      2740 6.13127E-09 1.29164E-07-2.04431E-07
 -1      2741 6.60479E-09 1.29166E-07-2.04518E-07
 -1      2742 7.26731E-09 1.29008E-07-2.04464E-07
 -1      2743 8.28257E-09 1.28468E-07-2.03762E-07
 -1      2744 9.49749E-09 1.27324E-07-2.01477E-07
 -1      2745 9.81219E-09 1.25997E-07-1.97564E-07
 -1      2746 7.44259E-09 1.26567E-07-1.97827E-07
 -1      2747 7.30240E-09 1.32333E-07-2.15768E-07
 -1      2748 3.05740E-08 1.39022E-07-2.40925E-07
 -1      2749 6.89211E-08 1.07259E-07-1.81502E-07
 -1      2750 6.77756E-08 3.87686E-08-4.77368E-08
 -1      2751 3.64657E-08 9.54986E-09 2.50194E-09
 -1      2752 1.98497E-08 1.45201E-09 4.48240E-09
 -1      2753-6.70378E-08 6.01061E-08-6.57337E-08
 -1      2754-5.16410E-08 1.06733E-07-1.13356E-07
 -1      2755-3.09790E-08 1.36648E-07-1.41821E-07
 -1      2756-1.40822E-08 1.47955E-07-1.48588E-07
 -1      2757-4.38916E-09 1.50020E-07-1.46692E-07
 -1      2758 2.63400E-10 1.49479E-07-1.44241E-07
 -1      2759 2.51000E-09 1.48909E-07-1.43115E-07
 -1      2760 3.76506E-09 1.48727E-07-1.42863E-07
 -1      2761 4.58314E-09 1.48761E-07-1.42907E-07
 -1      2762 5.16966E-09 1.48848E-07-1.42995E-07
 -1      2763 5.64321E-09 1.48916E-07-1.43078E-07
 -1      2764 6.12968E-09 1.48918E-07-1.43155E-07
 -1      2765 6.78602E-09 1.48726E-07-1.43119E-07
 -1      2766 7.72672E-09 1.48079E-07-1.42560E-07
 -1      2767 8.74982E-09 1.46734E-07-1.40773E-07
 -1      2768 8.95529E-09 1.45216E-07-1.37987E-07
 -1      2769 7.71302E-09 1.45977E-07-1.38993E-07
 -1      2770 1.01679E-08 1.52553E-07-1.52546E-07
 -1      2771 3.02302E-08 1.58445E-07-1.67461E-07
 -1      2772 5.90655E-08 1.21399E-07-1.24872E-07
 -1      2773 5.90680E-08 4.63911E-08-3.56480E-08
 -1      2774 3.58718E-08 1.17042E-08 2.12872E-09
 -1      2775 2.11694E-08 1.85844E-09 4.12799E-09
 -1      2776-6.29183E-08 6.48581E-08-4.61120E-08
 -1      2777-5.03272E-08 1.12369E-07-7.65267E-08
 -1      2778-3.19770E-08 1.44318E-07-9.64160E-08
 -1      2779-1.54994E-08 1.56788E-07-1.01642E-07
 -1      2780-5.38511E-09 1.59344E-07-1.00315E-07
 -1      2781-3.63421E-10 1.58967E-07-9.84770E-08
 -1      2782 2.04808E-09 1.58465E-07-9.76727E-08
 -1      2783 3.35626E-09 1.58332E-07-9.75538E-08
 -1      2784 4.19295E-09 1.58405E-07-9.76471E-08
 -1      2785 4.79300E-09 1.58519E-07-9.77503E-08
 -1      2786 5.28310E-09 1.58602E-07-9.78343E-08
 -1      2787 5.79294E-09 1.58602E-07-9.79073E-08
 -1      2788 6.47462E-09 1.58384E-07-9.78828E-08
 -1      2789 7.40708E-09 1.57665E-07-9.74220E-08
 -1      2790 8.31183E-09 1.56204E-07-9.59877E-08
 -1      2791 8.34235E-09 1.54614E-07-9.39968E-08
 -1      2792 7.62457E-09 1.55497E-07-9.54972E-08
 -1      2793 1.20475E-08 1.62361E-07-1.05876E-07
 -1      2794 3.13623E-08 1.66671E-07-1.13838E-07
 -1      2795 5.54946E-08 1.27088E-07-8.39543E-08
 -1      2796 5.64649E-08 5.13419E-08-2.63360E-08
 -1      2797 3.73559E-08 1.33653E-08 2.04963E-09
 -1      2798 2.27215E-08 2.30309E-09 3.96599E-09
 -1      2799-6.14564E-08-5.42548E-08-5.49753E-08
 -1      2800-4.86252E-08-9.69124E-08-8.95673E-08
 -1      2801-3.12988E-08-1.25014E-07-1.12516E-07
 -1      2802-1.62006E-08-1.36030E-07-1.17895E-07
 -1      2803-6.30376E-09-1.38375E-07-1.15625E-07
 -1      2804-6.71347E-10-1.38193E-07-1.13086E-07
 -1      2805 2.44611E-09-1.37906E-07-1.11983E-07
 -1      2806 4.24556E-09-1.37910E-07-1.11781E-07
 -1      2807 5.36402E-09-1.38054E-07-1.11861E-07
 -1      2808 6.12499E-09-1.38200E-07-1.11965E-07
 -1      2809 6.71864E-09-1.38295E-07-1.12059E-07
 -1      2810 7.29217E-09-1.38305E-07-1.12155E-07
 -1      2811 7.97951E-09-1.38115E-07-1.12155E-07
 -1      2812 8.86984E-09-1.37469E-07-1.11645E-07
 -1      2813 9.91346E-09-1.36126E-07-1.09947E-07
 -1      2814 1.08374E-08-1.34562E-07-1.07484E-07
 -1      2815 1.17111E-08-1.35017E-07-1.09255E-07
 -1      2816 1.58380E-08-1.40775E-07-1.22646E-07
 -1      2817 3.05273E-08-1.47255E-07-1.33291E-07
 -1      2818 4.91782E-08-1.12982E-07-9.75193E-08
 -1      2819 4.97859E-08-4.22128E-08-2.89227E-08
 -1      2820 3.56098E-08-1.09640E-08 4.89183E-09
 -1      2821 2.57657E-08-1.76495E-09 5.46690E-09
 -1      2822-6.55207E-08-5.31083E-08-8.59135E-08
 -1      2823-4.95962E-08-9.85520E-08-1.47612E-07
 -1      2824-2.95593E-08-1.25956E-07-1.83666E-07
 -1      2825-1.42276E-08-1.36093E-07-1.91384E-07
 -1      2826-4.95155E-09-1.37911E-07-1.88362E-07
 -1      2827 2.44999E-10-1.37476E-07-1.84970E-07
 -1      2828 3.18032E-09-1.37060E-07-1.83415E-07
 -1      2829 4.92412E-09-1.36984E-07-1.83031E-07
 -1      2830 6.02274E-09-1.37077E-07-1.83050E-07
 -1      2831 6.76824E-09-1.37192E-07-1.83140E-07
 -1      2832 7.34254E-09-1.37274E-07-1.83237E-07
 -1      2833 7.88811E-09-1.37285E-07-1.83339E-07
 -1      2834 8.54127E-09-1.37115E-07-1.83314E-07
 -1      2835 9.42820E-09-1.36517E-07-1.82642E-07
 -1      2836 1.05815E-08-1.35244E-07-1.80406E-07
 -1      2837 1.17587E-08-1.33654E-07-1.76749E-07
 -1      2838 1.22958E-08-1.33938E-07-1.77508E-07
 -1      2839 1.37853E-08-1.39391E-07-1.95237E-07
 -1      2840 2.87793E-08-1.49322E-07-2.17956E-07
 -1      2841 5.33871E-08-1.15831E-07-1.62273E-07
 -1      2842 5.23627E-08-3.80001E-08-4.23045E-08
 -1      2843 3.30768E-08-9.81854E-09 4.78298E-09
 -1      2844 2.39309E-08-1.43598E-09 5.40986E-09
 -1      2845-7.46208E-08-4.71653E-08-1.25415E-07
 -1      2846-5.45628E-08-9.06790E-08-2.26296E-07
 -1      2847-2.93663E-08-1.15220E-07-2.79939E-07
 -1      2848-1.23607E-08-1.23813E-07-2.90327E-07
 -1      2849-3.29442E-09-1.25130E-07-2.86076E-07
 -1      2850 1.49358E-09-1.24588E-07-2.81520E-07
 -1      2851 4.18997E-09-1.24137E-07-2.79409E-07
 -1      2852 5.84564E-09-1.24020E-07-2.78832E-07
 -1      2853 6.91689E-09-1.24073E-07-2.78802E-07
 -1      2854 7.64948E-09-1.24159E-07-2.78889E-07
 -1      2855 8.20888E-09-1.24225E-07-2.78998E-07
 -1      2856 8.73618E-09-1.24236E-07-2.79117E-07
 -1      2857 9.38260E-09-1.24093E-07-2.79070E-07
 -1      2858 1.03338E-08-1.23584E-07-2.78190E-07
 -1      2859 1.16700E-08-1.22477E-07-2.75214E-07
 -1      2860 1.30891E-08-1.21022E-07-2.69808E-07
 -1      2861 1.28646E-08-1.21103E-07-2.68860E-07
 -1      2862 1.04063E-08-1.25914E-07-2.92309E-07
 -1      2863 2.77422E-08-1.37620E-07-3.35313E-07
 -1      2864 6.47852E-08-1.08332E-07-2.53883E-07
 -1      2865 6.14165E-08-3.14319E-08-5.63853E-08
 -1      2866 3.17500E-08-8.09227E-09 5.91608E-09
 -1      2867 2.22220E-08-1.12521E-09 5.65635E-09
 -1      2868-8.44129E-08-3.44880E-08-1.62700E-07
 -1      2869-6.04690E-08-6.78107E-08-3.02791E-07
 -1      2870-2.99035E-08-8.62402E-08-3.74074E-07
 -1      2871-1.08547E-08-9.25306E-08-3.87107E-07
 -1      2872-1.75558E-09-9.34381E-08-3.81658E-07
 -1      2873 2.71424E-09-9.29915E-08-3.75980E-07
 -1      2874 5.19031E-09-9.26265E-08-3.73344E-07
 -1      2875 6.75733E-09-9.25182E-08-3.72592E-07
 -1      2876 7.80147E-09-9.25444E-08-3.72525E-07
 -1      2877 8.52388E-09-9.26013E-08-3.72615E-07
 -1      2878 9.07283E-09-9.26468E-08-3.72740E-07
 -1      2879 9.58951E-09-9.26543E-08-3.72876E-07
 -1      2880 1.02437E-08-9.25510E-08-3.72809E-07
 -1      2881 1.12753E-08-9.21813E-08-3.71724E-07
 -1      2882 1.27912E-08-9.13739E-08-3.68017E-07
 -1      2883 1.43881E-08-9.03144E-08-3.60892E-07
 -1      2884 1.33117E-08-9.03228E-08-3.58236E-07
 -1      2885 7.12710E-09-9.40658E-08-3.87637E-07
 -1      2886 2.71335E-08-1.03534E-07-4.51379E-07
 -1      2887 7.72896E-08-8.26558E-08-3.46303E-07
 -1      2888 7.19128E-08-2.27665E-08-6.96996E-08
 -1      2889 3.12625E-08-5.77232E-09 7.44457E-09
 -1      2890 2.08671E-08-8.00124E-10 6.01762E-09
 -1      2891-9.10394E-08-1.75512E-08-1.86473E-07
 -1      2892-6.46097E-08-3.48260E-08-3.52133E-07
 -1      2893-3.04817E-08-4.45452E-08-4.35572E-07
 -1      2894-9.92369E-09-4.78726E-08-4.50556E-07
 -1      2895-7.14626E-10-4.83699E-08-4.44371E-07
 -1      2896 3.56656E-09-4.81411E-08-4.37970E-07
 -1      2897 5.89900E-09-4.79457E-08-4.34991E-07
 -1      2898 7.40463E-09-4.78838E-08-4.34126E-07
 -1      2899 8.42970E-09-4.78939E-08-4.34034E-07
 -1      2900 9.14554E-09-4.79218E-08-4.34127E-07
 -1      2901 9.68846E-09-4.79447E-08-4.34263E-07
 -1      2902 1.01997E-08-4.79480E-08-4.34411E-07
 -1      2903 1.08642E-08-4.78935E-08-4.34328E-07
 -1      2904 1.19514E-08-4.77013E-08-4.33103E-07
 -1      2905 1.35872E-08-4.72859E-08-4.28910E-07
 -1      2906 1.52688E-08-4.67654E-08-4.20673E-07
 -1      2907 1.35014E-08-4.67805E-08-4.16957E-07
 -1      2908 5.11403E-09-4.88967E-08-4.50915E-07
 -1      2909 2.69653E-08-5.35804E-08-5.27685E-07
 -1      2910 8.55153E-08-4.32254E-08-4.08149E-07
 -1      2911 7.92023E-08-1.21246E-08-7.96354E-08
 -1      2912 3.13602E-08-2.98812E-09 8.65150E-09
 -1      2913 2.00068E-08-4.28539E-10 6.32301E-09
 -1      2914-9.32438E-08-1.91137E-15-1.94145E-07
 -1      2915-6.60064E-08-1.21896E-15-3.68105E-07
 -1      2916-3.07098E-08-7.27254E-16-4.55724E-07
 -1      2917-9.61561E-09-5.54399E-16-4.71427E-07
 -1      2918-3.52440E-10-4.86554E-16-4.65016E-07
 -1      2919 3.86837E-09-3.93856E-16-4.58380E-07
 -1      2920 6.15270E-09-2.39076E-16-4.55287E-07
 -1      2921 7.63700E-09-1.40781E-16-4.54384E-07
 -1      2922 8.65535E-09-1.10666E-16-4.54284E-07
 -1      2923 9.36894E-09-6.61862E-17-4.54378E-07
 -1      2924 9.90988E-09-8.19871E-17-4.54518E-07
 -1      2925 1.04195E-08-7.71439E-17-4.54668E-07
 -1      2926 1.10881E-08-8.36676E-17-4.54580E-07
 -1      2927 1.21944E-08-1.06785E-16-4.53307E-07
 -1      2928 1.38695E-08-1.11155E-16-4.48953E-07
 -1      2929 1.55736E-08-1.19972E-16-4.40351E-07
 -1      2930 1.35321E-08-1.53152E-16-4.36313E-07
 -1      2931 4.49597E-09-2.22497E-16-4.71990E-07
 -1      2932 2.69926E-08-2.42171E-16-5.52765E-07
 -1      2933 8.81464E-08-1.40043E-16-4.28711E-07
 -1      2934 8.16426E-08 5.59475E-17-8.33857E-08
 -1      2935 3.15064E-08 3.92783E-17 9.09614E-09
 -1      2936 1.97074E-08 1.16551E-18 6.44784E-09
 -1      2937-9.10394E-08 1.75512E-08-1.86473E-07
 -1      2938-6.46097E-08 3.48260E-08-3.52133E-07
 -1      2939-3.04817E-08 4.45452E-08-4.35572E-07
 -1      2940-9.92369E-09 4.78726E-08-4.50556E-07
 -1      2941-7.14626E-10 4.83699E-08-4.44371E-07
 -1      2942 3.56656E-09 4.81411E-08-4.37970E-07
 -1      2943 5.89900E-09 4.79457E-08-4.34991E-07
 -1      2944 7.40463E-09 4.78838E-08-4.34126E-07
 -1      2945 8.42970E-09 4.78939E-08-4.34034E-07
 -1      2946 9.14554E-09 4.79218E-08-4.34127E-07
 -1      2947 9.68846E-09 4.79447E-08-4.34263E-07
 -1      2948 1.01997E-08 4.79480E-08-4.34411E-07
 -1      2949 1.08642E-08 4.78935E-08-4.34328E-07
 -1      2950 1.19514E-08 4.77013E-08-4.33103E-07
 -1      2951 1.35872E-08 4.72859E-08-4.28910E-07
 -1      2952 1.52688E-08 4.67654E-08-4.20673E-07
 -1      2953 1.35014E-08 4.67805E-08-4.16957E-07
 -1      2954 5.11403E-09 4.88967E-08-4.50915E-07
 -1      2955 2.69653E-08 5.35804E-08-5.27685E-07
 -1      2956 8.55153E-08 4.32254E-08-4.08149E-07
 -1      2957 7.92023E-08 1.21246E-08-7.96354E-08
 -1      2958 3.13602E-08 2.98812E-09 8.65150E-09
 -1      2959 2.00068E-08 4.28539E-10 6.32301E-09
 -1      2960-8.44129E-08 3.44880E-08-1.62700E-07
 -1      2961-6.04690E-08 6.78107E-08-3.02791E-07
 -1      2962-2.99035E-08 8.62402E-08-3.74074E-07
 -1      2963-1.08547E-08 9.25306E-08-3.87107E-07
 -1      2964-1.75558E-09 9.34381E-08-3.81658E-07
 -1      2965 2.71424E-09 9.29915E-08-3.75980E-07
 -1      2966 5.19031E-09 9.26265E-08-3.73344E-07
 -1      2967 6.75733E-09 9.25182E-08-3.72592E-07
 -1      2968 7.80147E-09 9.25444E-08-3.72525E-07
 -1      2969 8.52388E-09 9.26013E-08-3.72615E-07
 -1      2970 9.07283E-09 9.26468E-08-3.72740E-07
 -1      2971 9.58951E-09 9.26543E-08-3.72876E-07
 -1      2972 1.02437E-08 9.25510E-08-3.72809E-07
 -1      2973 1.12753E-08 9.21813E-08-3.71724E-07
 -1      2974 1.27912E-08 9.13739E-08-3.68017E-07
 -1      2975 1.43881E-08 9.03144E-08-3.60893E-07
 -1      2976 1.33117E-08 9.03228E-08-3.58236E-07
 -1      2977 7.12710E-09 9.40658E-08-3.87637E-07
 -1      2978 2.71335E-08 1.03534E-07-4.51379E-07
 -1      2979 7.72896E-08 8.26558E-08-3.46303E-07
 -1      2980 7.19128E-08 2.27665E-08-6.96996E-08
 -1      2981 3.12625E-08 5.77232E-09 7.44457E-09
 -1      2982 2.08671E-08 8.00124E-10 6.01762E-09
 -1      2983-7.46208E-08 4.71653E-08-1.25415E-07
 -1      2984-5.45628E-08 9.06790E-08-2.26296E-07
 -1      2985-2.93663E-08 1.15220E-07-2.79939E-07
 -1      2986-1.23607E-08 1.23813E-07-2.90327E-07
 -1      2987-3.29442E-09 1.25130E-07-2.86076E-07
 -1      2988 1.49358E-09 1.24588E-07-2.81520E-07
 -1      2989 4.18997E-09 1.24137E-07-2.79409E-07
 -1      2990 5.84564E-09 1.24020E-07-2.78832E-07
 -1      2991 6.91689E-09 1.24073E-07-2.78802E-07
 -1      2992 7.64948E-09 1.24159E-07-2.78889E-07
 -1      2993 8.20888E-09 1.24225E-07-2.78998E-07
 -1      2994 8.73618E-09 1.24236E-07-2.79117E-07
 -1      2995 9.38260E-09 1.24093E-07-2.79070E-07
 -1      2996 1.03338E-08 1.23584E-07-2.78190E-07
 -1      2997 1.16700E-08 1.22477E-07-2.75214E-07
 -1      2998 1.30891E-08 1.21022E-07-2.69808E-07
 -1      2999 1.28646E-08 1.21103E-07-2.68860E-07
 -1      3000 1.04063E-08 1.25914E-07-2.92309E-07
 -1      3001 2.77422E-08 1.37620E-07-3.35313E-07
 -1      3002 6.47852E-08 1.08332E-07-2.53883E-07
 -1      3003 6.14165E-08 3.14319E-08-5.63853E-08
 -1      3004 3.17500E-08 8.09227E-09 5.91608E-09
 -1      3005 2.22220E-08 1.12521E-09 5.65635E-09
 -1      3006-6.55207E-08 5.31083E-08-8.59135E-08
 -1      3007-4.95962E-08 9.85520E-08-1.47612E-07
 -1      3008-2.95593E-08 1.25956E-07-1.83666E-07
 -1      3009-1.42276E-08 1.36093E-07-1.91384E-07
 -1      3010-4.95155E-09 1.37911E-07-1.88362E-07
 -1      3011 2.44999E-10 1.37476E-07-1.84970E-07
 -1      3012 3.18032E-09 1.37060E-07-1.83415E-07
 -1      3013 4.92412E-09 1.36984E-07-1.83031E-07
 -1      3014 6.02274E-09 1.37077E-07-1.83050E-07
 -1      3015 6.76824E-09 1.37192E-07-1.83140E-07
 -1      3016 7.34254E-09 1.37274E-07-1.83237E-07
 -1      3017 7.88811E-09 1.37285E-07-1.83339E-07
 -1      3018 8.54127E-09 1.37115E-07-1.83314E-07
 -1      3019 9.42820E-09 1.36517E-07-1.82642E-07
 -1      3020 1.05815E-08 1.35244E-07-1.80406E-07
 -1      3021 1.17587E-08 1.33654E-07-1.76749E-07
 -1      3022 1.22958E-08 1.33938E-07-1.77508E-07
 -1      3023 1.37853E-08 1.39391E-07-1.95237E-07
 -1      3024 2.87793E-08 1.49322E-07-2.17956E-07
 -1      3025 5.33871E-08 1.15831E-07-1.62273E-07
 -1      3026 5.23627E-08 3.80001E-08-4.23045E-08
 -1      3027 3.30768E-08 9.81854E-09 4.78298E-09
 -1      3028 2.39309E-08 1.43598E-09 5.40986E-09
 -1      3029-6.14564E-08 5.42548E-08-5.49753E-08
 -1      3030-4.86252E-08 9.69124E-08-8.95673E-08
 -1      3031-3.12988E-08 1.25014E-07-1.12516E-07
 -1      3032-1.62006E-08 1.36030E-07-1.17895E-07
 -1      3033-6.30376E-09 1.38375E-07-1.15625E-07
 -1      3034-6.71347E-10 1.38193E-07-1.13086E-07
 -1      3035 2.44611E-09 1.37906E-07-1.11983E-07
 -1      3036 4.24556E-09 1.37910E-07-1.11781E-07
 -1      3037 5.36402E-09 1.38054E-07-1.11861E-07
 -1      3038 6.12499E-09 1.38200E-07-1.11965E-07
 -1      3039 6.71864E-09 1.38295E-07-1.12059E-07
 -1      3040 7.29217E-09 1.38305E-07-1.12155E-07
 -1      3041 7.97951E-09 1.38115E-07-1.12155E-07
 -1      3042 8.86984E-09 1.37469E-07-1.11645E-07
 -1      3043 9.91347E-09 1.36126E-07-1.09947E-07
 -1      3044 1.08374E-08 1.34562E-07-1.07484E-07
 -1      3045 1.17111E-08 1.35017E-07-1.09255E-07
 -1      3046 1.58380E-08 1.40775E-07-1.22646E-07
 -1      3047 3.05273E-08 1.47255E-07-1.33291E-07
 -1      3048 4.91782E-08 1.12982E-07-9.75193E-08
 -1      3049 4.97859E-08 4.22128E-08-2.89227E-08
 -1      3050 3.56098E-08 1.09640E-08 4.89183E-09
 -1      3051 2.57657E-08 1.76495E-09 5.46690E-09
 -1      3052-5.10104E-08-2.58381E-08-5.83930E-08
 -1      3053-3.99503E-08-4.81478E-08-9.30921E-08
 -1      3054-2.69894E-08-6.45208E-08-1.16925E-07
 -1      3055-1.57870E-08-7.19113E-08-1.22137E-07
 -1      3056-7.16156E-09-7.40108E-08-1.19295E-07
 -1      3057-1.17555E-09-7.43571E-08-1.16314E-07
 -1      3058 2.59489E-09-7.44994E-08-1.14976E-07
 -1      3059 4.84175E-09-7.47240E-08-1.14672E-07
 -1      3060 6.19101E-09-7.49563E-08-1.14709E-07
 -1      3061 7.06762E-09-7.51280E-08-1.14795E-07
 -1      3062 7.72857E-09-7.52272E-08-1.14886E-07
 -1      3063 8.32629E-09-7.52468E-08-1.14992E-07
 -1      3064 8.94507E-09-7.51186E-08-1.15008E-07
 -1      3065 9.64240E-09-7.46791E-08-1.14491E-07
 -1      3066 1.06213E-08-7.37990E-08-1.12723E-07
 -1      3067 1.24947E-08-7.28479E-08-1.10183E-07
 -1      3068 1.59236E-08-7.31143E-08-1.12162E-07
 -1      3069 2.04371E-08-7.57106E-08-1.27281E-07
 -1      3070 2.64183E-08-7.94935E-08-1.37918E-07
 -1      3071 3.26859E-08-6.18454E-08-9.98627E-08
 -1      3072 3.31889E-08-2.30579E-08-3.03086E-08
 -1      3073 2.97143E-08-6.82852E-09 6.72593E-09
 -1      3074 2.76605E-08-9.38434E-10 6.24549E-09
 -1      3075-5.12436E-08-2.87968E-08-9.78716E-08
 -1      3076-3.76523E-08-5.77204E-08-1.67097E-07
 -1      3077-2.35123E-08-7.44802E-08-2.07217E-07
 -1      3078-1.31691E-08-8.13203E-08-2.15195E-07
 -1      3079-5.45846E-09-8.28732E-08-2.11496E-07
 -1      3080 8.32891E-11-8.28978E-08-2.07500E-07
 -1      3081 3.70777E-09-8.28492E-08-2.05625E-07
 -1      3082 5.92223E-09-8.29612E-08-2.05106E-07
 -1      3083 7.25993E-09-8.31303E-08-2.05075E-07
 -1      3084 8.12274E-09-8.32694E-08-2.05147E-07
 -1      3085 8.76333E-09-8.33553E-08-2.05243E-07
 -1      3086 9.32843E-09-8.33744E-08-2.05357E-07
 -1      3087 9.89591E-09-8.32580E-08-2.05337E-07
 -1      3088 1.05459E-08-8.28352E-08-2.04615E-07
 -1      3089 1.15541E-08-8.19961E-08-2.02172E-07
 -1      3090 1.36333E-08-8.09027E-08-1.98195E-07
 -1      3091 1.72519E-08-8.10256E-08-1.98620E-07
 -1      3092 1.99545E-08-8.27489E-08-2.18668E-07
 -1      3093 2.42570E-08-9.22831E-08-2.45909E-07
 -1      3094 3.21834E-08-7.35180E-08-1.82136E-07
 -1      3095 3.09829E-08-1.89033E-08-4.61685E-08
 -1      3096 2.57882E-08-6.71378E-09 6.59626E-09
 -1      3097 2.57812E-08-7.41302E-10 5.80839E-09
 -1      3098-5.65461E-08-2.84316E-08-1.56281E-07
 -1      3099-3.89179E-08-6.09054E-08-2.88725E-07
 -1      3100-2.05831E-08-7.67448E-08-3.53010E-07
 -1      3101-1.02314E-08-8.25725E-08-3.63881E-07
 -1      3102-3.13753E-09-8.36031E-08-3.58204E-07
 -1      3103 1.92641E-09-8.34115E-08-3.52493E-07
 -1      3104 5.34933E-09-8.32458E-08-3.49847E-07
 -1      3105 7.50692E-09-8.32766E-08-3.49072E-07
 -1      3106 8.83171E-09-8.33907E-08-3.48984E-07
 -1      3107 9.68642E-09-8.34969E-08-3.49060E-07
 -1      3108 1.03119E-08-8.35671E-08-3.49178E-07
 -1      3109 1.08512E-08-8.35846E-08-3.49317E-07
 -1      3110 1.13920E-08-8.34870E-08-3.49270E-07
 -1      3111 1.20402E-08-8.31131E-08-3.48264E-07
 -1      3112 1.31927E-08-8.23694E-08-3.44754E-07
 -1      3113 1.53760E-08-8.12446E-08-3.38176E-07
 -1      3114 1.94090E-08-8.11775E-08-3.35592E-07
 -1      3115 1.80757E-08-8.20788E-08-3.60600E-07
 -1      3116 2.12056E-08-9.58626E-08-4.27064E-07
 -1      3117 4.04842E-08-7.92019E-08-3.26039E-07
 -1      3118 3.51625E-08-1.32188E-08-5.66266E-08
 -1      3119 2.11113E-08-6.20602E-09 7.80565E-09
 -1      3120 2.43645E-08-5.12069E-10 5.70638E-09
 -1      3121-6.28199E-08-1.86144E-08-2.10789E-07
 -1      3122-4.14704E-08-4.13259E-08-4.07184E-07
 -1      3123-1.85197E-08-5.27590E-08-4.96179E-07
 -1      3124-7.67657E-09-5.69814E-08-5.09879E-07
 -1      3125-9.49286E-10-5.78004E-08-5.02298E-07
 -1      3126 3.74481E-09-5.76839E-08-4.94931E-07
 -1      3127 6.98135E-09-5.75506E-08-4.91550E-07
 -1      3128 9.08036E-09-5.75538E-08-4.90540E-07
 -1      3129 1.03916E-08-5.76227E-08-4.90408E-07
 -1      3130 1.12410E-08-5.76926E-08-4.90494E-07
 -1      3131 1.18561E-08-5.77401E-08-4.90638E-07
 -1      3132 1.23784E-08-5.77512E-08-4.90807E-07
 -1      3133 1.29080E-08-5.76778E-08-4.90735E-07
 -1      3134 1.35782E-08-5.74192E-08-4.89450E-07
 -1      3135 1.48627E-08-5.69075E-08-4.84883E-07
 -1      3136 1.71101E-08-5.62593E-08-4.75801E-07
 -1      3137 2.13712E-08-5.61660E-08-4.70175E-07
 -1      3138 1.63264E-08-5.72816E-08-5.00831E-07
 -1      3139 1.83531E-08-6.59775E-08-6.06919E-07
 -1      3140 5.04146E-08-5.65961E-08-4.74537E-07
 -1      3141 4.15201E-08-9.64370E-09-6.53720E-08
 -1      3142 1.72010E-08-4.42471E-09 9.60141E-09
 -1      3143 2.33839E-08-4.51341E-10 5.76387E-09
 -1      3144-6.56765E-08-7.34612E-09-2.38442E-07
 -1      3145-4.24604E-08-1.66596E-08-4.68098E-07
 -1      3146-1.73344E-08-2.21099E-08-5.72280E-07
 -1      3147-6.11705E-09-2.43177E-08-5.88145E-07
 -1      3148 4.32500E-10-2.48509E-08-5.79682E-07
 -1      3149 4.92825E-09-2.48523E-08-5.71460E-07
 -1      3150 8.06045E-09-2.48001E-08-5.67673E-07
 -1      3151 1.01234E-08-2.48012E-08-5.66528E-07
 -1      3152 1.14267E-08-2.48335E-08-5.66367E-07
 -1      3153 1.22729E-08-2.48671E-08-5.66458E-07
 -1      3154 1.28821E-08-2.48898E-08-5.66615E-07
 -1      3155 1.33953E-08-2.48935E-08-5.66797E-07
 -1      3156 1.39178E-08-2.48538E-08-5.66705E-07
 -1      3157 1.46068E-08-2.47296E-08-5.65253E-07
 -1      3158 1.59174E-08-2.44965E-08-5.60100E-07
 -1      3159 1.82550E-08-2.43081E-08-5.49759E-07
 -1      3160 2.22553E-08-2.42979E-08-5.42446E-07
 -1      3161 1.59315E-08-2.52603E-08-5.78908E-07
 -1      3162 1.74225E-08-2.76324E-08-7.02665E-07
 -1      3163 5.40987E-08-2.44046E-08-5.56319E-07
 -1      3164 4.43875E-08-5.80309E-09-7.52475E-08
 -1      3165 1.56433E-08-2.12768E-09 1.15543E-08
 -1      3166 2.25366E-08-3.21777E-10 5.83047E-09
 -1      3167-6.65385E-08-2.79147E-15-2.45672E-07
 -1      3168-4.27697E-08-1.29223E-15-4.84143E-07
 -1      3169-1.69891E-08-7.63843E-16-5.93075E-07
 -1      3170-5.64732E-09-6.15083E-16-6.09761E-07
 -1      3171 8.57052E-10-5.38847E-16-6.01093E-07
 -1      3172 5.28945E-09-3.86872E-16-5.92642E-07
 -1      3173 8.38803E-09-9.15829E-17-5.88739E-07
 -1      3174 1.04389E-08 7.40888E-17-5.87552E-07
 -1      3175 1.17392E-08 1.44099E-16-5.87382E-07
 -1      3176 1.25845E-08 2.29562E-16-5.87472E-07
 -1      3177 1.31918E-08 2.26819E-16-5.87632E-07
 -1      3178 1.37017E-08 2.55853E-16-5.87817E-07
 -1      3179 1.42232E-08 2.65295E-16-5.87719E-07
 -1      3180 1.49154E-08 2.27930E-16-5.86213E-07
 -1      3181 1.62384E-08 2.32225E-16-5.80897E-07
 -1      3182 1.85893E-08 1.92187E-16-5.70211E-07
 -1      3183 2.24934E-08 1.87896E-16-5.62462E-07
 -1      3184 1.58255E-08-6.32736E-17-6.01292E-07
 -1      3185 1.71258E-08 9.10616E-17-7.28961E-07
 -1      3186 5.50568E-08 1.88141E-16-5.79156E-07
 -1      3187 4.51920E-08 1.64286E-16-7.96912E-08
 -1      3188 1.52111E-08 6.29080E-17 1.23638E-08
 -1      3189 2.22458E-08 3.75426E-18 5.87078E-09
 -1      3190-6.56765E-08 7.34612E-09-2.38442E-07
 -1      3191-4.24604E-08 1.66596E-08-4.68098E-07
 -1      3192-1.73344E-08 2.21099E-08-5.72280E-07
 -1      3193-6.11705E-09 2.43177E-08-5.88145E-07
 -1      3194 4.32500E-10 2.48509E-08-5.79682E-07
 -1      3195 4.92825E-09 2.48523E-08-5.71460E-07
 -1      3196 8.06045E-09 2.48001E-08-5.67673E-07
 -1      3197 1.01234E-08 2.48012E-08-5.66528E-07
 -1      3198 1.14267E-08 2.48335E-08-5.66367E-07
 -1      3199 1.22729E-08 2.48671E-08-5.66458E-07
 -1      3200 1.28821E-08 2.48898E-08-5.66615E-07
 -1      3201 1.33953E-08 2.48935E-08-5.66797E-07
 -1      3202 1.39178E-08 2.48538E-08-5.66705E-07
 -1      3203 1.46068E-08 2.47296E-08-5.65253E-07
 -1      3204 1.59174E-08 2.44965E-08-5.60100E-07
 -1      3205 1.82550E-08 2.43081E-08-5.49759E-07
 -1      3206 2.22553E-08 2.42979E-08-5.42446E-07
 -1      3207 1.59315E-08 2.52603E-08-5.78908E-07
 -1      3208 1.74225E-08 2.76324E-08-7.02665E-07
 -1      3209 5.40987E-08 2.44046E-08-5.56319E-07
 -1      3210 4.43875E-08 5.80309E-09-7.52475E-08
 -1      3211 1.56433E-08 2.12768E-09 1.15543E-08
 -1      3212 2.25366E-08 3.21777E-10 5.83047E-09
 -1      3213-6.28199E-08 1.86144E-08-2.10789E-07
 -1      3214-4.14704E-08 4.13259E-08-4.07184E-07
 -1      3215-1.85197E-08 5.27590E-08-4.96179E-07
 -1      3216-7.67657E-09 5.69814E-08-5.09879E-07
 -1      3217-9.49286E-10 5.78004E-08-5.02298E-07
 -1      3218 3.74481E-09 5.76839E-08-4.94931E-07
 -1      3219 6.98135E-09 5.75506E-08-4.91550E-07
 -1      3220 9.08036E-09 5.75538E-08-4.90540E-07
 -1      3221 1.03916E-08 5.76227E-08-4.90408E-07
 -1      3222 1.12410E-08 5.76926E-08-4.90494E-07
 -1      3223 1.18561E-08 5.77401E-08-4.90638E-07
 -1      3224 1.23784E-08 5.77512E-08-4.90807E-07
 -1      3225 1.29080E-08 5.76778E-08-4.90735E-07
 -1      3226 1.35782E-08 5.74192E-08-4.89450E-07
 -1      3227 1.48627E-08 5.69075E-08-4.84883E-07
 -1      3228 1.71101E-08 5.62593E-08-4.75801E-07
 -1      3229 2.13712E-08 5.61660E-08-4.70175E-07
 -1      3230 1.63264E-08 5.72816E-08-5.00831E-07
 -1      3231 1.83531E-08 6.59775E-08-6.06919E-07
 -1      3232 5.04146E-08 5.65961E-08-4.74537E-07
 -1      3233 4.15201E-08 9.64370E-09-6.53720E-08
 -1      3234 1.72010E-08 4.42471E-09 9.60141E-09
 -1      3235 2.33839E-08 4.51341E-10 5.76387E-09
 -1      3236-5.65461E-08 2.84315E-08-1.56281E-07
 -1      3237-3.89179E-08 6.09054E-08-2.88725E-07
 -1      3238-2.05831E-08 7.67448E-08-3.53010E-07
 -1      3239-1.02314E-08 8.25725E-08-3.63881E-07
 -1      3240-3.13752E-09 8.36031E-08-3.58204E-07
 -1      3241 1.92641E-09 8.34114E-08-3.52493E-07
 -1      3242 5.34933E-09 8.32458E-08-3.49847E-07
 -1      3243 7.50692E-09 8.32766E-08-3.49072E-07
 -1      3244 8.83171E-09 8.33907E-08-3.48984E-07
 -1      3245 9.68642E-09 8.34969E-08-3.49060E-07
 -1      3246 1.03119E-08 8.35671E-08-3.49178E-07
 -1      3247 1.08512E-08 8.35846E-08-3.49317E-07
 -1      3248 1.13920E-08 8.34870E-08-3.49270E-07
 -1      3249 1.20402E-08 8.31131E-08-3.48264E-07
 -1      3250 1.31927E-08 8.23694E-08-3.44754E-07
 -1      3251 1.53760E-08 8.12446E-08-3.38176E-07
 -1      3252 1.94090E-08 8.11775E-08-3.35592E-07
 -1      3253 1.80757E-08 8.20788E-08-3.60600E-07
 -1      3254 2.12056E-08 9.58626E-08-4.27064E-07
 -1      3255 4.04842E-08 7.92019E-08-3.26039E-07
 -1      3256 3.51625E-08 1.32188E-08-5.66266E-08
 -1      3257 2.11113E-08 6.20602E-09 7.80565E-09
 -1      3258 2.43645E-08 5.12069E-10 5.70638E-09
 -1      3259-5.12436E-08 2.87968E-08-9.78716E-08
 -1      3260-3.76523E-08 5.77204E-08-1.67097E-07
 -1      3261-2.35123E-08 7.44802E-08-2.07217E-07
 -1      3262-1.31691E-08 8.13203E-08-2.15195E-07
 -1      3263-5.45846E-09 8.28732E-08-2.11496E-07
 -1      3264 8.32891E-11 8.28978E-08-2.07500E-07
 -1      3265 3.70777E-09 8.28492E-08-2.05625E-07
 -1      3266 5.92223E-09 8.29612E-08-2.05106E-07
 -1      3267 7.25993E-09 8.31303E-08-2.05075E-07
 -1      3268 8.12274E-09 8.32694E-08-2.05147E-07
 -1      3269 8.76333E-09 8.33553E-08-2.05243E-07
 -1      3270 9.32843E-09 8.33744E-08-2.05357E-07
 -1      3271 9.89591E-09 8.32580E-08-2.05337E-07
 -1      3272 1.05459E-08 8.28352E-08-2.04615E-07
 -1      3273 1.15541E-08 8.19961E-08-2.02172E-07
 -1      3274 1.36333E-08 8.09027E-08-1.98195E-07
 -1      3275 1.72519E-08 8.10256E-08-1.98620E-07
 -1      3276 1.99545E-08 8.27489E-08-2.18668E-07
 -1      3277 2.42570E-08 9.22831E-08-2.45909E-07
 -1      3278 3.21834E-08 7.35180E-08-1.82136E-07
 -1      3279 3.09829E-08 1.89033E-08-4.61685E-08
 -1      3280 2.57882E-08 6.71378E-09 6.59626E-09
 -1      3281 2.57812E-08 7.41302E-10 5.80839E-09
 -1      3282-5.10103E-08 2.58381E-08-5.83930E-08
 -1      3283-3.99503E-08 4.81478E-08-9.30921E-08
 -1      3284-2.69894E-08 6.45208E-08-1.16925E-07
 -1      3285-1.57870E-08 7.19113E-08-1.22137E-07
 -1      3286-7.16156E-09 7.40108E-08-1.19295E-07
 -1      3287-1.17555E-09 7.43571E-08-1.16314E-07
 -1      3288 2.59489E-09 7.44994E-08-1.14976E-07
 -1      3289 4.84175E-09 7.47240E-08-1.14672E-07
 -1      3290 6.19101E-09 7.49563E-08-1.14709E-07
 -1      3291 7.06762E-09 7.51280E-08-1.14795E-07
 -1      3292 7.72857E-09 7.52272E-08-1.14886E-07
 -1      3293 8.32629E-09 7.52468E-08-1.14992E-07
 -1      3294 8.94507E-09 7.51186E-08-1.15008E-07
 -1      3295 9.64240E-09 7.46791E-08-1.14491E-07
 -1      3296 1.06213E-08 7.37990E-08-1.12723E-07
 -1      3297 1.24947E-08 7.28479E-08-1.10183E-07
 -1      3298 1.59236E-08 7.31143E-08-1.12162E-07
 -1      3299 2.04371E-08 7.57106E-08-1.27281E-07
 -1      3300 2.64183E-08 7.94935E-08-1.37918E-07
 -1      3301 3.26859E-08 6.18454E-08-9.98627E-08
 -1      3302 3.31889E-08 2.30579E-08-3.03086E-08
 -1      3303 2.97143E-08 6.82852E-09 6.72593E-09
 -1      3304 2.76605E-08 9.38434E-10 6.24549E-09
 -3
    1PSTEP                         8           3           1          
  100CL  103 3.50000E-01        3304                     0    3           1
 -4  STRESS      6    1
 -5  SXX         1    4    1    1
 -5  SYY         1    4    2    2
 -5  SZZ         1    4    3    3
 -5  SXY         1    4    1    2
 -5  SYZ         1    4    2    3
 -5  SZX         1    4    3    1
 -1         1 1.85608E+04 7.75313E+03 7.71451E+03 1.46699E+03-2.49782E-01-5.06671E+01
 -1         2 3.05219E+04-3.62555E+00-1.40607E+04-7.84644E+03-1.33209E+03-7.98610E+03
 -1         3 1.79801E+04 7.51116E+03 7.47885E+03 9.41845E+02-2.43691E-02-4.74240E+01
 -1         4 1.91269E+04-3.16676E+03-1.68591E+04-4.61212E+03-4.16024E+02-3.62188E+03
 -1         5 1.78281E+04 7.44641E+03 7.41804E+03 4.63166E+02 4.78859E-02-4.28993E+01
 -1         6 1.81065E+04-2.54197E+03-1.69390E+04-7.99946E+02-1.08318E+02-3.71975E+03
 -1         7 1.77945E+04 7.43173E+03 7.40489E+03 4.48958E-05-2.76998E-08-4.13817E+01
 -1         8 1.78613E+04-2.45372E+03-1.69814E+04 6.05888E-07-1.14534E-07-3.67095E+03
 -1         9 1.78281E+04 7.44641E+03 7.41804E+03-4.63166E+02-4.78860E-02-4.28993E+01
 -1        10 1.81065E+04-2.54197E+03-1.69390E+04 7.99946E+02 1.08318E+02-3.71975E+03
 -1        11 1.79801E+04 7.51116E+03 7.47885E+03-9.41845E+02 2.43690E-02-4.74240E+01
 -1        12 1.91269E+04-3.16676E+03-1.68591E+04 4.61212E+03 4.16024E+02-3.62188E+03
 -1        13 1.85608E+04 7.75312E+03 7.71451E+03-1.46699E+03 2.49782E-01-5.06671E+01
 -1        14 3.05219E+04-3.62555E+00-1.40607E+04 7.84644E+03 1.33209E+03-7.98610E+03
 -1        15 1.87563E+04 7.83293E+03 7.80025E+03 1.46893E+03-8.85561E+00-1.30776E+03
 -1        16 1.98433E+04-1.28022E+03-1.73866E+04-3.84489E+03-6.76029E+02-5.26424E+03
 -1        17 1.81781E+04 7.59206E+03 7.56603E+03 9.47564E+02-5.17536E+00-1.28836E+03
 -1        18 1.43231E+04-3.44753E+03-1.90044E+04-2.61603E+03-2.23957E+02-2.87592E+03
 -1        19 1.80303E+04 7.52885E+03 7.50711E+03 4.67906E+02-2.22812E+00-1.25729E+03
 -1        20 1.27024E+04-4.27608E+03-1.93415E+04-8.68156E+02-1.26850E+02-2.73959E+03
 -1        21 1.79983E+04 7.51481E+03 7.49472E+03 4.39398E-05-2.76369E-07-1.24303E+03
 -1        22 1.24325E+04-4.47536E+03-1.93499E+04-1.00675E-06 4.69284E-07-2.71931E+03
 -1        23 1.80303E+04 7.52885E+03 7.50711E+03-4.67905E+02 2.22812E+00-1.25729E+03
 -1        24 1.27024E+04-4.27608E+03-1.93415E+04 8.68156E+02 1.26850E+02-2.73959E+03
 -1        25 1.81781E+04 7.59206E+03 7.56603E+03-9.47564E+02 5.17536E+00-1.28836E+03
 -1        26 1.43231E+04-3.44753E+03-1.90044E+04 2.61603E+03 2.23957E+02-2.87592E+03
 -1        27 1.87563E+04 7.83293E+03 7.80025E+03-1.46893E+03 8.85561E+00-1.30776E+03
 -1        28 1.98433E+04-1.28022E+03-1.73866E+04 3.84489E+03 6.76029E+02-5.26424E+03
 -1        29 1.91234E+04 7.98319E+03 7.96797E+03 1.46826E+03-1.77574E+01-2.64178E+03
 -1        30 1.83323E+04-7.97912E+02-1.87282E+04-4.16615E+03-1.72872E+02-2.04423E+03
 -1        31 1.85604E+04 7.74852E+03 7.74112E+03 9.65831E+02-1.03258E+01-2.58797E+03
 -1        32 1.24348E+04-3.52398E+03-2.11686E+04-2.57013E+03 1.20230E+02-1.66057E+03
 -1        33 1.84316E+04 7.69255E+03 7.69048E+03 4.84602E+02-4.42904E+00-2.50958E+03
 -1        34 1.14595E+04-4.38248E+03-2.06541E+04-7.22329E+02 1.71196E+02-1.40656E+03
 -1        35 1.84076E+04 7.68150E+03 7.68134E+03 4.23912E-05-5.07942E-07-2.47460E+03
 -1        36 1.11901E+04-4.84636E+03-2.04213E+04-7.86482E-07 8.93811E-07-1.37752E+03
 -1        37 1.84316E+04 7.69255E+03 7.69048E+03-4.84602E+02 4.42904E+00-2.50958E+03
 -1        38 1.14595E+04-4.38248E+03-2.06541E+04 7.22329E+02-1.71196E+02-1.40656E+03
 -1        39 1.85604E+04 7.74852E+03 7.74112E+03-9.65831E+02 1.03257E+01-2.58797E+03
 -1        40 1.24348E+04-3.52398E+03-2.11686E+04 2.57013E+03-1.20230E+02-1.66057E+03
 -1        41 1.91234E+04 7.98319E+03 7.96797E+03-1.46826E+03 1.77574E+01-2.64178E+03
 -1        42 1.83323E+04-7.97912E+02-1.87282E+04 4.16615E+03 1.72872E+02-2.04423E+03
 -1        43 1.97708E+04 8.24809E+03 8.26415E+03 1.45381E+03-2.71233E+01-4.14737E+03
 -1        44 1.68499E+04-1.49656E+03-2.21965E+04-4.22324E+03 4.26959E+02-1.44038E+03
 -1        45 1.92519E+04 8.03117E+03 8.05802E+03 9.90593E+02-1.57715E+01-4.01056E+03
 -1        46 1.15720E+04-3.96193E+03-2.33390E+04-2.57735E+03 9.06894E+02-1.20043E+03
 -1        47 1.91655E+04 7.99149E+03 8.02397E+03 5.08008E+02-6.90315E+00-3.83828E+03
 -1        48 1.08189E+04-5.01335E+03-2.18334E+04-7.29975E+02 7.76288E+02-1.08554E+03
 -1        49 1.91572E+04 7.98648E+03 8.02026E+03 4.05277E-05-7.18417E-07-3.76690E+03
 -1        50 1.06237E+04-5.59769E+03-2.12837E+04-3.60572E-07 5.00616E-07-1.04437E+03
 -1        51 1.91655E+04 7.99149E+03 8.02397E+03-5.08007E+02 6.90315E+00-3.83828E+03
 -1        52 1.08189E+04-5.01335E+03-2.18334E+04 7.29975E+02-7.76288E+02-1.08554E+03
 -1        53 1.92519E+04 8.03117E+03 8.05802E+03-9.90593E+02 1.57715E+01-4.01056E+03
 -1        54 1.15720E+04-3.96193E+03-2.33390E+04 2.57735E+03-9.06894E+02-1.20043E+03
 -1        55 1.97708E+04 8.24809E+03 8.26415E+03-1.45381E+03 2.71233E+01-4.14737E+03
 -1        56 1.68499E+04-1.49656E+03-2.21965E+04 4.22324E+03-4.26959E+02-1.44038E+03
 -1        57 2.09400E+04 8.72516E+03 8.78903E+03 1.38650E+03-3.66038E+01-5.98143E+03
 -1        58 1.48699E+04-3.38220E+03-2.90603E+04-4.47648E+03 1.41779E+03-9.69354E+02
 -1        59 2.05321E+04 8.55223E+03 8.63733E+03 9.89633E+02-2.18286E+01-5.63193E+03
 -1        60 1.16227E+04-4.28034E+03-2.48899E+04-2.62953E+03 1.93466E+03-5.94708E+02
 -1        61 2.05215E+04 8.54270E+03 8.62640E+03 5.03845E+02-1.04520E+01-5.29684E+03
 -1        62 1.08775E+04-5.89525E+03-2.23795E+04-7.64753E+02 1.25894E+03-5.46464E+02
 -1        63 2.05267E+04 8.54358E+03 8.62358E+03 3.82442E-05-9.14980E-07-5.18126E+03
 -1        64 1.03495E+04-6.83480E+03-2.23040E+04-4.58215E-08 1.27468E-07-5.11538E+02
 -1        65 2.05215E+04 8.54270E+03 8.62640E+03-5.03845E+02 1.04519E+01-5.29684E+03
 -1        66 1.08775E+04-5.89525E+03-2.23795E+04 7.64753E+02-1.25894E+03-5.46464E+02
 -1        67 2.05321E+04 8.55223E+03 8.63733E+03-9.89633E+02 2.18286E+01-5.63193E+03
 -1        68 1.16227E+04-4.28034E+03-2.48899E+04 2.62953E+03-1.93466E+03-5.94708E+02
 -1        69 2.09400E+04 8.72516E+03 8.78902E+03-1.38650E+03 3.66038E+01-5.98143E+03
 -1        70 1.48699E+04-3.38220E+03-2.90603E+04 4.47648E+03-1.41779E+03-9.69354E+02
 -1        71 2.32771E+04 9.67167E+03 9.80177E+03 1.13234E+03-5.09547E+01-8.43611E+03
 -1        72 1.11237E+04-9.01866E+03-4.30333E+04-4.48170E+03 2.15504E+03 2.75265E+03
 -1        73 2.32153E+04 9.63631E+03 9.81417E+03 8.22093E+02-2.78258E+01-7.50039E+03
 -1        74 1.43010E+04-4.02595E+03-2.43734E+04-2.87105E+03 2.02145E+03 1.71694E+03
 -1        75 2.32074E+04 9.63202E+03 9.77741E+03 3.40187E+02-1.16245E+01-6.99078E+03
 -1        76 1.19483E+04-6.43755E+03-2.40308E+04-1.28468E+03 9.92973E+02 1.76248E+03
 -1        77 2.31936E+04 9.62703E+03 9.76629E+03 3.51091E-05-1.09990E-06-6.89555E+03
 -1        78 1.19469E+04-5.72057E+03-2.34797E+04-1.55759E-07-1.27786E-08 1.76478E+03
 -1        79 2.32074E+04 9.63202E+03 9.77741E+03-3.40187E+02 1.16245E+01-6.99078E+03
 -1        80 1.19483E+04-6.43755E+03-2.40308E+04 1.28468E+03-9.92973E+02 1.76248E+03
 -1        81 2.32153E+04 9.63631E+03 9.81417E+03-8.22093E+02 2.78257E+01-7.50039E+03
 -1        82 1.43010E+04-4.02595E+03-2.43734E+04 2.87105E+03-2.02145E+03 1.71694E+03
 -1        83 2.32771E+04 9.67167E+03 9.80177E+03-1.13234E+03 5.09547E+01-8.43611E+03
 -1        84 1.11237E+04-9.01866E+03-4.30333E+04 4.48170E+03-2.15504E+03 2.75265E+03
 -1        85 3.03353E+04 1.24663E+04 1.28623E+04-1.82157E+02 2.62869E+01-1.22155E+04
 -1        86 2.80166E+04-6.07189E+02-4.29166E+04-1.25306E+04 9.41687E+03 2.79469E+03
 -1        87 2.99606E+04 1.23127E+04 1.26397E+04-3.93770E+01 4.32544E+00-9.74285E+03
 -1        88 2.79565E+04 7.87682E+03-1.65394E+04-7.67233E+03 4.95861E+03 2.34112E+03
 -1        89 2.95922E+04 1.21798E+04 1.24671E+04 1.93610E+01-4.77124E+00-9.33554E+03
 -1        90 2.37685E+04 4.55623E+03-1.92253E+04-2.35735E+03 3.96381E+02 2.53811E+03
 -1        91 2.94779E+04 1.21347E+04 1.24143E+04 3.01835E-05-1.20858E-06-9.21533E+03
 -1        92 2.31011E+04 3.76196E+03-1.90547E+04-7.50671E-07-8.45159E-08 2.61420E+03
 -1        93 2.95922E+04 1.21798E+04 1.24671E+04-1.93610E+01 4.77124E+00-9.33554E+03
 -1        94 2.37685E+04 4.55623E+03-1.92253E+04 2.35735E+03-3.96381E+02 2.53811E+03
 -1        95 2.99606E+04 1.23127E+04 1.26397E+04 3.93771E+01-4.32544E+00-9.74285E+03
 -1        96 2.79565E+04 7.87682E+03-1.65394E+04 7.67233E+03-4.95861E+03 2.34112E+03
 -1        97 3.03353E+04 1.24663E+04 1.28623E+04 1.82157E+02-2.62869E+01-1.22155E+04
 -1        98 2.80166E+04-6.07189E+02-4.29166E+04 1.25306E+04-9.41687E+03 2.79469E+03
 -1        99 1.39299E+04-1.53777E+03-5.62531E+03 2.19596E+01 1.22787E+01 9.26882E+01
 -1       100 1.39299E+04-1.53777E+03-5.62531E+03-2.19597E+01-1.22788E+01 9.26884E+01
 -1       101 1.65156E+04-2.33815E+02-9.21544E+03-3.13381E+01 2.53847E+00 2.09997E+02
 -1       102 1.65156E+04-2.33815E+02-9.21544E+03 3.13382E+01-2.53846E+00 2.09997E+02
 -1       103 1.72696E+04-1.54812E+02-1.01363E+04-3.86825E+01 1.41244E+01 2.05605E+02
 -1       104 1.72696E+04-1.54812E+02-1.01363E+04 3.86825E+01-1.41244E+01 2.05605E+02
 -1       105 1.70695E+04 5.93476E+00-9.96762E+03-1.37535E+01 2.84193E+01 1.39380E+02
 -1       106 1.70695E+04 5.93475E+00-9.96762E+03 1.37535E+01-2.84193E+01 1.39380E+02
 -1       107 1.68099E+04-7.73050E+00-9.79191E+03-2.73584E+00 3.38119E+01 1.01149E+02
 -1       108 1.68099E+04-7.73050E+00-9.79191E+03 2.73585E+00-3.38119E+01 1.01149E+02
 -1       109 1.67322E+04-1.98638E+01-9.69817E+03 7.95762E-01 3.53427E+01 8.96167E+01
 -1       110 1.67322E+04-1.98638E+01-9.69817E+03-7.95751E-01-3.53427E+01 8.96167E+01
 -1       111 1.67480E+04-2.75781E+01-9.66686E+03 1.51392E+00 3.51561E+01 8.78325E+01
 -1       112 1.67480E+04-2.75781E+01-9.66686E+03-1.51391E+00-3.51561E+01 8.78325E+01
 -1       113 1.67950E+04-2.99547E+01-9.66026E+03 1.31389E+00 3.48735E+01 8.82721E+01
 -1       114 1.67950E+04-2.99547E+01-9.66026E+03-1.31388E+00-3.48735E+01 8.82721E+01
 -1       115 1.68481E+04-3.06638E+01-9.66105E+03 1.13718E+00 3.46735E+01 8.88642E+01
 -1       116 1.68481E+04-3.06638E+01-9.66105E+03-1.13717E+00-3.46735E+01 8.88642E+01
 -1       117 1.69013E+04-3.06185E+01-9.66275E+03 1.05498E+00 3.45551E+01 8.91324E+01
 -1       118 1.69013E+04-3.06185E+01-9.66275E+03-1.05496E+00-3.45551E+01 8.91324E+01
 -1       119 1.69546E+04-3.04294E+01-9.66470E+03 1.08268E+00 3.44633E+01 8.90624E+01
 -1       120 1.69546E+04-3.04294E+01-9.66470E+03-1.08266E+00-3.44633E+01 8.90624E+01
 -1       121 1.70095E+04-3.04484E+01-9.66727E+03 1.26747E+00 3.43170E+01 8.85787E+01
 -1       122 1.70095E+04-3.04484E+01-9.66727E+03-1.26746E+00-3.43170E+01 8.85787E+01
 -1       123 1.70645E+04-3.18005E+01-9.66822E+03 1.53911E+00 3.40638E+01 8.74531E+01
 -1       124 1.70645E+04-3.18005E+01-9.66822E+03-1.53910E+00-3.40638E+01 8.74531E+01
 -1       125 1.71091E+04-3.53578E+01-9.65396E+03 2.04782E+00 3.36498E+01 8.66582E+01
 -1       126 1.71091E+04-3.53578E+01-9.65396E+03-2.04781E+00-3.36498E+01 8.66582E+01
 -1       127 1.70889E+04-5.19006E+01-9.59693E+03-3.08040E-01 3.35917E+01 8.81450E+01
 -1       128 1.70889E+04-5.19006E+01-9.59693E+03 3.08048E-01-3.35917E+01 8.81450E+01
 -1       129 1.68799E+04-7.33457E+01-9.41540E+03-7.21659E+00 3.75410E+01 1.10304E+02
 -1       130 1.68799E+04-7.33457E+01-9.41540E+03 7.21660E+00-3.75410E+01 1.10304E+02
 -1       131 1.63529E+04-8.37959E+01-9.13894E+03-1.84503E+01 4.77172E+01 1.91065E+02
 -1       132 1.63529E+04-8.37959E+01-9.13894E+03 1.84503E+01-4.77172E+01 1.91065E+02
 -1       133 1.63236E+04 3.11523E+02-8.77740E+03-1.80137E+02 7.39074E+01 1.50258E+02
 -1       134 1.63236E+04 3.11523E+02-8.77740E+03 1.80137E+02-7.39074E+01 1.50258E+02
 -1       135 2.42391E+04 2.53011E+03-1.02855E+04 1.22105E+03 1.41274E+02 1.13877E+03
 -1       136 2.42391E+04 2.53011E+03-1.02855E+04-1.22105E+03-1.41274E+02 1.13877E+03
 -1       137 1.39454E+04-1.59144E+03-5.90429E+03 2.44431E+01 4.53674E+01-7.85570E+02
 -1       138 1.39454E+04-1.59144E+03-5.90429E+03-2.44431E+01-4.53674E+01-7.85570E+02
 -1       139 1.64681E+04-2.63485E+02-9.42267E+03-2.87739E+01 4.78972E+01-5.45817E+01
 -1       140 1.64681E+04-2.63485E+02-9.42267E+03 2.87739E+01-4.78972E+01-5.45817E+01
 -1       141 1.71773E+04-1.85120E+02-1.02315E+04-3.68898E+01 5.61403E+01 2.40737E+02
 -1       142 1.71773E+04-1.85120E+02-1.02315E+04 3.68898E+01-5.61403E+01 2.40737E+02
 -1       143 1.69777E+04-3.14597E+01-1.00561E+04-1.28254E+01 6.00063E+01 2.02776E+02
 -1       144 1.69777E+04-3.14597E+01-1.00561E+04 1.28255E+01-6.00063E+01 2.02776E+02
 -1       145 1.67420E+04-4.93093E+01-9.89310E+03-1.83054E+00 6.19058E+01 1.28278E+02
 -1       146 1.67420E+04-4.93093E+01-9.89310E+03 1.83056E+00-6.19058E+01 1.28278E+02
 -1       147 1.66811E+04-6.00260E+01-9.80486E+03 1.18358E+00 6.20991E+01 9.23635E+01
 -1       148 1.66811E+04-6.00260E+01-9.80486E+03-1.18357E+00-6.20991E+01 9.23635E+01
 -1       149 1.67020E+04-6.65720E+01-9.77460E+03 1.74478E+00 6.19330E+01 8.08496E+01
 -1       150 1.67020E+04-6.65720E+01-9.77460E+03-1.74477E+00-6.19330E+01 8.08496E+01
 -1       151 1.67498E+04-6.86440E+01-9.76838E+03 1.51922E+00 6.18224E+01 7.88144E+01
 -1       152 1.67498E+04-6.86440E+01-9.76838E+03-1.51921E+00-6.18224E+01 7.88144E+01
 -1       153 1.68029E+04-6.91842E+01-9.76905E+03 1.35204E+00 6.17517E+01 7.92321E+01
 -1       154 1.68029E+04-6.91842E+01-9.76905E+03-1.35203E+00-6.17517E+01 7.92321E+01
 -1       155 1.68558E+04-6.90850E+01-9.77059E+03 1.27508E+00 6.17143E+01 7.96235E+01
 -1       156 1.68558E+04-6.90850E+01-9.77059E+03-1.27507E+00-6.17143E+01 7.96235E+01
 -1       157 1.69088E+04-6.88562E+01-9.77237E+03 1.30589E+00 6.16899E+01 7.93858E+01
 -1       158 1.69088E+04-6.88562E+01-9.77237E+03-1.30588E+00-6.16899E+01 7.93858E+01
 -1       159 1.69632E+04-6.88834E+01-9.77480E+03 1.45789E+00 6.16327E+01 7.84715E+01
 -1       160 1.69632E+04-6.88834E+01-9.77480E+03-1.45788E+00-6.16327E+01 7.84715E+01
 -1       161 1.70180E+04-6.98526E+01-9.77554E+03 1.76967E+00 6.15928E+01 7.78104E+01
 -1       162 1.70180E+04-6.98526E+01-9.77554E+03-1.76966E+00-6.15928E+01 7.78104E+01
 -1       163 1.70623E+04-7.42144E+01-9.76317E+03 2.15273E+00 6.11635E+01 8.17464E+01
 -1       164 1.70623E+04-7.42144E+01-9.76317E+03-2.15272E+00-6.11635E+01 8.17464E+01
 -1       165 1.70559E+04-8.33270E+01-9.70316E+03 4.68525E-01 6.19058E+01 1.02748E+02
 -1       166 1.70559E+04-8.33270E+01-9.70316E+03-4.68517E-01-6.19058E+01 1.02748E+02
 -1       167 1.68678E+04-1.24779E+02-9.55652E+03-3.98019E+00 5.82909E+01 1.70678E+02
 -1       168 1.68678E+04-1.24779E+02-9.55652E+03 3.98019E+00-5.82909E+01 1.70678E+02
 -1       169 1.63567E+04-8.42050E+01-9.22908E+03-3.50646E+01 8.04292E+01 3.00868E+02
 -1       170 1.63567E+04-8.42050E+01-9.22908E+03 3.50646E+01-8.04292E+01 3.00869E+02
 -1       171 1.67014E+04 2.24095E+02-8.97856E+03-3.71192E+01 1.96207E+01 1.65678E+02
 -1       172 1.67014E+04 2.24095E+02-8.97856E+03 3.71192E+01-1.96207E+01 1.65678E+02
 -1       173 1.96916E+04 1.14521E+03-1.08999E+04 1.76664E+02 2.78838E+02-1.84389E+02
 -1       174 1.96916E+04 1.14521E+03-1.08999E+04-1.76664E+02-2.78838E+02-1.84389E+02
 -1       175 1.38539E+04-1.77093E+03-6.84435E+03 3.68459E+01 1.08179E+02-1.58064E+03
 -1       176 1.38539E+04-1.77093E+03-6.84435E+03-3.68459E+01-1.08179E+02-1.58064E+03
 -1       177 1.62975E+04-3.63971E+02-1.00744E+04-2.50647E+01 1.25759E+02-1.19905E+02
 -1       178 1.62975E+04-3.63971E+02-1.00744E+04 2.50647E+01-1.25759E+02-1.19905E+02
 -1       179 1.68946E+04-2.61525E+02-1.05600E+04-3.49419E+01 1.43671E+02 3.77971E+02
 -1       180 1.68946E+04-2.61525E+02-1.05600E+04 3.49419E+01-1.43671E+02 3.77971E+02
 -1       181 1.66909E+04-1.41950E+02-1.03847E+04-1.02572E+01 1.52772E+02 2.79266E+02
 -1       182 1.66909E+04-1.41950E+02-1.03847E+04 1.02572E+01-1.52772E+02 2.79266E+02
 -1       183 1.65274E+04-1.69642E+02-1.02611E+04-3.49562E-01 1.56166E+02 1.46943E+02
 -1       184 1.65274E+04-1.69642E+02-1.02611E+04 3.49574E-01-1.56166E+02 1.46943E+02
 -1       185 1.65112E+04-1.76133E+02-1.01860E+04 1.59768E+00 1.56352E+02 8.46397E+01
 -1       186 1.65112E+04-1.76133E+02-1.01860E+04-1.59766E+00-1.56352E+02 8.46397E+01
 -1       187 1.65457E+04-1.80243E+02-1.01596E+04 1.73456E+00 1.56129E+02 6.46790E+01
 -1       188 1.65457E+04-1.80243E+02-1.01596E+04-1.73455E+00-1.56129E+02 6.46790E+01
 -1       189 1.65957E+04-1.81543E+02-1.01545E+04 1.45488E+00 1.55970E+02 6.14725E+01
 -1       190 1.65957E+04-1.81543E+02-1.01545E+04-1.45487E+00-1.55970E+02 6.14725E+01
 -1       191 1.66482E+04-1.81823E+02-1.01549E+04 1.29111E+00 1.55883E+02 6.22909E+01
 -1       192 1.66482E+04-1.81823E+02-1.01549E+04-1.29109E+00-1.55883E+02 6.22909E+01
 -1       193 1.67003E+04-1.81711E+02-1.01561E+04 1.22412E+00 1.55857E+02 6.30013E+01
 -1       194 1.67003E+04-1.81711E+02-1.01561E+04-1.22411E+00-1.55857E+02 6.30013E+01
 -1       195 1.67523E+04-1.81544E+02-1.01575E+04 1.24613E+00 1.55839E+02 6.25541E+01
 -1       196 1.67523E+04-1.81544E+02-1.01575E+04-1.24612E+00-1.55839E+02 6.25541E+01
 -1       197 1.68055E+04-1.81446E+02-1.01594E+04 1.37749E+00 1.55792E+02 6.08675E+01
 -1       198 1.68055E+04-1.81446E+02-1.01594E+04-1.37748E+00-1.55792E+02 6.08675E+01
 -1       199 1.68594E+04-1.82288E+02-1.01602E+04 1.68000E+00 1.55606E+02 5.95372E+01
 -1       200 1.68594E+04-1.82288E+02-1.01602E+04-1.67999E+00-1.55606E+02 5.95372E+01
 -1       201 1.69078E+04-1.84287E+02-1.01492E+04 2.10592E+00 1.55421E+02 6.62940E+01
 -1       202 1.69078E+04-1.84287E+02-1.01492E+04-2.10591E+00-1.55421E+02 6.62940E+01
 -1       203 1.69315E+04-1.90587E+02-1.00956E+04 2.01670E+00 1.54624E+02 1.04033E+02
 -1       204 1.69315E+04-1.90587E+02-1.00956E+04-2.01669E+00-1.54624E+02 1.04033E+02
 -1       205 1.68177E+04-2.20234E+02-9.98332E+03-4.03027E+00 1.55716E+02 2.24072E+02
 -1       206 1.68177E+04-2.20234E+02-9.98332E+03 4.03028E+00-1.55716E+02 2.24072E+02
 -1       207 1.64703E+04-2.20840E+02-9.70616E+03-1.85227E+01 1.66208E+02 4.53381E+02
 -1       208 1.64703E+04-2.20840E+02-9.70616E+03 1.85227E+01-1.66208E+02 4.53381E+02
 -1       209 1.61813E+04-9.23032E+01-9.60798E+03-9.46646E+01 1.57019E+02 4.21663E+02
 -1       210 1.61813E+04-9.23032E+01-9.60798E+03 9.46646E+01-1.57019E+02 4.21663E+02
 -1       211 1.90990E+04 1.18547E+03-9.72917E+03 2.11455E+02 3.16881E+02-1.03474E+03
 -1       212 1.90990E+04 1.18547E+03-9.72917E+03-2.11455E+02-3.16881E+02-1.03474E+03
 -1       213 1.35485E+04-2.17249E+03-8.77186E+03 6.76188E+01 2.34415E+02-2.28974E+03
 -1       214 1.35485E+04-2.17249E+03-8.77186E+03-6.76188E+01-2.34415E+02-2.28974E+03
 -1       215 1.58939E+04-5.77927E+02-1.12895E+04-1.91559E+01 2.61506E+02-5.67454E+01
 -1       216 1.58939E+04-5.77927E+02-1.12895E+04 1.91559E+01-2.61506E+02-5.67454E+01
 -1       217 1.62907E+04-4.61801E+02-1.13197E+04-3.13584E+01 2.96332E+02 4.74302E+02
 -1       218 1.62907E+04-4.61801E+02-1.13197E+04 3.13584E+01-2.96332E+02 4.74302E+02
 -1       219 1.61176E+04-4.11462E+02-1.12047E+04-5.44090E+00 3.11087E+02 3.03777E+02
 -1       220 1.61176E+04-4.11462E+02-1.12047E+04 5.44091E+00-3.11087E+02 3.03777E+02
 -1       221 1.60854E+04-4.44513E+02-1.11309E+04 2.10221E+00 3.14773E+02 1.46637E+02
 -1       222 1.60854E+04-4.44513E+02-1.11309E+04-2.10219E+00-3.14773E+02 1.46637E+02
 -1       223 1.61328E+04-4.42904E+02-1.10691E+04 2.08602E+00 3.14411E+02 7.09016E+01
 -1       224 1.61328E+04-4.42904E+02-1.10691E+04-2.08601E+00-3.14411E+02 7.09016E+01
 -1       225 1.61844E+04-4.44526E+02-1.10502E+04 1.77077E+00 3.14180E+02 4.79576E+01
 -1       226 1.61844E+04-4.44526E+02-1.10502E+04-1.77075E+00-3.14180E+02 4.79576E+01
 -1       227 1.62374E+04-4.44504E+02-1.10458E+04 1.38592E+00 3.13881E+02 4.44887E+01
 -1       228 1.62374E+04-4.44504E+02-1.10458E+04-1.38591E+00-3.13881E+02 4.44887E+01
 -1       229 1.62888E+04-4.44510E+02-1.10460E+04 1.23899E+00 3.13777E+02 4.56653E+01
 -1       230 1.62888E+04-4.44510E+02-1.10460E+04-1.23897E+00-3.13777E+02 4.56653E+01
 -1       231 1.63396E+04-4.44436E+02-1.10468E+04 1.18870E+00 3.13747E+02 4.65580E+01
 -1       232 1.63396E+04-4.44436E+02-1.10468E+04-1.18869E+00-3.13747E+02 4.65580E+01
 -1       233 1.63902E+04-4.44351E+02-1.10478E+04 1.19743E+00 3.13732E+02 4.60130E+01
 -1       234 1.63902E+04-4.44351E+02-1.10478E+04-1.19742E+00-3.13732E+02 4.60130E+01
 -1       235 1.64413E+04-4.44301E+02-1.10491E+04 1.29282E+00 3.13673E+02 4.38808E+01
 -1       236 1.64413E+04-4.44301E+02-1.10491E+04-1.29281E+00-3.13673E+02 4.38808E+01
 -1       237 1.64936E+04-4.44330E+02-1.10493E+04 1.54992E+00 3.13426E+02 4.20392E+01
 -1       238 1.64936E+04-4.44330E+02-1.10493E+04-1.54991E+00-3.13426E+02 4.20392E+01
 -1       239 1.65481E+04-4.44661E+02-1.10409E+04 2.25045E+00 3.13056E+02 4.93417E+01
 -1       240 1.65481E+04-4.44661E+02-1.10409E+04-2.25044E+00-3.13056E+02 4.93417E+01
 -1       241 1.66038E+04-4.44596E+02-1.10000E+04 2.88717E+00 3.12230E+02 9.52271E+01
 -1       242 1.66038E+04-4.44596E+02-1.10000E+04-2.88716E+00-3.12230E+02 9.52271E+01
 -1       243 1.66401E+04-4.52289E+02-1.09003E+04 2.31255E+00 3.12094E+02 2.32843E+02
 -1       244 1.66401E+04-4.52289E+02-1.09003E+04-2.31254E+00-3.12094E+02 2.32843E+02
 -1       245 1.64031E+04-5.41791E+02-1.08392E+04-1.75700E+01 3.21571E+02 5.35689E+02
 -1       246 1.64031E+04-5.41791E+02-1.08392E+04 1.75700E+01-3.21571E+02 5.35689E+02
 -1       247 1.59452E+04-4.28735E+02-1.04221E+04-8.93288E+01 3.38918E+02 5.91463E+02
 -1       248 1.59452E+04-4.28735E+02-1.04221E+04 8.93288E+01-3.38918E+02 5.91463E+02
 -1       249 1.89652E+04 1.06042E+03-9.48575E+03 1.96118E+02 4.82091E+02-7.97184E+02
 -1       250 1.89652E+04 1.06042E+03-9.48575E+03-1.96118E+02-4.82091E+02-7.97184E+02
 -1       251 1.26869E+04-3.12676E+03-1.25693E+04 1.27847E+02 4.74166E+02-2.73394E+03
 -1       252 1.26869E+04-3.12676E+03-1.25693E+04-1.27847E+02-4.74166E+02-2.73394E+03
 -1       253 1.50318E+04-9.88322E+02-1.32701E+04-1.90609E+01 4.90174E+02 1.70576E+02
 -1       254 1.50318E+04-9.88322E+02-1.32701E+04 1.90610E+01-4.90174E+02 1.70576E+02
 -1       255 1.50794E+04-9.97276E+02-1.29974E+04-2.49989E+01 5.50400E+02 4.29708E+02
 -1       256 1.50794E+04-9.97276E+02-1.29974E+04 2.49989E+01-5.50400E+02 4.29708E+02
 -1       257 1.50681E+04-1.04185E+03-1.30545E+04 3.89055E+00 5.71637E+02 2.75288E+02
 -1       258 1.50681E+04-1.04185E+03-1.30545E+04-3.89054E+00-5.71637E+02 2.75288E+02
 -1       259 1.52328E+04-1.05262E+03-1.29819E+04 4.48665E+00 5.71643E+02 1.19142E+02
 -1       260 1.52328E+04-1.05262E+03-1.29819E+04-4.48664E+00-5.71643E+02 1.19142E+02
 -1       261 1.53384E+04-1.04613E+03-1.29446E+04 2.65009E+00 5.71781E+02 5.16667E+01
 -1       262 1.53384E+04-1.04613E+03-1.29446E+04-2.65008E+00-5.71781E+02 5.16667E+01
 -1       263 1.54096E+04-1.04419E+03-1.29305E+04 1.72463E+00 5.71103E+02 3.09499E+01
 -1       264 1.54096E+04-1.04419E+03-1.29305E+04-1.72462E+00-5.71103E+02 3.09499E+01
 -1       265 1.54637E+04-1.04266E+03-1.29269E+04 1.25453E+00 5.70747E+02 2.83122E+01
 -1       266 1.54637E+04-1.04266E+03-1.29269E+04-1.25452E+00-5.70747E+02 2.83122E+01
 -1       267 1.55134E+04-1.04250E+03-1.29268E+04 1.15053E+00 5.70616E+02 2.95521E+01
 -1       268 1.55134E+04-1.04250E+03-1.29268E+04-1.15052E+00-5.70616E+02 2.95521E+01
 -1       269 1.55625E+04-1.04248E+03-1.29272E+04 1.12782E+00 5.70583E+02 3.04259E+01
 -1       270 1.55625E+04-1.04248E+03-1.29272E+04-1.12781E+00-5.70583E+02 3.04259E+01
 -1       271 1.56115E+04-1.04253E+03-1.29276E+04 1.12057E+00 5.70573E+02 2.99118E+01
 -1       272 1.56115E+04-1.04253E+03-1.29276E+04-1.12056E+00-5.70573E+02 2.99118E+01
 -1       273 1.56600E+04-1.04253E+03-1.29283E+04 1.14987E+00 5.70502E+02 2.78919E+01
 -1       274 1.56600E+04-1.04253E+03-1.29283E+04-1.14986E+00-5.70502E+02 2.78919E+01
 -1       275 1.57092E+04-1.04204E+03-1.29281E+04 1.34729E+00 5.70262E+02 2.57668E+01
 -1       276 1.57092E+04-1.04204E+03-1.29281E+04-1.34728E+00-5.70262E+02 2.57668E+01
 -1       277 1.57683E+04-1.03937E+03-1.29209E+04 2.24783E+00 5.69481E+02 3.22989E+01
 -1       278 1.57683E+04-1.03937E+03-1.29209E+04-2.24782E+00-5.69481E+02 3.22989E+01
 -1       279 1.58566E+04-1.03525E+03-1.28948E+04 3.89885E+00 5.69166E+02 7.13312E+01
 -1       280 1.58566E+04-1.03525E+03-1.28948E+04-3.89884E+00-5.69166E+02 7.13312E+01
 -1       281 1.60288E+04-1.01912E+03-1.28138E+04 8.55882E+00 5.66620E+02 2.04721E+02
 -1       282 1.60288E+04-1.01912E+03-1.28138E+04-8.55882E+00-5.66620E+02 2.04721E+02
 -1       283 1.61091E+04-1.12457E+03-1.28370E+04-4.49060E+00 5.70680E+02 4.62760E+02
 -1       284 1.61091E+04-1.12457E+03-1.28370E+04 4.49061E+00-5.70680E+02 4.62760E+02
 -1       285 1.56666E+04-1.16940E+03-1.26686E+04-8.96188E+01 6.25161E+02 7.32362E+02
 -1       286 1.56666E+04-1.16940E+03-1.26686E+04 8.96188E+01-6.25161E+02 7.32362E+02
 -1       287 1.95557E+04 7.61116E+02-9.60038E+03 2.86381E+02 7.06330E+02-5.39527E+02
 -1       288 1.95557E+04 7.61116E+02-9.60038E+03-2.86381E+02-7.06330E+02-5.39527E+02
 -1       289 1.05460E+04-5.38802E+03-1.98538E+04 2.84236E+02 4.79547E+02-1.70049E+03
 -1       290 1.05460E+04-5.38802E+03-1.98538E+04-2.84236E+02-4.79547E+02-1.70049E+03
 -1       291 1.32631E+04-1.85390E+03-1.60320E+04-9.38629E+01 4.04825E+02-1.11743E+01
 -1       292 1.32631E+04-1.85390E+03-1.60320E+04 9.38629E+01-4.04825E+02-1.11743E+01
 -1       293 1.26272E+04-2.53863E+03-1.68485E+04 1.11729E+01 5.55124E+02 2.72655E+02
 -1       294 1.26272E+04-2.53863E+03-1.68485E+04-1.11729E+01-5.55124E+02 2.72655E+02
 -1       295 1.32435E+04-2.50588E+03-1.67308E+04 1.24873E+01 5.51587E+02 1.60978E+02
 -1       296 1.32435E+04-2.50588E+03-1.67308E+04-1.24873E+01-5.51587E+02 1.60978E+02
 -1       297 1.35377E+04-2.50059E+03-1.67046E+04 7.75390E+00 5.56781E+02 6.95799E+01
 -1       298 1.35377E+04-2.50059E+03-1.67046E+04-7.75389E+00-5.56781E+02 6.95799E+01
 -1       299 1.37070E+04-2.49111E+03-1.66755E+04 3.09914E+00 5.55697E+02 2.79161E+01
 -1       300 1.37070E+04-2.49111E+03-1.66755E+04-3.09912E+00-5.55697E+02 2.79161E+01
 -1       301 1.37882E+04-2.48361E+03-1.66647E+04 1.52498E+00 5.54917E+02 1.51945E+01
 -1       302 1.37882E+04-2.48361E+03-1.66647E+04-1.52497E+00-5.54917E+02 1.51945E+01
 -1       303 1.38406E+04-2.48169E+03-1.66616E+04 1.01266E+00 5.54501E+02 1.34666E+01
 -1       304 1.38406E+04-2.48169E+03-1.66616E+04-1.01265E+00-5.54501E+02 1.34666E+01
 -1       305 1.38875E+04-2.48125E+03-1.66611E+04 9.97272E-01 5.54351E+02 1.41856E+01
 -1       306 1.38875E+04-2.48125E+03-1.66611E+04-9.97261E-01-5.54351E+02 1.41856E+01
 -1       307 1.39350E+04-2.48137E+03-1.66611E+04 1.01442E+00 5.54326E+02 1.47025E+01
 -1       308 1.39350E+04-2.48137E+03-1.66611E+04-1.01441E+00-5.54326E+02 1.47025E+01
 -1       309 1.39825E+04-2.48161E+03-1.66612E+04 9.90240E-01 5.54325E+02 1.43934E+01
 -1       310 1.39825E+04-2.48161E+03-1.66612E+04-9.90230E-01-5.54325E+02 1.43934E+01
 -1       311 1.40283E+04-2.48163E+03-1.66614E+04 9.14347E-01 5.54265E+02 1.31662E+01
 -1       312 1.40283E+04-2.48163E+03-1.66614E+04-9.14338E-01-5.54265E+02 1.31662E+01
 -1       313 1.40728E+04-2.48124E+03-1.66606E+04 1.00695E+00 5.53949E+02 1.20333E+01
 -1       314 1.40728E+04-2.48124E+03-1.66606E+04-1.00694E+00-5.53949E+02 1.20333E+01
 -1       315 1.41287E+04-2.47566E+03-1.66552E+04 1.89303E+00 5.53367E+02 1.59192E+01
 -1       316 1.41287E+04-2.47566E+03-1.66552E+04-1.89302E+00-5.53367E+02 1.59192E+01
 -1       317 1.42497E+04-2.46493E+03-1.66294E+04 5.66542E+00 5.50962E+02 4.12755E+01
 -1       318 1.42497E+04-2.46493E+03-1.66294E+04-5.66541E+00-5.50962E+02 4.12755E+01
 -1       319 1.44793E+04-2.45281E+03-1.66142E+04 1.08208E+01 5.56138E+02 1.18283E+02
 -1       320 1.44793E+04-2.45281E+03-1.66142E+04-1.08208E+01-5.56138E+02 1.18283E+02
 -1       321 1.50778E+04-2.41824E+03-1.64174E+04 3.88274E+01 5.28546E+02 2.92233E+02
 -1       322 1.50778E+04-2.41824E+03-1.64174E+04-3.88274E+01-5.28546E+02 2.92233E+02
 -1       323 1.50709E+04-2.81280E+03-1.72289E+04-1.35335E+02 6.69976E+02 4.54635E+02
 -1       324 1.50709E+04-2.81280E+03-1.72289E+04 1.35335E+02-6.69976E+02 4.54635E+02
 -1       325 2.10532E+04 7.72000E+01-1.08429E+04 4.77167E+02 5.77232E+02-1.08273E+03
 -1       326 2.10532E+04 7.72000E+01-1.08429E+04-4.77167E+02-5.77232E+02-1.08273E+03
 -1       327 1.09295E+04-2.88720E+03-2.26635E+04-5.33534E+02 3.19161E+03-1.33003E+03
 -1       328 1.09295E+04-2.88720E+03-2.26635E+04 5.33534E+02-3.19161E+03-1.33003E+03
 -1       329 1.13748E+04 7.22637E+02-1.67538E+04 1.20467E+01 2.32110E+03-1.27591E+02
 -1       330 1.13748E+04 7.22637E+02-1.67538E+04-1.20467E+01-2.32110E+03-1.27591E+02
 -1       331 1.24104E+04-3.96749E+02-1.80622E+04 7.82356E+01 2.70858E+03 1.03123E+02
 -1       332 1.24104E+04-3.96749E+02-1.80622E+04-7.82356E+01-2.70858E+03 1.03123E+02
 -1       333 1.35294E+04-7.24069E+01-1.76073E+04 3.78250E+01 2.62019E+03 7.79764E+01
 -1       334 1.35294E+04-7.24069E+01-1.76073E+04-3.78249E+01-2.62019E+03 7.79764E+01
 -1       335 1.39383E+04-1.23246E+02-1.76362E+04 1.47668E+01 2.64826E+03 3.24463E+01
 -1       336 1.39383E+04-1.23246E+02-1.76362E+04-1.47668E+01-2.64826E+03 3.24463E+01
 -1       337 1.41411E+04-8.97328E+01-1.75927E+04 3.36238E+00 2.64174E+03 1.38922E+01
 -1       338 1.41411E+04-8.97328E+01-1.75927E+04-3.36236E+00-2.64174E+03 1.38922E+01
 -1       339 1.42138E+04-8.67709E+01-1.75899E+04 6.06938E-01 2.64276E+03 6.75074E+00
 -1       340 1.42138E+04-8.67709E+01-1.75899E+04-6.06926E-01-2.64276E+03 6.75074E+00
 -1       341 1.42595E+04-8.41062E+01-1.75874E+04 2.91596E-01 2.64200E+03 5.68494E+00
 -1       342 1.42595E+04-8.41062E+01-1.75874E+04-2.91584E-01-2.64200E+03 5.68494E+00
 -1       343 1.43027E+04-8.43612E+01-1.75878E+04 5.55802E-01 2.64190E+03 5.83929E+00
 -1       344 1.43027E+04-8.43612E+01-1.75878E+04-5.55791E-01-2.64190E+03 5.83930E+00
 -1       345 1.43491E+04-8.46434E+01-1.75878E+04 7.03772E-01 2.64179E+03 6.04995E+00
 -1       346 1.43491E+04-8.46434E+01-1.75878E+04-7.03762E-01-2.64179E+03 6.04995E+00
 -1       347 1.43959E+04-8.50318E+01-1.75878E+04 6.20633E-01 2.64170E+03 5.89787E+00
 -1       348 1.43959E+04-8.50318E+01-1.75878E+04-6.20623E-01-2.64170E+03 5.89787E+00
 -1       349 1.44392E+04-8.55981E+01-1.75884E+04 3.07104E-01 2.64166E+03 5.41096E+00
 -1       350 1.44392E+04-8.55981E+01-1.75884E+04-3.07095E-01-2.64166E+03 5.41096E+00
 -1       351 1.44771E+04-8.50776E+01-1.75880E+04-2.08746E-01 2.64096E+03 5.11721E+00
 -1       352 1.44771E+04-8.50776E+01-1.75880E+04 2.08754E-01-2.64096E+03 5.11721E+00
 -1       353 1.45197E+04-8.29730E+01-1.75887E+04 8.51769E-01 2.64194E+03 7.70603E+00
 -1       354 1.45197E+04-8.29730E+01-1.75887E+04-8.51762E-01-2.64194E+03 7.70603E+00
 -1       355 1.46352E+04-6.12049E+01-1.75584E+04 5.95106E+00 2.63467E+03 2.02525E+01
 -1       356 1.46352E+04-6.12049E+01-1.75584E+04-5.95105E+00-2.63467E+03 2.02525E+01
 -1       357 1.49123E+04-7.26039E+01-1.75905E+04 2.69222E+01 2.66166E+03 6.14224E+01
 -1       358 1.49123E+04-7.26039E+01-1.75905E+04-2.69222E+01-2.66166E+03 6.14224E+01
 -1       359 1.57176E+04 5.39454E+01-1.72169E+04 9.34101E+01 2.55954E+03 1.27538E+02
 -1       360 1.57176E+04 5.39454E+01-1.72169E+04-9.34101E+01-2.55954E+03 1.27538E+02
 -1       361 1.70514E+04-1.44710E+02-1.82787E+04 1.33931E+01 2.95708E+03 3.08082E+02
 -1       362 1.70514E+04-1.44710E+02-1.82787E+04-1.33931E+01-2.95708E+03 3.08082E+02
 -1       363 3.14284E+04 3.95984E+03-7.93865E+03 5.38562E+02 1.72702E+03-3.29235E+03
 -1       364 3.14284E+04 3.95984E+03-7.93865E+03-5.38562E+02-1.72702E+03-3.29235E+03
 -1       365 1.42612E+04-1.19158E+03-5.32353E+03 5.87050E+01 2.54031E+01 9.57638E+01
 -1       366 1.70614E+04 2.91031E+03-9.05236E+03-4.15782E+02 1.60127E+03-4.02761E+02
 -1       367 1.68016E+04-3.31187E+02-9.04167E+03-4.59432E+01 2.08259E+01 2.06374E+02
 -1       368 1.60673E+04 4.94524E+03-5.99932E+03-2.65430E+00 1.28545E+03-2.70904E+02
 -1       369 1.71422E+04-1.92485E+02-1.01083E+04-1.87966E+01 2.94362E+01 1.99240E+02
 -1       370 1.73480E+04 4.40795E+03-6.73760E+03 6.18171E+01 1.37270E+03 4.16891E+01
 -1       371 1.69921E+04-7.17776E+01-1.00007E+04-5.22468E+00 3.84727E+01 1.36592E+02
 -1       372 1.84878E+04 4.58725E+03-6.45343E+03 3.17609E+01 1.35236E+03 5.13726E+01
 -1       373 1.67656E+04-7.60817E+01-9.83679E+03-2.59325E+00 4.22206E+01 1.00209E+02
 -1       374 1.89194E+04 4.56788E+03-6.43962E+03 8.28048E+00 1.35373E+03 2.57077E+01
 -1       375 1.66958E+04-8.93119E+01-9.74791E+03-3.98982E-01 4.30423E+01 8.97329E+01
 -1       376 1.91061E+04 4.58639E+03-6.40910E+03 8.23267E-01 1.35329E+03 1.39995E+01
 -1       377 1.67132E+04-9.57999E+01-9.71585E+03 3.78845E-01 4.28989E+01 8.81247E+01
 -1       378 1.91730E+04 4.58952E+03-6.40434E+03-6.57863E-01 1.35337E+03 7.74636E+00
 -1       379 1.67600E+04-9.81405E+01-9.70848E+03 4.43986E-01 4.27056E+01 8.85614E+01
 -1       380 1.92161E+04 4.59079E+03-6.40319E+03-5.65180E-01 1.35335E+03 6.45768E+00
 -1       381 1.68129E+04-9.87997E+01-9.70877E+03 3.87100E-01 4.25490E+01 8.91235E+01
 -1       382 1.92589E+04 4.59050E+03-6.40369E+03-2.92968E-01 1.35332E+03 6.29249E+00
 -1       383 1.68659E+04-9.87886E+01-9.71025E+03 3.50521E-01 4.24577E+01 8.93709E+01
 -1       384 1.93054E+04 4.59014E+03-6.40402E+03-1.62699E-01 1.35329E+03 6.37213E+00
 -1       385 1.69190E+04-9.86301E+01-9.71204E+03 3.67630E-01 4.23865E+01 8.93095E+01
 -1       386 1.93525E+04 4.58973E+03-6.40436E+03-2.19995E-01 1.35325E+03 6.26456E+00
 -1       387 1.69736E+04-9.86862E+01-9.71429E+03 4.59420E-01 4.22722E+01 8.88393E+01
 -1       388 1.93959E+04 4.58919E+03-6.40510E+03-4.88251E-01 1.35324E+03 6.08012E+00
 -1       389 1.70285E+04-9.97716E+01-9.71420E+03 5.46748E-01 4.21369E+01 8.78030E+01
 -1       390 1.94330E+04 4.58929E+03-6.40559E+03-9.70229E-01 1.35311E+03 6.24282E+00
 -1       391 1.70718E+04-1.03744E+02-9.69950E+03 3.81836E-01 4.16706E+01 8.69000E+01
 -1       392 1.94707E+04 4.59024E+03-6.40508E+03-1.00104E+00 1.35359E+03 9.42531E+00
 -1       393 1.70561E+04-1.15299E+02-9.63889E+03-1.72902E+00 4.25036E+01 8.78788E+01
 -1       394 1.95698E+04 4.60668E+03-6.38550E+03 1.77406E+00 1.35154E+03 1.96651E+01
 -1       395 1.68641E+04-1.46889E+02-9.47758E+03-4.26720E+00 4.12355E+01 1.10574E+02
 -1       396 1.98488E+04 4.59390E+03-6.37714E+03 1.76138E+01 1.36272E+03 4.28035E+01
 -1       397 1.64314E+04-1.15684E+02-9.18128E+03 2.36931E-01 6.31791E+01 1.66808E+02
 -1       398 2.05849E+04 4.66623E+03-6.19481E+03 8.46195E+01 1.30373E+03 1.13041E+02
 -1       399 1.66231E+04 1.82859E+02-9.00833E+03-9.72528E+01 3.11385E+01 2.65324E+02
 -1       400 2.31027E+04 4.76067E+03-6.19811E+03 3.14733E+01 1.53562E+03-1.65267E+02
 -1       401 1.91577E+04 1.38050E+03-1.18773E+04 2.26378E+02 1.74194E+02 4.15893E+02
 -1       402 2.90356E+04 6.43840E+03-2.84745E+03-3.31670E+02 5.72856E+02-7.75541E+02
 -1       403 1.45032E+04-7.85324E+02-4.94292E+03 1.13905E+02 2.10585E+01 1.00123E+02
 -1       404 1.61986E+04 1.56227E+03-1.05900E+04-2.65536E+02-1.71275E+02-4.60912E+02
 -1       405 1.68603E+04-6.19115E+02-8.88393E+03-9.13273E+01 1.90145E+01 2.06017E+02
 -1       406 1.54829E+04 3.56539E+03-7.07024E+03-3.36516E+01-6.75303E+01-1.90323E+02
 -1       407 1.72133E+04-1.85446E+02-9.89713E+03-3.66982E+00 2.51022E+01 1.96253E+02
 -1       408 1.66796E+04 3.45009E+03-7.85082E+03 6.27538E+01-8.30468E+01 2.29540E+01
 -1       409 1.69805E+04-1.23245E+02-9.86091E+03-1.68890E+00 2.91333E+01 1.34238E+02
 -1       410 1.77858E+04 3.51205E+03-7.59626E+03 2.28229E+01-7.26855E+01 4.10414E+01
 -1       411 1.67867E+04-1.27027E+02-9.70398E+03-1.17393E+00 3.12618E+01 9.93966E+01
 -1       412 1.82549E+04 3.50477E+03-7.57732E+03 5.96743E+00-7.66168E+01 2.32791E+01
 -1       413 1.67225E+04-1.39433E+02-9.61698E+03-4.27955E-02 3.15880E+01 8.93453E+01
 -1       414 1.84389E+04 3.51779E+03-7.54444E+03-2.77164E-03-7.60202E+01 1.31999E+01
 -1       415 1.67405E+04-1.45331E+02-9.58490E+03 4.77011E-01 3.15250E+01 8.78825E+01
 -1       416 1.85041E+04 3.52097E+03-7.53979E+03-6.39389E-01-7.61606E+01 7.91880E+00
 -1       417 1.67869E+04-1.47828E+02-9.57741E+03 5.49225E-01 3.14029E+01 8.83231E+01
 -1       418 1.85457E+04 3.52175E+03-7.53866E+03-4.51217E-01-7.61854E+01 6.56647E+00
 -1       419 1.68396E+04-1.48528E+02-9.57742E+03 5.15931E-01 3.13242E+01 8.88625E+01
 -1       420 1.85882E+04 3.52150E+03-7.53920E+03-2.01079E-01-7.61833E+01 6.37237E+00
 -1       421 1.68925E+04-1.48592E+02-9.57883E+03 4.95336E-01 3.12754E+01 8.91031E+01
 -1       422 1.86346E+04 3.52122E+03-7.53951E+03-9.45242E-02-7.61795E+01 6.40863E+00
 -1       423 1.69455E+04-1.48489E+02-9.58055E+03 5.06046E-01 3.12358E+01 8.90446E+01
 -1       424 1.86817E+04 3.52090E+03-7.53984E+03-1.33127E-01-7.61698E+01 6.32788E+00
 -1       425 1.69999E+04-1.48598E+02-9.58260E+03 5.57760E-01 3.11865E+01 8.85810E+01
 -1       426 1.87250E+04 3.52048E+03-7.54054E+03-3.66458E-01-7.61752E+01 6.19149E+00
 -1       427 1.70545E+04-1.49755E+02-9.58214E+03 6.35137E-01 3.10710E+01 8.75962E+01
 -1       428 1.87612E+04 3.52032E+03-7.54125E+03-7.23993E-01-7.61360E+01 6.51655E+00
 -1       429 1.70967E+04-1.53613E+02-9.56687E+03 3.51269E-01 3.10123E+01 8.64797E+01
 -1       430 1.87961E+04 3.52111E+03-7.54065E+03-1.32485E+00-7.64711E+01 9.54278E+00
 -1       431 1.70823E+04-1.62992E+02-9.50684E+03-9.49755E-01 3.07323E+01 8.80608E+01
 -1       432 1.88910E+04 3.53555E+03-7.52148E+03 6.83124E-01-7.52547E+01 1.78720E+01
 -1       433 1.69139E+04-1.89431E+02-9.34394E+03-1.61617E+00 3.24892E+01 1.06182E+02
 -1       434 1.91672E+04 3.52411E+03-7.50669E+03 1.22886E+01-7.92755E+01 4.15793E+01
 -1       435 1.65687E+04-1.91109E+02-9.06790E+03 6.03402E+00 3.59072E+01 1.75057E+02
 -1       436 2.01312E+04 3.60471E+03-7.26290E+03 5.97660E+01-7.46568E+01 5.37419E+01
 -1       437 1.62079E+04-1.98675E+01-9.15447E+03-2.42735E+01 4.17458E+01 2.21588E+02
 -1       438 2.16936E+04 3.06576E+03-7.84227E+03 1.34064E+02-7.88512E+01 7.24708E+00
 -1       439 1.85102E+04 2.03183E+03-1.16290E+04-4.04801E+02 6.26991E+01 5.34148E+02
 -1       440 2.77586E+04 7.95545E+03-3.12547E+03-9.21925E+02-7.07542E+01-8.50256E+02
 -1       441 1.45840E+04-6.57735E+02-4.78969E+03 5.17148E-06-3.26471E-06 1.02230E+02
 -1       442 1.61207E+04 1.27381E+03-1.05543E+04 1.15224E-05 4.13702E-06-4.65363E+02
 -1       443 1.68842E+04-7.07047E+02-8.79837E+03 1.40050E-05-1.42585E-06 2.06261E+02
 -1       444 1.54446E+04 3.23070E+03-7.03799E+03 1.80388E-05 1.51182E-06-1.72703E+02
 -1       445 1.72426E+04-2.15454E+02-9.80099E+03 1.43145E-05-2.06283E-06 1.95035E+02
 -1       446 1.66470E+04 3.27378E+03-7.77969E+03 1.74877E-05 4.86236E-07 2.23540E+01
 -1       447 1.69891E+04-1.41831E+02-9.77847E+03 1.35049E-05-4.33010E-06 1.33382E+02
 -1       448 1.77309E+04 3.31570E+03-7.54304E+03 1.57304E-05 1.09082E-07 3.74752E+01
 -1       449 1.67978E+04-1.57507E+02-9.62920E+03 1.06926E-05-4.41282E-06 9.89585E+01
 -1       450 1.82101E+04 3.29962E+03-7.52467E+03 1.35500E-05-2.43969E-07 2.23466E+01
 -1       451 1.67389E+04-1.66527E+02-9.54123E+03 6.89089E-06-5.71532E-06 8.90834E+01
 -1       452 1.83963E+04 3.31397E+03-7.49023E+03 1.13573E-05-3.85858E-07 1.29612E+01
 -1       453 1.67562E+04-1.72899E+02-9.50962E+03 5.41980E-06-1.01556E-06 8.76443E+01
 -1       454 1.84602E+04 3.31608E+03-7.48581E+03 9.46204E-06-3.71939E-07 7.91634E+00
 -1       455 1.68027E+04-1.75142E+02-9.50172E+03 6.50248E-06-1.60145E-06 8.80890E+01
 -1       456 1.85015E+04 3.31690E+03-7.48467E+03 8.05347E-06-3.30439E-07 6.60486E+00
 -1       457 1.68553E+04-1.75918E+02-9.50176E+03 6.26156E-06-1.34749E-06 8.86339E+01
 -1       458 1.85438E+04 3.31661E+03-7.48523E+03 7.09851E-06-3.36955E-07 6.39161E+00
 -1       459 1.69082E+04-1.75988E+02-9.50312E+03 6.02953E-06-1.27693E-06 8.88704E+01
 -1       460 1.85902E+04 3.31636E+03-7.48555E+03 6.40471E-06-3.63968E-07 6.42292E+00
 -1       461 1.69611E+04-1.75903E+02-9.50482E+03 5.74822E-06-1.28839E-06 8.88099E+01
 -1       462 1.86373E+04 3.31609E+03-7.48587E+03 5.82541E-06-3.94079E-07 6.34669E+00
 -1       463 1.70155E+04-1.76017E+02-9.50681E+03 5.42101E-06-1.27266E-06 8.83636E+01
 -1       464 1.86806E+04 3.31572E+03-7.48662E+03 5.28285E-06-4.26421E-07 6.22003E+00
 -1       465 1.70698E+04-1.77291E+02-9.50625E+03 5.01649E-06-1.36430E-06 8.73301E+01
 -1       466 1.87162E+04 3.31531E+03-7.48732E+03 4.72238E-06-4.58501E-07 6.62799E+00
 -1       467 1.71124E+04-1.80515E+02-9.49065E+03 4.55849E-06-1.36616E-06 8.64003E+01
 -1       468 1.87518E+04 3.31713E+03-7.48661E+03 4.10018E-06-4.87208E-07 9.29308E+00
 -1       469 1.70945E+04-1.92005E+02-9.43226E+03 4.19631E-06-1.31351E-06 8.72221E+01
 -1       470 1.88377E+04 3.32449E+03-7.46983E+03 3.38242E-06-5.05538E-07 1.83805E+01
 -1       471 1.69536E+04-2.01328E+02-9.26028E+03 3.62561E-06-1.69679E-06 1.07123E+02
 -1       472 1.91471E+04 3.34294E+03-7.43750E+03 2.50295E-06-5.44455E-07 3.60619E+01
 -1       473 1.65736E+04-2.86261E+02-9.02741E+03 5.48285E-06 1.72003E-07 1.69930E+02
 -1       474 2.00946E+04 3.29848E+03-7.24165E+03 1.49219E-06-6.18793E-07 5.10512E+01
 -1       475 1.61349E+04 7.33823E+01-9.10450E+03 2.29569E-07-1.04234E-05 2.26841E+02
 -1       476 2.14651E+04 2.89418E+03-7.83611E+03 6.18349E-07-5.76338E-07 3.75826E+01
 -1       477 1.82705E+04 1.99647E+03-1.15830E+04-3.90275E-06 2.36644E-06 5.32683E+02
 -1       478 2.74814E+04 8.37024E+03-2.99545E+03-4.90810E-07-3.21258E-07-8.48217E+02
 -1       479 1.45032E+04-7.85324E+02-4.94292E+03-1.13905E+02-2.10585E+01 1.00123E+02
 -1       480 1.61986E+04 1.56227E+03-1.05900E+04 2.65536E+02 1.71275E+02-4.60912E+02
 -1       481 1.68603E+04-6.19115E+02-8.88393E+03 9.13274E+01-1.90145E+01 2.06017E+02
 -1       482 1.54829E+04 3.56539E+03-7.07024E+03 3.36517E+01 6.75303E+01-1.90323E+02
 -1       483 1.72133E+04-1.85446E+02-9.89713E+03 3.66984E+00-2.51022E+01 1.96253E+02
 -1       484 1.66796E+04 3.45009E+03-7.85082E+03-6.27537E+01 8.30468E+01 2.29540E+01
 -1       485 1.69805E+04-1.23245E+02-9.86091E+03 1.68892E+00-2.91333E+01 1.34238E+02
 -1       486 1.77858E+04 3.51205E+03-7.59626E+03-2.28229E+01 7.26855E+01 4.10414E+01
 -1       487 1.67867E+04-1.27027E+02-9.70398E+03 1.17395E+00-3.12618E+01 9.93966E+01
 -1       488 1.82549E+04 3.50477E+03-7.57732E+03-5.96740E+00 7.66168E+01 2.32791E+01
 -1       489 1.67225E+04-1.39433E+02-9.61698E+03 4.28086E-02-3.15880E+01 8.93453E+01
 -1       490 1.84389E+04 3.51779E+03-7.54444E+03 2.79299E-03 7.60202E+01 1.31999E+01
 -1       491 1.67405E+04-1.45331E+02-9.58490E+03-4.77000E-01-3.15250E+01 8.78825E+01
 -1       492 1.85041E+04 3.52097E+03-7.53979E+03 6.39407E-01 7.61606E+01 7.91880E+00
 -1       493 1.67869E+04-1.47828E+02-9.57741E+03-5.49213E-01-3.14029E+01 8.83231E+01
 -1       494 1.85457E+04 3.52175E+03-7.53866E+03 4.51233E-01 7.61854E+01 6.56647E+00
 -1       495 1.68396E+04-1.48528E+02-9.57742E+03-5.15919E-01-3.13242E+01 8.88625E+01
 -1       496 1.85882E+04 3.52150E+03-7.53920E+03 2.01092E-01 7.61833E+01 6.37237E+00
 -1       497 1.68925E+04-1.48592E+02-9.57883E+03-4.95324E-01-3.12754E+01 8.91031E+01
 -1       498 1.86346E+04 3.52122E+03-7.53951E+03 9.45366E-02 7.61795E+01 6.40863E+00
 -1       499 1.69455E+04-1.48489E+02-9.58055E+03-5.06035E-01-3.12358E+01 8.90446E+01
 -1       500 1.86817E+04 3.52090E+03-7.53984E+03 1.33139E-01 7.61698E+01 6.32788E+00
 -1       501 1.69999E+04-1.48598E+02-9.58260E+03-5.57750E-01-3.11865E+01 8.85810E+01
 -1       502 1.87250E+04 3.52048E+03-7.54054E+03 3.66468E-01 7.61752E+01 6.19149E+00
 -1       503 1.70545E+04-1.49755E+02-9.58214E+03-6.35127E-01-3.10710E+01 8.75962E+01
 -1       504 1.87612E+04 3.52032E+03-7.54125E+03 7.24002E-01 7.61360E+01 6.51655E+00
 -1       505 1.70967E+04-1.53613E+02-9.56687E+03-3.51260E-01-3.10123E+01 8.64797E+01
 -1       506 1.87961E+04 3.52111E+03-7.54065E+03 1.32485E+00 7.64711E+01 9.54278E+00
 -1       507 1.70823E+04-1.62992E+02-9.50684E+03 9.49764E-01-3.07323E+01 8.80608E+01
 -1       508 1.88910E+04 3.53555E+03-7.52148E+03-6.83117E-01 7.52547E+01 1.78720E+01
 -1       509 1.69139E+04-1.89431E+02-9.34394E+03 1.61618E+00-3.24892E+01 1.06182E+02
 -1       510 1.91672E+04 3.52411E+03-7.50669E+03-1.22886E+01 7.92755E+01 4.15793E+01
 -1       511 1.65687E+04-1.91109E+02-9.06790E+03-6.03401E+00-3.59072E+01 1.75057E+02
 -1       512 2.01312E+04 3.60471E+03-7.26290E+03-5.97660E+01 7.46568E+01 5.37419E+01
 -1       513 1.62079E+04-1.98675E+01-9.15447E+03 2.42735E+01-4.17458E+01 2.21588E+02
 -1       514 2.16936E+04 3.06576E+03-7.84227E+03-1.34064E+02 7.88512E+01 7.24708E+00
 -1       515 1.85102E+04 2.03183E+03-1.16290E+04 4.04801E+02-6.26991E+01 5.34148E+02
 -1       516 2.77586E+04 7.95545E+03-3.12547E+03 9.21925E+02 7.07542E+01-8.50256E+02
 -1       517 1.42612E+04-1.19158E+03-5.32353E+03-5.87051E+01-2.54031E+01 9.57638E+01
 -1       518 1.70614E+04 2.91031E+03-9.05236E+03 4.15782E+02-1.60127E+03-4.02761E+02
 -1       519 1.68016E+04-3.31187E+02-9.04167E+03 4.59433E+01-2.08259E+01 2.06374E+02
 -1       520 1.60673E+04 4.94524E+03-5.99932E+03 2.65432E+00-1.28545E+03-2.70904E+02
 -1       521 1.71422E+04-1.92484E+02-1.01083E+04 1.87966E+01-2.94362E+01 1.99240E+02
 -1       522 1.73480E+04 4.40795E+03-6.73760E+03-6.18171E+01-1.37270E+03 4.16891E+01
 -1       523 1.69921E+04-7.17776E+01-1.00007E+04 5.22470E+00-3.84727E+01 1.36592E+02
 -1       524 1.84878E+04 4.58725E+03-6.45343E+03-3.17609E+01-1.35236E+03 5.13726E+01
 -1       525 1.67656E+04-7.60817E+01-9.83679E+03 2.59327E+00-4.22206E+01 1.00209E+02
 -1       526 1.89194E+04 4.56788E+03-6.43962E+03-8.28046E+00-1.35373E+03 2.57077E+01
 -1       527 1.66958E+04-8.93119E+01-9.74791E+03 3.98993E-01-4.30423E+01 8.97329E+01
 -1       528 1.91061E+04 4.58639E+03-6.40910E+03-8.23250E-01-1.35329E+03 1.39995E+01
 -1       529 1.67132E+04-9.57999E+01-9.71585E+03-3.78835E-01-4.28989E+01 8.81247E+01
 -1       530 1.91730E+04 4.58952E+03-6.40434E+03 6.57878E-01-1.35337E+03 7.74636E+00
 -1       531 1.67600E+04-9.81405E+01-9.70848E+03-4.43974E-01-4.27056E+01 8.85614E+01
 -1       532 1.92161E+04 4.59079E+03-6.40319E+03 5.65193E-01-1.35335E+03 6.45768E+00
 -1       533 1.68129E+04-9.87997E+01-9.70877E+03-3.87088E-01-4.25490E+01 8.91235E+01
 -1       534 1.92589E+04 4.59050E+03-6.40369E+03 2.92980E-01-1.35332E+03 6.29249E+00
 -1       535 1.68659E+04-9.87886E+01-9.71025E+03-3.50509E-01-4.24577E+01 8.93709E+01
 -1       536 1.93054E+04 4.59014E+03-6.40402E+03 1.62710E-01-1.35329E+03 6.37213E+00
 -1       537 1.69190E+04-9.86301E+01-9.71204E+03-3.67619E-01-4.23865E+01 8.93095E+01
 -1       538 1.93525E+04 4.58973E+03-6.40436E+03 2.20005E-01-1.35325E+03 6.26456E+00
 -1       539 1.69736E+04-9.86862E+01-9.71429E+03-4.59410E-01-4.22722E+01 8.88393E+01
 -1       540 1.93959E+04 4.58919E+03-6.40510E+03 4.88261E-01-1.35324E+03 6.08012E+00
 -1       541 1.70285E+04-9.97716E+01-9.71420E+03-5.46739E-01-4.21369E+01 8.78030E+01
 -1       542 1.94330E+04 4.58929E+03-6.40559E+03 9.70237E-01-1.35311E+03 6.24282E+00
 -1       543 1.70718E+04-1.03744E+02-9.69950E+03-3.81827E-01-4.16706E+01 8.69000E+01
 -1       544 1.94707E+04 4.59024E+03-6.40508E+03 1.00105E+00-1.35359E+03 9.42531E+00
 -1       545 1.70561E+04-1.15299E+02-9.63889E+03 1.72903E+00-4.25036E+01 8.78788E+01
 -1       546 1.95698E+04 4.60668E+03-6.38550E+03-1.77405E+00-1.35154E+03 1.96651E+01
 -1       547 1.68641E+04-1.46889E+02-9.47758E+03 4.26721E+00-4.12355E+01 1.10574E+02
 -1       548 1.98488E+04 4.59390E+03-6.37714E+03-1.76138E+01-1.36272E+03 4.28035E+01
 -1       549 1.64314E+04-1.15684E+02-9.18128E+03-2.36922E-01-6.31791E+01 1.66808E+02
 -1       550 2.05849E+04 4.66623E+03-6.19481E+03-8.46195E+01-1.30373E+03 1.13041E+02
 -1       551 1.66231E+04 1.82859E+02-9.00833E+03 9.72528E+01-3.11386E+01 2.65324E+02
 -1       552 2.31027E+04 4.76067E+03-6.19811E+03-3.14733E+01-1.53562E+03-1.65267E+02
 -1       553 1.91577E+04 1.38050E+03-1.18773E+04-2.26378E+02-1.74194E+02 4.15893E+02
 -1       554 2.90356E+04 6.43840E+03-2.84745E+03 3.31670E+02-5.72856E+02-7.75541E+02
 -1       555 1.43047E+04-1.23065E+03-5.52492E+03 6.50448E+01 9.70036E+01-7.68520E+02
 -1       556 1.67761E+04-3.57352E+02-9.17230E+03-4.26678E+01 1.06167E+02-6.30764E+01
 -1       557 1.70700E+04-2.21629E+02-1.01382E+04-1.82946E+01 1.08990E+02 2.21375E+02
 -1       558 1.69235E+04-1.07845E+02-1.00228E+04-5.02588E+00 1.09621E+02 1.91090E+02
 -1       559 1.67207E+04-1.16013E+02-9.87103E+03-2.33372E+00 1.09406E+02 1.24200E+02
 -1       560 1.66671E+04-1.27645E+02-9.78689E+03-3.64136E-01 1.09014E+02 9.17868E+01
 -1       561 1.66892E+04-1.33088E+02-9.75604E+03 3.27857E-01 1.08801E+02 8.11096E+01
 -1       562 1.67367E+04-1.35118E+02-9.74915E+03 3.85473E-01 1.08729E+02 7.91207E+01
 -1       563 1.67894E+04-1.35607E+02-9.74938E+03 3.36641E-01 1.08686E+02 7.94467E+01
 -1       564 1.68422E+04-1.35531E+02-9.75077E+03 3.03627E-01 1.08661E+02 7.97838E+01
 -1       565 1.68950E+04-1.35341E+02-9.75244E+03 3.22164E-01 1.08643E+02 7.95691E+01
 -1       566 1.69491E+04-1.35340E+02-9.75454E+03 4.00779E-01 1.08621E+02 7.87570E+01
 -1       567 1.70036E+04-1.36326E+02-9.75454E+03 4.93152E-01 1.08601E+02 7.82519E+01
 -1       568 1.70469E+04-1.40102E+02-9.74083E+03 3.16771E-01 1.08428E+02 8.20321E+01
 -1       569 1.70428E+04-1.48761E+02-9.68120E+03-1.58124E+00 1.08448E+02 1.01117E+02
 -1       570 1.68700E+04-1.85341E+02-9.53951E+03-2.53479E+00 1.05716E+02 1.62868E+02
 -1       571 1.64958E+04-1.42197E+02-9.22781E+03-7.92758E+00 1.17821E+02 2.72463E+02
 -1       572 1.67033E+04 1.06932E+02-9.12980E+03-3.76475E+01 6.60166E+01 1.92188E+02
 -1       573 1.71109E+04 6.85260E+02-1.18242E+04-1.63189E+02 2.91708E+02-3.12556E+02
 -1       574 1.45734E+04-8.22506E+02-5.06136E+03 1.19472E+02 9.05435E+01-7.42010E+02
 -1       575 1.68532E+04-6.60349E+02-8.93179E+03-8.86497E+01 1.00289E+02-6.34822E+01
 -1       576 1.71645E+04-2.23447E+02-9.84003E+03-3.49418E+00 1.03512E+02 2.11145E+02
 -1       577 1.69363E+04-1.71021E+02-9.79784E+03-1.73328E+00 1.04314E+02 1.83893E+02
 -1       578 1.67668E+04-1.77381E+02-9.65132E+03-1.32144E+00 1.04308E+02 1.21658E+02
 -1       579 1.67184E+04-1.88191E+02-9.56907E+03-2.98171E-01 1.03986E+02 9.11618E+01
 -1       580 1.67409E+04-1.92996E+02-9.53813E+03 1.76056E-01 1.03830E+02 8.10323E+01
 -1       581 1.67879E+04-1.95091E+02-9.53104E+03 2.50475E-01 1.03763E+02 7.90955E+01
 -1       582 1.68405E+04-1.95597E+02-9.53104E+03 2.21456E-01 1.03729E+02 7.93758E+01
 -1       583 1.68931E+04-1.95562E+02-9.53233E+03 2.04776E-01 1.03710E+02 7.96856E+01
 -1       584 1.69458E+04-1.95402E+02-9.53395E+03 2.14611E-01 1.03696E+02 7.94829E+01
 -1       585 1.69998E+04-1.95427E+02-9.53587E+03 2.61960E-01 1.03681E+02 7.87272E+01
 -1       586 1.70539E+04-1.96536E+02-9.53551E+03 3.32013E-01 1.03642E+02 7.82898E+01
 -1       587 1.70965E+04-1.99904E+02-9.52123E+03 2.36599E-02 1.03605E+02 8.18934E+01
 -1       588 1.70908E+04-2.08365E+02-9.46269E+03-9.30533E-01 1.03059E+02 1.00058E+02
 -1       589 1.69517E+04-2.30906E+02-9.31512E+03-2.48825E+00 1.03484E+02 1.56767E+02
 -1       590 1.66258E+04-2.56505E+02-9.04113E+03 1.05330E+01 1.02826E+02 2.63899E+02
 -1       591 1.64176E+04-6.40595E+00-9.12351E+03-3.92301E+01 9.84249E+01 1.73247E+02
 -1       592 1.63741E+04 1.18862E+03-1.16371E+04-3.64837E+02 1.84073E+02-2.35564E+02
 -1       593 1.46633E+04-6.96627E+02-4.87730E+03 1.69635E-05-2.43304E-06-7.30023E+02
 -1       594 1.68846E+04-7.54951E+02-8.81224E+03 1.32752E-05-2.28865E-06-6.24899E+01
 -1       595 1.72021E+04-2.58479E+02-9.71089E+03 1.39465E-05-1.25156E-06 2.07899E+02
 -1       596 1.69539E+04-1.95682E+02-9.68192E+03 1.28906E-05-3.14695E-06 1.81485E+02
 -1       597 1.67871E+04-2.13593E+02-9.54289E+03 1.04271E-05-3.70778E-06 1.20722E+02
 -1       598 1.67437E+04-2.20977E+02-9.45956E+03 7.48214E-06-4.37050E-06 9.08682E+01
 -1       599 1.67655E+04-2.26252E+02-9.42907E+03 6.16271E-06-9.03346E-07 8.09181E+01
 -1       600 1.68127E+04-2.28147E+02-9.42168E+03 6.43163E-06-1.09879E-06 7.90049E+01
 -1       601 1.68651E+04-2.28710E+02-9.42166E+03 6.32111E-06-1.01214E-06 7.92729E+01
 -1       602 1.69177E+04-2.28682E+02-9.42293E+03 6.04661E-06-9.63275E-07 7.95743E+01
 -1       603 1.69704E+04-2.28529E+02-9.42452E+03 5.75593E-06-1.00057E-06 7.93747E+01
 -1       604 1.70243E+04-2.28594E+02-9.42640E+03 5.41903E-06-1.01795E-06 7.86412E+01
 -1       605 1.70782E+04-2.29661E+02-9.42590E+03 5.02040E-06-1.12803E-06 7.81994E+01
 -1       606 1.71207E+04-2.33075E+02-9.41152E+03 4.58793E-06-1.13822E-06 8.18418E+01
 -1       607 1.71132E+04-2.41176E+02-9.35361E+03 4.14478E-06-1.15073E-06 9.92560E+01
 -1       608 1.69954E+04-2.55365E+02-9.20041E+03 3.88973E-06-1.29609E-06 1.55934E+02
 -1       609 1.66512E+04-3.35697E+02-8.95815E+03 4.01510E-06-4.15823E-07 2.57138E+02
 -1       610 1.63331E+04 2.50017E+01-9.05728E+03 7.40250E-07-7.59022E-06 1.77375E+02
 -1       611 1.62151E+04 1.27796E+03-1.15246E+04-2.29009E-06 1.03915E-06-2.23550E+02
 -1       612 1.45734E+04-8.22506E+02-5.06136E+03-1.19472E+02-9.05435E+01-7.42010E+02
 -1       613 1.68532E+04-6.60349E+02-8.93179E+03 8.86497E+01-1.00289E+02-6.34822E+01
 -1       614 1.71645E+04-2.23447E+02-9.84003E+03 3.49421E+00-1.03512E+02 2.11145E+02
 -1       615 1.69363E+04-1.71021E+02-9.79784E+03 1.73331E+00-1.04314E+02 1.83893E+02
 -1       616 1.67668E+04-1.77381E+02-9.65132E+03 1.32146E+00-1.04308E+02 1.21658E+02
 -1       617 1.67184E+04-1.88191E+02-9.56907E+03 2.98185E-01-1.03986E+02 9.11618E+01
 -1       618 1.67409E+04-1.92996E+02-9.53813E+03-1.76044E-01-1.03830E+02 8.10323E+01
 -1       619 1.67879E+04-1.95091E+02-9.53104E+03-2.50462E-01-1.03763E+02 7.90955E+01
 -1       620 1.68405E+04-1.95597E+02-9.53104E+03-2.21443E-01-1.03729E+02 7.93758E+01
 -1       621 1.68931E+04-1.95562E+02-9.53233E+03-2.04764E-01-1.03710E+02 7.96856E+01
 -1       622 1.69458E+04-1.95402E+02-9.53395E+03-2.14600E-01-1.03696E+02 7.94829E+01
 -1       623 1.69998E+04-1.95427E+02-9.53587E+03-2.61949E-01-1.03681E+02 7.87272E+01
 -1       624 1.70539E+04-1.96536E+02-9.53551E+03-3.32003E-01-1.03642E+02 7.82898E+01
 -1       625 1.70965E+04-1.99904E+02-9.52123E+03-2.36508E-02-1.03605E+02 8.18934E+01
 -1       626 1.70908E+04-2.08365E+02-9.46269E+03 9.30541E-01-1.03059E+02 1.00058E+02
 -1       627 1.69517E+04-2.30906E+02-9.31512E+03 2.48826E+00-1.03484E+02 1.56767E+02
 -1       628 1.66258E+04-2.56505E+02-9.04113E+03-1.05330E+01-1.02826E+02 2.63899E+02
 -1       629 1.64176E+04-6.40595E+00-9.12351E+03 3.92301E+01-9.84249E+01 1.73247E+02
 -1       630 1.63741E+04 1.18862E+03-1.16371E+04 3.64837E+02-1.84073E+02-2.35564E+02
 -1       631 1.43047E+04-1.23065E+03-5.52492E+03-6.50447E+01-9.70036E+01-7.68520E+02
 -1       632 1.67761E+04-3.57352E+02-9.17230E+03 4.26679E+01-1.06167E+02-6.30764E+01
 -1       633 1.70700E+04-2.21629E+02-1.01382E+04 1.82946E+01-1.08990E+02 2.21375E+02
 -1       634 1.69235E+04-1.07845E+02-1.00228E+04 5.02590E+00-1.09621E+02 1.91090E+02
 -1       635 1.67207E+04-1.16013E+02-9.87103E+03 2.33374E+00-1.09406E+02 1.24200E+02
 -1       636 1.66671E+04-1.27645E+02-9.78689E+03 3.64149E-01-1.09014E+02 9.17868E+01
 -1       637 1.66892E+04-1.33088E+02-9.75604E+03-3.27845E-01-1.08801E+02 8.11096E+01
 -1       638 1.67367E+04-1.35118E+02-9.74915E+03-3.85461E-01-1.08729E+02 7.91207E+01
 -1       639 1.67894E+04-1.35607E+02-9.74938E+03-3.36629E-01-1.08686E+02 7.94467E+01
 -1       640 1.68422E+04-1.35531E+02-9.75077E+03-3.03616E-01-1.08661E+02 7.97838E+01
 -1       641 1.68950E+04-1.35341E+02-9.75244E+03-3.22153E-01-1.08643E+02 7.95691E+01
 -1       642 1.69491E+04-1.35340E+02-9.75454E+03-4.00769E-01-1.08621E+02 7.87570E+01
 -1       643 1.70036E+04-1.36326E+02-9.75454E+03-4.93142E-01-1.08601E+02 7.82519E+01
 -1       644 1.70469E+04-1.40102E+02-9.74083E+03-3.16763E-01-1.08428E+02 8.20321E+01
 -1       645 1.70428E+04-1.48761E+02-9.68120E+03 1.58125E+00-1.08448E+02 1.01117E+02
 -1       646 1.68700E+04-1.85341E+02-9.53951E+03 2.53480E+00-1.05716E+02 1.62868E+02
 -1       647 1.64958E+04-1.42197E+02-9.22781E+03 7.92759E+00-1.17821E+02 2.72463E+02
 -1       648 1.67033E+04 1.06932E+02-9.12980E+03 3.76475E+01-6.60166E+01 1.92188E+02
 -1       649 1.71109E+04 6.85260E+02-1.18242E+04 1.63189E+02-2.91708E+02-3.12556E+02
 -1       650 1.43081E+04-1.37159E+03-6.18759E+03 8.92568E+01 2.30436E+02-1.52740E+03
 -1       651 1.66971E+04-4.19156E+02-9.52864E+03-3.81677E+01 2.53295E+02-1.35698E+02
 -1       652 1.68819E+04-2.65598E+02-1.01944E+04-1.78431E+01 2.62555E+02 3.38895E+02
 -1       653 1.67389E+04-1.86185E+02-1.00777E+04-4.20936E+00 2.65147E+02 2.56451E+02
 -1       654 1.66078E+04-2.02624E+02-9.96114E+03-1.69434E+00 2.64639E+02 1.39523E+02
 -1       655 1.65969E+04-2.10047E+02-9.88879E+03-2.07229E-01 2.63838E+02 8.34640E+01
 -1       656 1.66312E+04-2.13322E+02-9.86199E+03 3.10351E-01 2.63555E+02 6.50013E+01
 -1       657 1.66806E+04-2.14676E+02-9.85626E+03 3.43703E-01 2.63467E+02 6.18647E+01
 -1       658 1.67329E+04-2.14921E+02-9.85636E+03 2.93880E-01 2.63441E+02 6.25105E+01
 -1       659 1.67848E+04-2.14844E+02-9.85750E+03 2.66426E-01 2.63439E+02 6.31231E+01
 -1       660 1.68367E+04-2.14705E+02-9.85890E+03 2.81248E-01 2.63441E+02 6.27204E+01
 -1       661 1.68896E+04-2.14635E+02-9.86059E+03 3.48558E-01 2.63440E+02 6.12433E+01
 -1       662 1.69430E+04-2.15370E+02-9.86069E+03 4.48793E-01 2.63377E+02 6.01974E+01
 -1       663 1.69901E+04-2.17471E+02-9.84856E+03 2.37485E-01 2.63330E+02 6.67098E+01
 -1       664 1.70112E+04-2.22552E+02-9.79623E+03-7.37010E-01 2.62226E+02 1.01577E+02
 -1       665 1.69208E+04-2.49053E+02-9.67935E+03-3.19854E+00 2.62114E+02 2.06520E+02
 -1       666 1.66685E+04-2.44346E+02-9.43758E+03 6.50411E-01 2.60262E+02 4.18138E+02
 -1       667 1.64363E+04-1.36808E+02-9.37643E+03-6.91705E+01 2.57780E+02 3.51349E+02
 -1       668 1.66432E+04 7.08405E+02-1.06157E+04-1.40707E+02 3.92969E+02-7.70413E+02
 -1       669 1.46439E+04-9.97159E+02-5.47341E+03 1.39928E+02 2.08734E+02-1.45720E+03
 -1       670 1.68337E+04-7.62564E+02-9.02399E+03-8.39106E+01 2.31415E+02-1.33874E+02
 -1       671 1.70448E+04-3.07600E+02-9.63275E+03-2.26027E+00 2.39719E+02 3.18638E+02
 -1       672 1.68248E+04-2.92718E+02-9.58942E+03-1.23527E+00 2.42768E+02 2.43383E+02
 -1       673 1.67278E+04-3.05780E+02-9.47490E+03-9.88464E-01 2.42458E+02 1.35115E+02
 -1       674 1.67205E+04-3.12388E+02-9.40423E+03-2.82340E-01 2.41854E+02 8.26307E+01
 -1       675 1.67547E+04-3.14985E+02-9.37721E+03 1.34767E-01 2.41618E+02 6.51690E+01
 -1       676 1.68036E+04-3.16369E+02-9.37128E+03 2.03291E-01 2.41532E+02 6.21148E+01
 -1       677 1.68556E+04-3.16611E+02-9.37120E+03 1.80674E-01 2.41505E+02 6.26757E+01
 -1       678 1.69074E+04-3.16558E+02-9.37229E+03 1.68450E-01 2.41499E+02 6.32381E+01
 -1       679 1.69592E+04-3.16423E+02-9.37365E+03 1.75556E-01 2.41500E+02 6.28597E+01
 -1       680 1.70120E+04-3.16405E+02-9.37523E+03 2.16748E-01 2.41488E+02 6.14945E+01
 -1       681 1.70651E+04-3.17084E+02-9.37493E+03 2.59812E-01 2.41454E+02 6.05647E+01
 -1       682 1.71105E+04-3.19554E+02-9.36278E+03 2.54242E-02 2.41288E+02 6.69493E+01
 -1       683 1.71308E+04-3.21656E+02-9.30956E+03-1.00251E+00 2.40742E+02 9.93022E+01
 -1       684 1.70668E+04-3.43173E+02-9.19112E+03-1.23585E+00 2.39836E+02 1.98471E+02
 -1       685 1.68743E+04-3.79066E+02-8.97007E+03 1.01869E+01 2.39926E+02 3.89550E+02
 -1       686 1.62435E+04-3.25155E+02-9.09645E+03-3.91298E+01 2.40533E+02 3.47481E+02
 -1       687 1.62042E+04 1.22855E+03-1.02094E+04-3.66707E+02 3.39195E+02-6.74785E+02
 -1       688 1.47522E+04-8.96065E+02-5.20670E+03 1.97430E-05-1.20849E-06-1.42725E+03
 -1       689 1.68817E+04-8.83228E+02-8.81238E+03 1.55842E-05-2.87522E-06-1.31083E+02
 -1       690 1.71001E+04-3.71935E+02-9.41541E+03 1.36078E-05-1.85019E-06 3.12551E+02
 -1       691 1.68629E+04-3.46884E+02-9.38327E+03 1.26873E-05-2.59031E-06 2.39172E+02
 -1       692 1.67685E+04-3.71458E+02-9.27604E+03 1.05004E-05-3.35073E-06 1.33624E+02
 -1       693 1.67660E+04-3.74386E+02-9.20393E+03 8.14050E-06-3.14234E-06 8.23249E+01
 -1       694 1.67993E+04-3.77514E+02-9.17736E+03 6.84850E-06-1.20572E-06 6.52072E+01
 -1       695 1.68481E+04-3.78705E+02-9.17125E+03 6.63915E-06-7.59378E-07 6.21885E+01
 -1       696 1.69000E+04-3.78990E+02-9.17115E+03 6.45692E-06-7.08044E-07 6.27268E+01
 -1       697 1.69518E+04-3.78938E+02-9.17221E+03 6.15459E-06-6.37420E-07 6.32727E+01
 -1       698 1.70036E+04-3.78814E+02-9.17356E+03 5.82976E-06-6.42979E-07 6.29045E+01
 -1       699 1.70563E+04-3.78797E+02-9.17509E+03 5.46903E-06-6.68052E-07 6.15656E+01
 -1       700 1.71092E+04-3.79537E+02-9.17474E+03 5.06284E-06-7.50305E-07 6.06942E+01
 -1       701 1.71544E+04-3.81772E+02-9.16233E+03 4.62033E-06-7.88300E-07 6.69403E+01
 -1       702 1.71724E+04-3.84204E+02-9.10999E+03 4.16188E-06-8.49121E-07 9.86325E+01
 -1       703 1.71291E+04-3.96006E+02-8.98528E+03 3.88112E-06-8.06380E-07 1.95496E+02
 -1       704 1.69182E+04-4.87451E+02-8.79459E+03 3.20918E-06-1.26730E-06 3.80615E+02
 -1       705 1.61991E+04-3.19195E+02-8.93166E+03 9.10142E-07-3.93357E-06 3.48851E+02
 -1       706 1.60626E+04 1.27250E+03-1.00476E+04-1.14491E-06-5.79728E-07-6.40224E+02
 -1       707 1.46439E+04-9.97159E+02-5.47341E+03-1.39928E+02-2.08734E+02-1.45720E+03
 -1       708 1.68337E+04-7.62564E+02-9.02399E+03 8.39106E+01-2.31415E+02-1.33874E+02
 -1       709 1.70448E+04-3.07600E+02-9.63275E+03 2.26029E+00-2.39719E+02 3.18638E+02
 -1       710 1.68248E+04-2.92718E+02-9.58942E+03 1.23529E+00-2.42768E+02 2.43383E+02
 -1       711 1.67278E+04-3.05780E+02-9.47490E+03 9.88484E-01-2.42458E+02 1.35115E+02
 -1       712 1.67205E+04-3.12388E+02-9.40423E+03 2.82356E-01-2.41854E+02 8.26307E+01
 -1       713 1.67547E+04-3.14985E+02-9.37721E+03-1.34754E-01-2.41618E+02 6.51690E+01
 -1       714 1.68036E+04-3.16369E+02-9.37128E+03-2.03278E-01-2.41532E+02 6.21148E+01
 -1       715 1.68556E+04-3.16611E+02-9.37120E+03-1.80662E-01-2.41505E+02 6.26757E+01
 -1       716 1.69074E+04-3.16558E+02-9.37229E+03-1.68438E-01-2.41499E+02 6.32381E+01
 -1       717 1.69592E+04-3.16423E+02-9.37365E+03-1.75544E-01-2.41500E+02 6.28597E+01
 -1       718 1.70120E+04-3.16405E+02-9.37523E+03-2.16737E-01-2.41488E+02 6.14945E+01
 -1       719 1.70651E+04-3.17084E+02-9.37493E+03-2.59802E-01-2.41454E+02 6.05647E+01
 -1       720 1.71105E+04-3.19554E+02-9.36278E+03-2.54150E-02-2.41288E+02 6.69493E+01
 -1       721 1.71308E+04-3.21656E+02-9.30956E+03 1.00252E+00-2.40742E+02 9.93022E+01
 -1       722 1.70668E+04-3.43173E+02-9.19112E+03 1.23586E+00-2.39836E+02 1.98471E+02
 -1       723 1.68743E+04-3.79066E+02-8.97007E+03-1.01869E+01-2.39926E+02 3.89550E+02
 -1       724 1.62435E+04-3.25155E+02-9.09645E+03 3.91298E+01-2.40533E+02 3.47481E+02
 -1       725 1.62042E+04 1.22855E+03-1.02094E+04 3.66707E+02-3.39195E+02-6.74785E+02
 -1       726 1.43081E+04-1.37159E+03-6.18759E+03-8.92568E+01-2.30436E+02-1.52740E+03
 -1       727 1.66971E+04-4.19156E+02-9.52864E+03 3.81677E+01-2.53295E+02-1.35698E+02
 -1       728 1.68819E+04-2.65598E+02-1.01944E+04 1.78431E+01-2.62555E+02 3.38895E+02
 -1       729 1.67389E+04-1.86185E+02-1.00777E+04 4.20937E+00-2.65147E+02 2.56451E+02
 -1       730 1.66078E+04-2.02624E+02-9.96114E+03 1.69436E+00-2.64639E+02 1.39523E+02
 -1       731 1.65969E+04-2.10047E+02-9.88879E+03 2.07243E-01-2.63838E+02 8.34640E+01
 -1       732 1.66312E+04-2.13322E+02-9.86199E+03-3.10339E-01-2.63555E+02 6.50013E+01
 -1       733 1.66806E+04-2.14676E+02-9.85626E+03-3.43691E-01-2.63467E+02 6.18647E+01
 -1       734 1.67329E+04-2.14921E+02-9.85636E+03-2.93868E-01-2.63441E+02 6.25105E+01
 -1       735 1.67848E+04-2.14844E+02-9.85750E+03-2.66415E-01-2.63439E+02 6.31231E+01
 -1       736 1.68367E+04-2.14705E+02-9.85890E+03-2.81237E-01-2.63441E+02 6.27204E+01
 -1       737 1.68896E+04-2.14635E+02-9.86059E+03-3.48548E-01-2.63440E+02 6.12433E+01
 -1       738 1.69430E+04-2.15370E+02-9.86069E+03-4.48784E-01-2.63377E+02 6.01974E+01
 -1       739 1.69901E+04-2.17471E+02-9.84856E+03-2.37476E-01-2.63330E+02 6.67098E+01
 -1       740 1.70112E+04-2.22552E+02-9.79623E+03 7.37018E-01-2.62226E+02 1.01577E+02
 -1       741 1.69208E+04-2.49053E+02-9.67935E+03 3.19855E+00-2.62114E+02 2.06520E+02
 -1       742 1.66685E+04-2.44346E+02-9.43758E+03-6.50405E-01-2.60262E+02 4.18138E+02
 -1       743 1.64363E+04-1.36808E+02-9.37643E+03 6.91705E+01-2.57780E+02 3.51349E+02
 -1       744 1.66432E+04 7.08405E+02-1.06157E+04 1.40707E+02-3.92969E+02-7.70413E+02
 -1       745 1.42909E+04-1.59707E+03-7.34569E+03 1.38014E+02 4.40882E+02-2.14992E+03
 -1       746 1.65670E+04-4.47664E+02-9.95973E+03-3.16938E+01 4.66826E+02-7.99161E+01
 -1       747 1.65683E+04-2.90986E+02-1.01984E+04-1.67444E+01 4.88540E+02 4.12766E+02
 -1       748 1.64719E+04-2.77517E+02-1.01341E+04-2.08124E+00 4.93907E+02 2.72455E+02
 -1       749 1.64710E+04-2.96536E+02-1.00581E+04-6.67365E-01 4.91918E+02 1.37249E+02
 -1       750 1.65190E+04-2.96814E+02-9.99921E+03-2.42265E-02 4.90736E+02 6.96611E+01
 -1       751 1.65690E+04-2.97863E+02-9.97954E+03 3.27282E-01 4.90338E+02 4.85572E+01
 -1       752 1.66210E+04-2.97989E+02-9.97474E+03 3.06419E-01 4.90205E+02 4.51409E+01
 -1       753 1.66720E+04-2.97998E+02-9.97474E+03 2.67449E-01 4.90178E+02 4.60486E+01
 -1       754 1.67227E+04-2.97952E+02-9.97551E+03 2.46684E-01 4.90184E+02 4.68094E+01
 -1       755 1.67732E+04-2.97889E+02-9.97647E+03 2.56305E-01 4.90196E+02 4.63227E+01
 -1       756 1.68241E+04-2.97864E+02-9.97771E+03 3.05037E-01 4.90196E+02 4.44921E+01
 -1       757 1.68759E+04-2.97880E+02-9.97742E+03 3.80884E-01 4.90143E+02 4.30601E+01
 -1       758 1.69280E+04-2.98489E+02-9.96830E+03 3.28742E-01 4.89902E+02 5.02242E+01
 -1       759 1.69787E+04-2.97870E+02-9.92740E+03-5.79100E-01 4.89160E+02 9.21316E+01
 -1       760 1.70265E+04-3.05206E+02-9.82725E+03 1.86202E-01 4.86069E+02 2.12979E+02
 -1       761 1.69038E+04-3.69921E+02-9.75397E+03-1.32916E+00 4.84534E+02 4.73146E+02
 -1       762 1.65287E+04-3.17015E+02-9.47385E+03-6.58878E+01 4.98070E+02 5.11458E+02
 -1       763 1.69576E+04 8.18820E+02-9.54425E+03-9.96357E+01 5.77338E+02-6.04682E+02
 -1       764 1.47391E+04-1.28696E+03-6.20761E+03 1.76121E+02 3.57427E+02-2.00325E+03
 -1       765 1.67999E+04-8.44704E+02-9.02040E+03-7.69671E+01 3.86202E+02-7.58695E+01
 -1       766 1.68409E+04-3.96228E+02-9.21435E+03-2.95879E-02 4.04646E+02 3.83155E+02
 -1       767 1.66801E+04-4.48087E+02-9.21437E+03 2.71396E-01 4.10207E+02 2.55204E+02
 -1       768 1.67120E+04-4.62558E+02-9.13878E+03-5.59414E-01 4.08925E+02 1.31412E+02
 -1       769 1.67617E+04-4.61891E+02-9.08042E+03-2.47675E-01 4.08030E+02 6.87011E+01
 -1       770 1.68107E+04-4.62413E+02-9.06061E+03 1.02913E-01 4.07692E+02 4.88595E+01
 -1       771 1.68618E+04-4.62517E+02-9.05565E+03 1.61800E-01 4.07568E+02 4.55237E+01
 -1       772 1.69126E+04-4.62549E+02-9.05555E+03 1.53507E-01 4.07539E+02 4.63188E+01
 -1       773 1.69632E+04-4.62509E+02-9.05631E+03 1.47889E-01 4.07539E+02 4.70087E+01
 -1       774 1.70137E+04-4.62458E+02-9.05728E+03 1.53606E-01 4.07547E+02 4.65575E+01
 -1       775 1.70645E+04-4.62443E+02-9.05844E+03 1.70905E-01 4.07540E+02 4.48762E+01
 -1       776 1.71158E+04-4.62540E+02-9.05795E+03 2.09099E-01 4.07485E+02 4.36278E+01
 -1       777 1.71657E+04-4.63190E+02-9.04879E+03-2.76754E-02 4.07236E+02 5.06119E+01
 -1       778 1.72140E+04-4.60589E+02-9.00687E+03-9.99907E-01 4.06752E+02 8.95890E+01
 -1       779 1.72820E+04-4.61712E+02-8.90492E+03 4.13215E-01 4.03846E+02 2.01669E+02
 -1       780 1.72305E+04-5.60310E+02-8.83849E+03 9.74584E+00 4.04698E+02 4.34226E+02
 -1       781 1.65005E+04-5.81759E+02-8.75080E+03-3.27376E+01 4.15578E+02 5.02692E+02
 -1       782 1.66182E+04 1.26081E+03-8.79934E+03-3.25566E+02 4.84500E+02-4.49414E+02
 -1       783 1.48496E+04-1.24586E+03-5.87688E+03 2.07180E-05 6.92017E-07-1.95034E+03
 -1       784 1.68447E+04-1.02102E+03-8.73860E+03 1.67844E-05-2.13429E-06-7.03109E+01
 -1       785 1.69001E+04-5.16807E+02-8.92470E+03 1.39545E-05-1.80874E-06 3.74609E+02
 -1       786 1.67248E+04-5.61102E+02-8.93561E+03 1.27861E-05-2.14957E-06 2.49821E+02
 -1       787 1.67599E+04-5.85616E+02-8.86562E+03 1.08772E-05-2.65636E-06 1.29409E+02
 -1       788 1.68136E+04-5.81584E+02-8.80583E+03 8.84859E-06-2.36666E-06 6.83528E+01
 -1       789 1.68614E+04-5.82548E+02-8.78638E+03 7.54416E-06-1.22047E-06 4.89340E+01
 -1       790 1.69124E+04-5.82483E+02-8.78129E+03 7.01216E-06-6.93825E-07 4.56411E+01
 -1       791 1.69631E+04-5.82548E+02-8.78119E+03 6.68797E-06-5.89959E-07 4.64048E+01
 -1       792 1.70136E+04-5.82505E+02-8.78193E+03 6.33308E-06-5.30129E-07 4.70736E+01
 -1       793 1.70641E+04-5.82459E+02-8.78291E+03 5.96318E-06-5.17043E-07 4.66345E+01
 -1       794 1.71149E+04-5.82437E+02-8.78402E+03 5.57009E-06-5.38619E-07 4.49941E+01
 -1       795 1.71659E+04-5.82631E+02-8.78355E+03 5.13999E-06-5.89198E-07 4.38083E+01
 -1       796 1.72154E+04-5.82907E+02-8.77411E+03 4.66943E-06-6.40586E-07 5.06666E+01
 -1       797 1.72609E+04-5.81070E+02-8.73305E+03 4.18935E-06-6.80157E-07 8.87574E+01
 -1       798 1.73476E+04-5.71960E+02-8.62493E+03 3.75985E-06-6.95503E-07 1.97637E+02
 -1       799 1.72841E+04-7.21837E+02-8.58196E+03 2.90152E-06-1.36076E-06 4.21866E+02
 -1       800 1.64689E+04-6.49512E+02-8.51899E+03 1.07668E-06-2.01269E-06 5.07697E+02
 -1       801 1.65055E+04 1.27577E+03-8.56381E+03-5.66804E-07-8.00974E-07-3.99298E+02
 -1       802 1.47391E+04-1.28696E+03-6.20761E+03-1.76121E+02-3.57427E+02-2.00325E+03
 -1       803 1.67999E+04-8.44704E+02-9.02040E+03 7.69671E+01-3.86202E+02-7.58695E+01
 -1       804 1.68409E+04-3.96228E+02-9.21435E+03 2.96134E-02-4.04646E+02 3.83155E+02
 -1       805 1.66801E+04-4.48087E+02-9.21437E+03-2.71372E-01-4.10207E+02 2.55204E+02
 -1       806 1.67120E+04-4.62558E+02-9.13878E+03 5.59435E-01-4.08925E+02 1.31412E+02
 -1       807 1.67617E+04-4.61891E+02-9.08042E+03 2.47692E-01-4.08030E+02 6.87011E+01
 -1       808 1.68107E+04-4.62413E+02-9.06061E+03-1.02899E-01-4.07692E+02 4.88595E+01
 -1       809 1.68618E+04-4.62517E+02-9.05565E+03-1.61786E-01-4.07568E+02 4.55237E+01
 -1       810 1.69126E+04-4.62549E+02-9.05555E+03-1.53494E-01-4.07539E+02 4.63188E+01
 -1       811 1.69632E+04-4.62509E+02-9.05631E+03-1.47877E-01-4.07539E+02 4.70087E+01
 -1       812 1.70137E+04-4.62458E+02-9.05728E+03-1.53595E-01-4.07547E+02 4.65575E+01
 -1       813 1.70645E+04-4.62443E+02-9.05844E+03-1.70895E-01-4.07540E+02 4.48762E+01
 -1       814 1.71158E+04-4.62540E+02-9.05795E+03-2.09089E-01-4.07485E+02 4.36278E+01
 -1       815 1.71657E+04-4.63190E+02-9.04879E+03 2.76846E-02-4.07236E+02 5.06119E+01
 -1       816 1.72140E+04-4.60589E+02-9.00687E+03 9.99915E-01-4.06752E+02 8.95890E+01
 -1       817 1.72820E+04-4.61712E+02-8.90492E+03-4.13208E-01-4.03846E+02 2.01669E+02
 -1       818 1.72305E+04-5.60310E+02-8.83849E+03-9.74584E+00-4.04698E+02 4.34226E+02
 -1       819 1.65005E+04-5.81759E+02-8.75080E+03 3.27376E+01-4.15578E+02 5.02692E+02
 -1       820 1.66182E+04 1.26081E+03-8.79934E+03 3.25566E+02-4.84500E+02-4.49414E+02
 -1       821 1.42909E+04-1.59707E+03-7.34569E+03-1.38014E+02-4.40882E+02-2.14992E+03
 -1       822 1.65670E+04-4.47664E+02-9.95973E+03 3.16938E+01-4.66826E+02-7.99161E+01
 -1       823 1.65683E+04-2.90986E+02-1.01984E+04 1.67444E+01-4.88540E+02 4.12766E+02
 -1       824 1.64719E+04-2.77517E+02-1.01341E+04 2.08126E+00-4.93907E+02 2.72455E+02
 -1       825 1.64710E+04-2.96536E+02-1.00581E+04 6.67381E-01-4.91918E+02 1.37249E+02
 -1       826 1.65190E+04-2.96814E+02-9.99921E+03 2.42407E-02-4.90736E+02 6.96611E+01
 -1       827 1.65690E+04-2.97863E+02-9.97954E+03-3.27269E-01-4.90338E+02 4.85572E+01
 -1       828 1.66210E+04-2.97989E+02-9.97474E+03-3.06406E-01-4.90205E+02 4.51409E+01
 -1       829 1.66720E+04-2.97998E+02-9.97474E+03-2.67437E-01-4.90178E+02 4.60486E+01
 -1       830 1.67227E+04-2.97952E+02-9.97551E+03-2.46672E-01-4.90184E+02 4.68094E+01
 -1       831 1.67732E+04-2.97889E+02-9.97647E+03-2.56294E-01-4.90196E+02 4.63227E+01
 -1       832 1.68241E+04-2.97864E+02-9.97771E+03-3.05027E-01-4.90196E+02 4.44921E+01
 -1       833 1.68759E+04-2.97880E+02-9.97742E+03-3.80874E-01-4.90143E+02 4.30601E+01
 -1       834 1.69280E+04-2.98489E+02-9.96830E+03-3.28733E-01-4.89902E+02 5.02242E+01
 -1       835 1.69787E+04-2.97870E+02-9.92740E+03 5.79108E-01-4.89160E+02 9.21316E+01
 -1       836 1.70265E+04-3.05206E+02-9.82725E+03-1.86195E-01-4.86069E+02 2.12979E+02
 -1       837 1.69038E+04-3.69921E+02-9.75397E+03 1.32917E+00-4.84534E+02 4.73146E+02
 -1       838 1.65287E+04-3.17015E+02-9.47385E+03 6.58878E+01-4.98070E+02 5.11458E+02
 -1       839 1.69576E+04 8.18820E+02-9.54425E+03 9.96357E+01-5.77338E+02-6.04682E+02
 -1       840 1.43757E+04-1.79937E+03-8.83148E+03 2.12245E+02 6.82884E+02-2.35224E+03
 -1       841 1.64943E+04-1.87497E+02-9.87722E+03-3.35522E+01 6.67247E+02 1.06982E+02
 -1       842 1.62154E+04-1.48362E+02-9.81940E+03-1.24582E+01 7.20116E+02 3.54519E+02
 -1       843 1.63119E+04-2.16641E+02-9.89150E+03 2.97313E+00 7.21682E+02 2.37559E+02
 -1       844 1.64978E+04-2.13478E+02-9.81654E+03 1.75177E-01 7.19116E+02 1.09906E+02
 -1       845 1.65991E+04-2.10966E+02-9.78102E+03 2.57273E-01 7.17540E+02 5.04712E+01
 -1       846 1.66667E+04-2.08557E+02-9.76630E+03 2.46957E-01 7.17102E+02 3.19914E+01
 -1       847 1.67191E+04-2.07511E+02-9.76267E+03 2.13664E-01 7.16902E+02 2.92012E+01
 -1       848 1.67683E+04-2.07362E+02-9.76249E+03 1.96440E-01 7.16877E+02 3.01251E+01
 -1       849 1.68175E+04-2.07378E+02-9.76290E+03 1.91844E-01 7.16882E+02 3.08305E+01
 -1       850 1.68665E+04-2.07452E+02-9.76347E+03 1.91356E-01 7.16892E+02 3.03939E+01
 -1       851 1.69149E+04-2.07476E+02-9.76417E+03 2.10747E-01 7.16907E+02 2.86996E+01
 -1       852 1.69634E+04-2.07104E+02-9.76378E+03 2.24121E-01 7.16806E+02 2.72296E+01
 -1       853 1.70192E+04-2.05005E+02-9.75615E+03 3.31874E-01 7.16550E+02 3.34228E+01
 -1       854 1.70980E+04-2.01343E+02-9.73077E+03-2.84925E-01 7.15728E+02 6.93175E+01
 -1       855 1.72709E+04-1.88274E+02-9.64699E+03 2.89856E+00 7.12153E+02 1.82390E+02
 -1       856 1.74535E+04-2.64458E+02-9.65911E+03 7.04511E+00 7.02575E+02 3.90855E+02
 -1       857 1.72450E+04-3.35156E+02-9.48539E+03-7.38377E+01 7.55435E+02 5.87201E+02
 -1       858 1.81586E+04 1.07516E+03-8.15768E+03 2.06534E+01 6.78397E+02-2.39479E+02
 -1       859 1.48484E+04-1.63467E+03-7.46662E+03 2.07750E+02 3.82446E+02-2.13486E+03
 -1       860 1.67263E+04-6.77334E+02-8.72047E+03-7.36809E+01 4.18168E+02 1.12878E+02
 -1       861 1.65253E+04-3.53887E+02-8.61111E+03 6.53246E+00 4.46699E+02 3.21579E+02
 -1       862 1.65692E+04-4.88633E+02-8.73944E+03 3.39351E+00 4.54089E+02 2.19208E+02
 -1       863 1.67868E+04-4.78243E+02-8.66093E+03-1.09544E-01 4.51540E+02 1.03497E+02
 -1       864 1.68870E+04-4.76352E+02-8.62559E+03-1.91733E-01 4.50622E+02 4.96693E+01
 -1       865 1.69526E+04-4.72990E+02-8.61051E+03-3.91680E-03 4.50191E+02 3.22816E+01
 -1       866 1.70039E+04-4.72173E+02-8.60695E+03 6.02614E-02 4.50042E+02 2.96180E+01
 -1       867 1.70528E+04-4.71979E+02-8.60671E+03 8.57263E-02 4.50006E+02 3.03943E+01
 -1       868 1.71019E+04-4.72014E+02-8.60715E+03 9.11726E-02 4.50011E+02 3.10297E+01
 -1       869 1.71509E+04-4.72087E+02-8.60775E+03 9.09982E-02 4.50022E+02 3.06249E+01
 -1       870 1.71993E+04-4.72116E+02-8.60845E+03 8.42825E-02 4.50023E+02 2.91073E+01
 -1       871 1.72472E+04-4.71807E+02-8.60789E+03 4.51939E-02 4.49942E+02 2.78146E+01
 -1       872 1.73000E+04-4.70000E+02-8.60084E+03-8.16024E-02 4.49636E+02 3.39078E+01
 -1       873 1.73751E+04-4.64019E+02-8.57308E+03-1.09721E+00 4.49346E+02 6.69801E+01
 -1       874 1.75594E+04-4.47959E+02-8.49001E+03 2.05402E+00 4.44789E+02 1.69693E+02
 -1       875 1.78332E+04-5.40394E+02-8.48539E+03 1.47147E+01 4.45644E+02 3.47736E+02
 -1       876 1.72713E+04-7.61261E+02-8.54240E+03-2.24884E+01 4.68773E+02 5.80747E+02
 -1       877 1.78751E+04 1.61166E+03-7.17774E+03-2.72351E+02 4.73384E+02-2.52916E+01
 -1       878 1.48541E+04-1.67571E+03-7.39640E+03 1.97155E-05 1.86829E-06-2.07202E+03
 -1       879 1.66958E+04-8.82671E+02-8.62468E+03 1.70421E-05-1.03348E-06 1.19668E+02
 -1       880 1.65036E+04-5.22342E+02-8.52582E+03 1.46723E-05-1.47241E-06 3.14740E+02
 -1       881 1.65412E+04-6.44174E+02-8.65684E+03 1.33441E-05-1.62836E-06 2.13082E+02
 -1       882 1.67608E+04-6.45243E+02-8.58419E+03 1.15212E-05-1.88030E-06 1.01534E+02
 -1       883 1.68646E+04-6.39868E+02-8.54686E+03 9.64298E-06-1.65496E-06 4.92732E+01
 -1       884 1.69286E+04-6.37003E+02-8.53214E+03 8.25737E-06-1.00038E-06 3.23409E+01
 -1       885 1.69797E+04-6.36035E+02-8.52850E+03 7.46787E-06-5.76018E-07 2.97114E+01
 -1       886 1.70285E+04-6.35868E+02-8.52826E+03 6.96875E-06-4.47691E-07 3.04603E+01
 -1       887 1.70775E+04-6.35894E+02-8.52870E+03 6.52985E-06-3.92684E-07 3.10728E+01
 -1       888 1.71266E+04-6.35973E+02-8.52930E+03 6.10260E-06-3.71819E-07 3.06810E+01
 -1       889 1.71749E+04-6.35972E+02-8.52995E+03 5.66541E-06-3.82273E-07 2.92047E+01
 -1       890 1.72225E+04-6.35803E+02-8.52949E+03 5.19718E-06-4.16183E-07 2.79813E+01
 -1       891 1.72748E+04-6.33518E+02-8.52213E+03 4.68693E-06-4.60065E-07 3.38937E+01
 -1       892 1.73460E+04-6.28808E+02-8.49539E+03 4.15193E-06-4.88115E-07 6.64209E+01
 -1       893 1.75479E+04-6.01603E+02-8.40526E+03 3.57702E-06-5.64862E-07 1.64413E+02
 -1       894 1.78175E+04-7.45081E+02-8.41902E+03 2.66772E-06-1.00636E-06 3.36313E+02
 -1       895 1.71580E+04-8.92261E+02-8.52107E+03 1.17810E-06-1.18673E-06 5.90970E+02
 -1       896 1.76969E+04 1.66048E+03-7.06539E+03-2.56069E-07-6.01262E-07 3.22807E+01
 -1       897 1.48484E+04-1.63467E+03-7.46662E+03-2.07750E+02-3.82446E+02-2.13486E+03
 -1       898 1.67263E+04-6.77334E+02-8.72047E+03 7.36809E+01-4.18168E+02 1.12878E+02
 -1       899 1.65253E+04-3.53887E+02-8.61111E+03-6.53244E+00-4.46699E+02 3.21579E+02
 -1       900 1.65692E+04-4.88633E+02-8.73944E+03-3.39349E+00-4.54089E+02 2.19208E+02
 -1       901 1.67868E+04-4.78243E+02-8.66093E+03 1.09565E-01-4.51540E+02 1.03497E+02
 -1       902 1.68870E+04-4.76352E+02-8.62559E+03 1.91751E-01-4.50622E+02 4.96693E+01
 -1       903 1.69526E+04-4.72990E+02-8.61051E+03 3.93261E-03-4.50191E+02 3.22816E+01
 -1       904 1.70039E+04-4.72173E+02-8.60695E+03-6.02469E-02-4.50042E+02 2.96180E+01
 -1       905 1.70528E+04-4.71979E+02-8.60671E+03-8.57128E-02-4.50006E+02 3.03943E+01
 -1       906 1.71019E+04-4.72014E+02-8.60715E+03-9.11599E-02-4.50011E+02 3.10297E+01
 -1       907 1.71509E+04-4.72087E+02-8.60775E+03-9.09863E-02-4.50022E+02 3.06249E+01
 -1       908 1.71993E+04-4.72116E+02-8.60845E+03-8.42714E-02-4.50023E+02 2.91073E+01
 -1       909 1.72472E+04-4.71807E+02-8.60789E+03-4.51837E-02-4.49942E+02 2.78146E+01
 -1       910 1.73000E+04-4.70000E+02-8.60084E+03 8.16117E-02-4.49636E+02 3.39078E+01
 -1       911 1.73751E+04-4.64019E+02-8.57308E+03 1.09722E+00-4.49346E+02 6.69801E+01
 -1       912 1.75594E+04-4.47959E+02-8.49001E+03-2.05401E+00-4.44789E+02 1.69693E+02
 -1       913 1.78332E+04-5.40394E+02-8.48539E+03-1.47147E+01-4.45644E+02 3.47736E+02
 -1       914 1.72713E+04-7.61261E+02-8.54240E+03 2.24884E+01-4.68773E+02 5.80747E+02
 -1       915 1.78751E+04 1.61166E+03-7.17774E+03 2.72351E+02-4.73384E+02-2.52916E+01
 -1       916 1.43757E+04-1.79937E+03-8.83148E+03-2.12245E+02-6.82884E+02-2.35224E+03
 -1       917 1.64943E+04-1.87497E+02-9.87722E+03 3.35522E+01-6.67247E+02 1.06982E+02
 -1       918 1.62154E+04-1.48362E+02-9.81940E+03 1.24583E+01-7.20116E+02 3.54519E+02
 -1       919 1.63119E+04-2.16641E+02-9.89150E+03-2.97311E+00-7.21682E+02 2.37559E+02
 -1       920 1.64978E+04-2.13478E+02-9.81654E+03-1.75161E-01-7.19116E+02 1.09906E+02
 -1       921 1.65991E+04-2.10966E+02-9.78102E+03-2.57258E-01-7.17540E+02 5.04712E+01
 -1       922 1.66667E+04-2.08557E+02-9.76630E+03-2.46943E-01-7.17102E+02 3.19914E+01
 -1       923 1.67191E+04-2.07511E+02-9.76267E+03-2.13651E-01-7.16902E+02 2.92012E+01
 -1       924 1.67683E+04-2.07362E+02-9.76249E+03-1.96428E-01-7.16877E+02 3.01251E+01
 -1       925 1.68175E+04-2.07378E+02-9.76290E+03-1.91833E-01-7.16882E+02 3.08305E+01
 -1       926 1.68665E+04-2.07452E+02-9.76347E+03-1.91346E-01-7.16892E+02 3.03939E+01
 -1       927 1.69149E+04-2.07476E+02-9.76417E+03-2.10737E-01-7.16907E+02 2.86996E+01
 -1       928 1.69634E+04-2.07104E+02-9.76378E+03-2.24112E-01-7.16806E+02 2.72296E+01
 -1       929 1.70192E+04-2.05005E+02-9.75615E+03-3.31865E-01-7.16550E+02 3.34228E+01
 -1       930 1.70980E+04-2.01343E+02-9.73077E+03 2.84933E-01-7.15728E+02 6.93175E+01
 -1       931 1.72709E+04-1.88274E+02-9.64699E+03-2.89855E+00-7.12153E+02 1.82390E+02
 -1       932 1.74535E+04-2.64458E+02-9.65911E+03-7.04511E+00-7.02575E+02 3.90855E+02
 -1       933 1.72450E+04-3.35156E+02-9.48539E+03 7.38377E+01-7.55435E+02 5.87201E+02
 -1       934 1.81586E+04 1.07516E+03-8.15768E+03-2.06534E+01-6.78397E+02-2.39479E+02
 -1       935 1.47096E+04-1.80693E+03-1.03743E+04 2.51598E+02 5.88727E+02-1.14601E+03
 -1       936 1.64958E+04 7.78722E+02-8.27426E+03-7.95219E+01 5.53377E+02-8.48346E+01
 -1       937 1.59043E+04 2.77419E+02-8.93023E+03 1.70566E+01 6.06743E+02 1.93695E+02
 -1       938 1.65939E+04 2.93613E+02-8.87382E+03 8.09177E+00 6.06683E+02 1.30951E+02
 -1       939 1.69060E+04 3.02036E+02-8.83291E+03 2.77251E+00 6.03766E+02 6.09485E+01
 -1       940 1.70629E+04 3.08034E+02-8.80869E+03 3.98957E-01 6.02999E+02 2.74991E+01
 -1       941 1.71388E+04 3.14219E+02-8.79750E+03 5.04816E-02 6.02515E+02 1.62402E+01
 -1       942 1.71887E+04 3.15599E+02-8.79484E+03-1.24039E-02 6.02382E+02 1.43538E+01
 -1       943 1.72353E+04 3.15877E+02-8.79453E+03 4.51563E-02 6.02351E+02 1.47455E+01
 -1       944 1.72829E+04 3.15716E+02-8.79475E+03 7.03969E-02 6.02354E+02 1.51127E+01
 -1       945 1.73306E+04 3.15467E+02-8.79510E+03 5.93958E-02 6.02363E+02 1.48623E+01
 -1       946 1.73764E+04 3.15371E+02-8.79544E+03-9.32471E-03 6.02364E+02 1.39651E+01
 -1       947 1.74200E+04 3.15660E+02-8.79504E+03-4.89696E-02 6.02306E+02 1.33486E+01
 -1       948 1.74719E+04 3.19724E+02-8.78908E+03-1.43627E-01 6.02042E+02 1.75464E+01
 -1       949 1.75766E+04 3.29127E+02-8.76895E+03 1.28843E+00 6.01256E+02 3.92130E+01
 -1       950 1.78057E+04 3.35109E+02-8.73228E+03 3.11101E+00 6.01079E+02 1.00895E+02
 -1       951 1.84203E+04 3.64665E+02-8.62869E+03 4.08815E+01 5.77406E+02 2.34163E+02
 -1       952 1.90286E+04 1.20175E+02-8.87103E+03-1.01701E+02 6.89009E+02 2.10539E+02
 -1       953 2.11241E+04 1.90130E+03-6.48823E+03 1.15713E+02 3.55543E+02-1.57812E+02
 -1       954 1.47297E+04-1.87640E+03-1.02025E+04 1.10128E+02 1.61520E+02-1.02935E+03
 -1       955 1.64554E+04 3.53649E+02-8.01633E+03-6.93197E+01 2.09963E+02-4.79366E+01
 -1       956 1.58936E+04 4.60604E+01-8.70109E+03 2.62216E+01 2.29295E+02 1.71862E+02
 -1       957 1.65592E+04 3.44177E+01-8.66412E+03 9.51031E+00 2.37204E+02 1.16318E+02
 -1       958 1.68943E+04 3.17082E+01-8.62687E+03 1.34243E+00 2.34478E+02 5.66933E+01
 -1       959 1.70513E+04 4.19125E+01-8.59862E+03-3.26647E-03 2.33963E+02 2.66345E+01
 -1       960 1.71235E+04 4.69575E+01-8.58818E+03-2.71781E-01 2.33650E+02 1.64214E+01
 -1       961 1.71724E+04 4.85858E+01-8.58531E+03-1.18005E-01 2.33509E+02 1.45856E+01
 -1       962 1.72186E+04 4.87905E+01-8.58506E+03-3.88233E-02 2.33488E+02 1.48931E+01
 -1       963 1.72661E+04 4.86609E+01-8.58528E+03 2.69192E-03 2.33492E+02 1.52084E+01
 -1       964 1.73139E+04 4.84524E+01-8.58563E+03-1.40249E-02 2.33503E+02 1.49842E+01
 -1       965 1.73596E+04 4.82954E+01-8.58602E+03-8.03079E-02 2.33506E+02 1.42008E+01
 -1       966 1.74027E+04 4.88306E+01-8.58547E+03-2.46569E-01 2.33456E+02 1.37215E+01
 -1       967 1.74512E+04 5.17310E+01-8.58024E+03-4.63345E-01 2.33073E+02 1.78135E+01
 -1       968 1.75504E+04 6.46576E+01-8.55819E+03-3.05467E-01 2.33507E+02 3.70395E+01
 -1       969 1.77855E+04 6.77144E+01-8.51906E+03 3.30242E+00 2.28218E+02 9.38853E+01
 -1       970 1.85213E+04 9.78373E+01-8.38437E+03 3.42435E+01 2.32340E+02 1.85924E+02
 -1       971 1.86738E+04-4.38834E+02-8.94504E+03 8.61378E+00 2.50773E+02 2.83094E+02
 -1       972 2.04109E+04 2.85960E+03-6.15111E+03-3.65221E+02 2.05053E+02-1.54376E+01
 -1       973 1.50225E+04-1.19127E+03-9.91588E+03 1.71074E-05 1.72341E-06-1.01297E+03
 -1       974 1.66548E+04 7.39931E+02-7.78121E+03 1.68661E-05-1.56022E-07-3.24446E+01
 -1       975 1.61194E+04 5.33484E+02-8.45136E+03 1.58024E-05-9.39545E-07 1.69095E+02
 -1       976 1.67709E+04 5.15732E+02-8.42295E+03 1.42720E-05-9.26403E-07 1.11619E+02
 -1       977 1.71120E+04 5.04163E+02-8.38880E+03 1.23689E-05-1.02924E-06 5.53346E+01
 -1       978 1.72714E+04 5.16601E+02-8.35869E+03 1.04370E-05-9.03280E-07 2.62949E+01
 -1       979 1.73421E+04 5.21180E+02-8.34847E+03 8.87036E-06-5.97430E-07 1.64323E+01
 -1       980 1.73907E+04 5.22845E+02-8.34560E+03 7.80971E-06-3.55424E-07 1.46385E+01
 -1       981 1.74367E+04 5.23043E+02-8.34534E+03 7.10392E-06-2.60291E-07 1.49275E+01
 -1       982 1.74842E+04 5.22904E+02-8.34558E+03 6.55197E-06-2.21010E-07 1.52299E+01
 -1       983 1.75320E+04 5.22690E+02-8.34594E+03 6.05623E-06-2.03996E-07 1.50159E+01
 -1       984 1.75777E+04 5.22547E+02-8.34634E+03 5.57007E-06-2.06591E-07 1.42482E+01
 -1       985 1.76204E+04 5.22956E+02-8.34579E+03 5.05865E-06-2.23859E-07 1.38588E+01
 -1       986 1.76687E+04 5.26384E+02-8.34055E+03 4.49934E-06-2.49991E-07 1.76052E+01
 -1       987 1.77620E+04 5.36469E+02-8.31951E+03 3.88566E-06-2.70575E-07 3.71166E+01
 -1       988 1.80191E+04 5.56535E+02-8.26996E+03 3.16489E-06-3.37189E-07 8.84311E+01
 -1       989 1.87493E+04 5.11013E+02-8.16231E+03 2.24711E-06-5.49335E-07 1.79153E+02
 -1       990 1.87847E+04 8.12642E+01-8.74901E+03 1.06086E-06-5.71560E-07 3.09461E+02
 -1       991 2.03508E+04 3.50396E+03-5.92678E+03-2.79137E-07-2.81077E-07-1.14520E+01
 -1       992 1.47297E+04-1.87640E+03-1.02025E+04-1.10128E+02-1.61520E+02-1.02935E+03
 -1       993 1.64554E+04 3.53649E+02-8.01633E+03 6.93198E+01-2.09963E+02-4.79366E+01
 -1       994 1.58936E+04 4.60604E+01-8.70109E+03-2.62216E+01-2.29295E+02 1.71862E+02
 -1       995 1.65592E+04 3.44177E+01-8.66412E+03-9.51028E+00-2.37204E+02 1.16318E+02
 -1       996 1.68943E+04 3.17082E+01-8.62687E+03-1.34240E+00-2.34478E+02 5.66933E+01
 -1       997 1.70513E+04 4.19125E+01-8.59862E+03 3.28632E-03-2.33963E+02 2.66345E+01
 -1       998 1.71235E+04 4.69575E+01-8.58818E+03 2.71798E-01-2.33650E+02 1.64214E+01
 -1       999 1.71724E+04 4.85858E+01-8.58531E+03 1.18020E-01-2.33509E+02 1.45856E+01
 -1      1000 1.72186E+04 4.87905E+01-8.58506E+03 3.88373E-02-2.33488E+02 1.48931E+01
 -1      1001 1.72661E+04 4.86609E+01-8.58528E+03-2.67898E-03-2.33492E+02 1.52084E+01
 -1      1002 1.73139E+04 4.84524E+01-8.58563E+03 1.40369E-02-2.33503E+02 1.49842E+01
 -1      1003 1.73596E+04 4.82954E+01-8.58602E+03 8.03190E-02-2.33506E+02 1.42008E+01
 -1      1004 1.74027E+04 4.88306E+01-8.58547E+03 2.46579E-01-2.33456E+02 1.37215E+01
 -1      1005 1.74512E+04 5.17310E+01-8.58024E+03 4.63354E-01-2.33073E+02 1.78135E+01
 -1      1006 1.75504E+04 6.46576E+01-8.55819E+03 3.05475E-01-2.33507E+02 3.70395E+01
 -1      1007 1.77855E+04 6.77144E+01-8.51906E+03-3.30241E+00-2.28218E+02 9.38853E+01
 -1      1008 1.85213E+04 9.78373E+01-8.38437E+03-3.42435E+01-2.32340E+02 1.85924E+02
 -1      1009 1.86738E+04-4.38834E+02-8.94504E+03-8.61377E+00-2.50773E+02 2.83094E+02
 -1      1010 2.04109E+04 2.85960E+03-6.15111E+03 3.65221E+02-2.05053E+02-1.54376E+01
 -1      1011 1.47096E+04-1.80693E+03-1.03743E+04-2.51598E+02-5.88727E+02-1.14601E+03
 -1      1012 1.64958E+04 7.78722E+02-8.27426E+03 7.95219E+01-5.53377E+02-8.48346E+01
 -1      1013 1.59043E+04 2.77419E+02-8.93023E+03-1.70566E+01-6.06743E+02 1.93695E+02
 -1      1014 1.65939E+04 2.93613E+02-8.87382E+03-8.09175E+00-6.06683E+02 1.30951E+02
 -1      1015 1.69060E+04 3.02036E+02-8.83291E+03-2.77249E+00-6.03766E+02 6.09485E+01
 -1      1016 1.70629E+04 3.08034E+02-8.80869E+03-3.98940E-01-6.02999E+02 2.74991E+01
 -1      1017 1.71388E+04 3.14219E+02-8.79750E+03-5.04671E-02-6.02515E+02 1.62402E+01
 -1      1018 1.71887E+04 3.15599E+02-8.79484E+03 1.24173E-02-6.02382E+02 1.43538E+01
 -1      1019 1.72353E+04 3.15877E+02-8.79453E+03-4.51438E-02-6.02351E+02 1.47455E+01
 -1      1020 1.72829E+04 3.15716E+02-8.79475E+03-7.03850E-02-6.02354E+02 1.51127E+01
 -1      1021 1.73306E+04 3.15467E+02-8.79510E+03-5.93846E-02-6.02363E+02 1.48623E+01
 -1      1022 1.73764E+04 3.15371E+02-8.79544E+03 9.33509E-03-6.02364E+02 1.39651E+01
 -1      1023 1.74200E+04 3.15660E+02-8.79504E+03 4.89792E-02-6.02306E+02 1.33486E+01
 -1      1024 1.74719E+04 3.19724E+02-8.78908E+03 1.43635E-01-6.02042E+02 1.75464E+01
 -1      1025 1.75766E+04 3.29127E+02-8.76895E+03-1.28842E+00-6.01256E+02 3.92130E+01
 -1      1026 1.78057E+04 3.35109E+02-8.73228E+03-3.11100E+00-6.01079E+02 1.00895E+02
 -1      1027 1.84203E+04 3.64665E+02-8.62869E+03-4.08815E+01-5.77406E+02 2.34163E+02
 -1      1028 1.90286E+04 1.20175E+02-8.87103E+03 1.01701E+02-6.89009E+02 2.10539E+02
 -1      1029 2.11241E+04 1.90130E+03-6.48823E+03-1.15713E+02-3.55543E+02-1.57812E+02
 -1      1030-9.37609E+02-9.37613E+02-2.18775E+03 3.47779E-03-6.91150E+02-8.64526E+02
 -1      1031-1.10360E+02-1.10362E+02-2.57509E+02 1.20508E-04-3.31429E+01 1.60946E+02
 -1      1032-6.67219E+02-6.67223E+02-1.55684E+03 3.73688E-03-5.65105E+02-8.50845E+02
 -1      1033-1.07016E+02-1.07017E+02-2.49706E+02 1.14528E-04-8.46352E+00 1.59168E+02
 -1      1034-7.52522E+02-7.52525E+02-1.75588E+03 5.00630E-03-5.28421E+02-9.28982E+02
 -1      1035-1.03846E+02-1.03847E+02-2.42309E+02 5.04865E-05 3.03741E+00 1.50412E+02
 -1      1036-8.82140E+02-8.82146E+02-2.05832E+03 5.31620E-03-4.66357E+02-1.05207E+03
 -1      1037-9.87335E+01-9.87344E+01-2.30380E+02-8.20208E-07 7.06931E+00 1.40618E+02
 -1      1038-1.01020E+03-1.01021E+03-2.35712E+03 4.46618E-03-3.51619E+02-1.17716E+03
 -1      1039-9.41371E+01-9.41379E+01-2.19655E+02-2.14324E-05 6.79962E+00 1.32131E+02
 -1      1040-1.10021E+03-1.10022E+03-2.56714E+03 2.55320E-03-1.89389E+02-1.26778E+03
 -1      1041-9.09254E+01-9.09263E+01-2.12162E+02-1.74132E-05 3.99903E+00 1.26456E+02
 -1      1042-1.13241E+03-1.13242E+03-2.64227E+03-1.71082E-11 8.57144E-06-1.30062E+03
 -1      1043-8.97769E+01-8.97778E+01-2.09482E+02-1.01033E-12-2.65025E-07 1.24469E+02
 -1      1044-1.10021E+03-1.10022E+03-2.56714E+03-2.55320E-03 1.89389E+02-1.26778E+03
 -1      1045-9.09254E+01-9.09263E+01-2.12162E+02 1.74132E-05-3.99903E+00 1.26456E+02
 -1      1046-1.01020E+03-1.01021E+03-2.35712E+03-4.46618E-03 3.51619E+02-1.17716E+03
 -1      1047-9.41371E+01-9.41379E+01-2.19655E+02 2.14324E-05-6.79962E+00 1.32131E+02
 -1      1048-8.82140E+02-8.82146E+02-2.05832E+03-5.31620E-03 4.66357E+02-1.05207E+03
 -1      1049-9.87335E+01-9.87344E+01-2.30380E+02 8.20206E-07-7.06931E+00 1.40618E+02
 -1      1050-7.52522E+02-7.52525E+02-1.75588E+03-5.00630E-03 5.28421E+02-9.28982E+02
 -1      1051-1.03846E+02-1.03847E+02-2.42309E+02-5.04865E-05-3.03741E+00 1.50412E+02
 -1      1052-6.67219E+02-6.67223E+02-1.55684E+03-3.73688E-03 5.65105E+02-8.50845E+02
 -1      1053-1.07016E+02-1.07017E+02-2.49706E+02-1.14528E-04 8.46352E+00 1.59168E+02
 -1      1054-9.37609E+02-9.37613E+02-2.18775E+03-3.47779E-03 6.91150E+02-8.64526E+02
 -1      1055-1.10360E+02-1.10362E+02-2.57509E+02-1.20508E-04 3.31429E+01 1.60946E+02
 -1      1056-2.65062E+02-7.67972E+01-1.08330E+03-6.16995E+01-2.83220E+02-6.64197E+02
 -1      1057-1.25645E+02-2.56858E+01-1.73860E+02-2.45826E-01-3.32532E+00 1.30434E+02
 -1      1058-2.25001E+02-1.68189E+02-1.04077E+03-1.02328E+02-3.95819E+02-6.33067E+02
 -1      1059-1.19179E+02-4.49239E+01-1.87347E+02 9.95342E-01 2.43085E+00 1.20749E+02
 -1      1060-3.05206E+02-3.39042E+02-1.25283E+03-1.63966E+02-4.97084E+02-7.08689E+02
 -1      1061-1.24629E+02-7.48237E+01-1.92092E+02-6.52759E-01 7.80363E+00 1.12596E+02
 -1      1062-3.45224E+02-3.20278E+02-1.48851E+03-1.75639E+02-4.55254E+02-8.24011E+02
 -1      1063-1.30704E+02-9.19166E+01-1.91988E+02-5.82708E-01 1.00367E+01 1.04462E+02
 -1      1064-3.71122E+02-2.60867E+02-1.69863E+03-1.44236E+02-3.48225E+02-9.38695E+02
 -1      1065-1.36719E+02-1.02096E+02-1.90297E+02-3.65346E-01 8.60575E+00 9.74108E+01
 -1      1066-3.87322E+02-2.11979E+02-1.84297E+03-8.05766E+01-1.88244E+02-1.02082E+03
 -1      1067-1.41225E+02-1.07844E+02-1.88788E+02-1.63340E-01 4.90181E+00 9.26610E+01
 -1      1068-3.92750E+02-1.93552E+02-1.89381E+03-1.27420E-06 1.17323E-05-1.05039E+03
 -1      1069-1.42884E+02-1.09720E+02-1.88191E+02 1.71365E-08-2.64316E-07 9.09905E+01
 -1      1070-3.87322E+02-2.11979E+02-1.84297E+03 8.05766E+01 1.88244E+02-1.02082E+03
 -1      1071-1.41225E+02-1.07844E+02-1.88788E+02 1.63340E-01-4.90181E+00 9.26610E+01
 -1      1072-3.71122E+02-2.60867E+02-1.69863E+03 1.44236E+02 3.48225E+02-9.38695E+02
 -1      1073-1.36719E+02-1.02096E+02-1.90297E+02 3.65346E-01-8.60575E+00 9.74108E+01
 -1      1074-3.45224E+02-3.20278E+02-1.48851E+03 1.75639E+02 4.55254E+02-8.24011E+02
 -1      1075-1.30704E+02-9.19166E+01-1.91988E+02 5.82708E-01-1.00367E+01 1.04462E+02
 -1      1076-3.05206E+02-3.39042E+02-1.25283E+03 1.63966E+02 4.97084E+02-7.08689E+02
 -1      1077-1.24629E+02-7.48237E+01-1.92092E+02 6.52759E-01-7.80363E+00 1.12596E+02
 -1      1078-2.25001E+02-1.68189E+02-1.04077E+03 1.02328E+02 3.95819E+02-6.33067E+02
 -1      1079-1.19179E+02-4.49239E+01-1.87347E+02-9.95342E-01-2.43085E+00 1.20749E+02
 -1      1080-2.65062E+02-7.67972E+01-1.08330E+03 6.16995E+01 2.83220E+02-6.64197E+02
 -1      1081-1.25645E+02-2.56858E+01-1.73860E+02 2.45826E-01 3.32532E+00 1.30434E+02
 -1      1082 3.36640E+01 4.44425E+01 1.11394E+01-1.53831E+02-7.57139E+01-3.72025E+02
 -1      1083-1.43980E+02-3.95042E+01-8.84786E+01 6.34173E+00 1.54415E+01 9.43088E+01
 -1      1084-3.83504E+01-4.93677E+01-4.55806E+02-1.98302E+02-2.29456E+02-3.56854E+02
 -1      1085-1.29295E+02-4.17483E+01-1.01712E+02 3.19924E+00 1.18989E+01 8.01990E+01
 -1      1086-1.79427E+01 3.60881E+01-6.25735E+02-2.74317E+02-3.39264E+02-4.30158E+02
 -1      1087-1.24675E+02-5.16484E+01-1.04176E+02-2.61027E-01 1.42994E+01 7.35418E+01
 -1      1088-1.89992E+01 1.37766E+02-8.20995E+02-2.86288E+02-3.42468E+02-5.37734E+02
 -1      1089-1.30099E+02-6.92486E+01-1.09053E+02-1.18394E+00 1.26577E+01 6.75978E+01
 -1      1090-7.91940E+00 2.80052E+02-9.81341E+02-2.32449E+02-2.67501E+02-6.42374E+02
 -1      1091-1.38242E+02-8.41683E+01-1.13269E+02-1.10838E+00 9.74207E+00 6.23339E+01
 -1      1092 4.71080E+00 3.92969E+02-1.08282E+03-1.29039E+02-1.45062E+02-7.14950E+02
 -1      1093-1.44880E+02-9.38474E+01-1.15918E+02-6.11810E-01 5.33334E+00 5.86492E+01
 -1      1094 1.01915E+01 4.35133E+02-1.11656E+03-4.27587E-07 1.53579E-05-7.40362E+02
 -1      1095-1.47400E+02-9.71946E+01-1.16809E+02 3.14315E-08-2.20026E-07 5.73077E+01
 -1      1096 4.71080E+00 3.92969E+02-1.08282E+03 1.29039E+02 1.45062E+02-7.14950E+02
 -1      1097-1.44880E+02-9.38474E+01-1.15918E+02 6.11810E-01-5.33334E+00 5.86492E+01
 -1      1098-7.91939E+00 2.80052E+02-9.81341E+02 2.32449E+02 2.67501E+02-6.42374E+02
 -1      1099-1.38242E+02-8.41683E+01-1.13269E+02 1.10838E+00-9.74207E+00 6.23339E+01
 -1      1100-1.89992E+01 1.37766E+02-8.20995E+02 2.86288E+02 3.42468E+02-5.37734E+02
 -1      1101-1.30099E+02-6.92486E+01-1.09053E+02 1.18394E+00-1.26577E+01 6.75978E+01
 -1      1102-1.79427E+01 3.60881E+01-6.25735E+02 2.74317E+02 3.39264E+02-4.30158E+02
 -1      1103-1.24675E+02-5.16484E+01-1.04176E+02 2.61027E-01-1.42994E+01 7.35418E+01
 -1      1104-3.83504E+01-4.93677E+01-4.55806E+02 1.98302E+02 2.29456E+02-3.56854E+02
 -1      1105-1.29295E+02-4.17483E+01-1.01712E+02-3.19924E+00-1.18989E+01 8.01990E+01
 -1      1106 3.36641E+01 4.44425E+01 1.11396E+01 1.53831E+02 7.57139E+01-3.72025E+02
 -1      1107-1.43980E+02-3.95042E+01-8.84786E+01-6.34173E+00-1.54415E+01 9.43088E+01
 -1      1108 1.71055E+02 1.18175E+02 4.97505E+02-1.77497E+02-3.01721E+01-1.52985E+02
 -1      1109-1.27462E+02-3.55110E+01-3.99573E+01 6.64538E+00 1.08126E+01 5.51361E+01
 -1      1110 9.08540E+01 3.51512E+01-1.07358E+00-2.42031E+02-9.44916E+01-1.73092E+02
 -1      1111-1.07052E+02-3.12869E+01-3.67048E+01 3.32742E+00 1.20685E+01 4.65713E+01
 -1      1112 1.10375E+02 1.72325E+02-2.19947E+02-3.40387E+02-1.80466E+02-2.56205E+02
 -1      1113-9.91440E+01-3.81517E+01-4.39164E+01-2.39057E-01 1.49133E+01 4.15921E+01
 -1      1114 1.44559E+02 3.60646E+02-3.58077E+02-3.54591E+02-2.09466E+02-3.77268E+02
 -1      1115-9.61345E+01-4.86166E+01-4.86588E+01-1.59762E+00 1.32922E+01 3.76299E+01
 -1      1116 1.76937E+02 5.47305E+02-4.61677E+02-2.85634E+02-1.72447E+02-4.95438E+02
 -1      1117-9.73667E+01-6.07460E+01-5.28713E+01-1.63642E+00 9.96031E+00 3.41496E+01
 -1      1118 2.05524E+02 6.86266E+02-5.12295E+02-1.56101E+02-9.29676E+01-5.71028E+02
 -1      1119-9.97231E+01-6.96333E+01-5.56073E+01-9.99763E-01 5.43842E+00 3.14845E+01
 -1      1120 2.16973E+02 7.36442E+02-5.25422E+02 3.71092E-06 2.17885E-05-5.95306E+02
 -1      1121-1.01012E+02-7.30001E+01-5.68423E+01 3.35076E-08-1.82152E-07 3.04851E+01
 -1      1122 2.05524E+02 6.86266E+02-5.12295E+02 1.56101E+02 9.29676E+01-5.71028E+02
 -1      1123-9.97231E+01-6.96333E+01-5.56073E+01 9.99763E-01-5.43842E+00 3.14845E+01
 -1      1124 1.76937E+02 5.47305E+02-4.61676E+02 2.85634E+02 1.72447E+02-4.95438E+02
 -1      1125-9.73667E+01-6.07460E+01-5.28713E+01 1.63642E+00-9.96031E+00 3.41496E+01
 -1      1126 1.44560E+02 3.60646E+02-3.58077E+02 3.54591E+02 2.09466E+02-3.77268E+02
 -1      1127-9.61345E+01-4.86166E+01-4.86588E+01 1.59762E+00-1.32922E+01 3.76299E+01
 -1      1128 1.10375E+02 1.72325E+02-2.19947E+02 3.40387E+02 1.80466E+02-2.56205E+02
 -1      1129-9.91440E+01-3.81517E+01-4.39164E+01 2.39057E-01-1.49133E+01 4.15921E+01
 -1      1130 9.08540E+01 3.51512E+01-1.07348E+00 2.42031E+02 9.44916E+01-1.73092E+02
 -1      1131-1.07052E+02-3.12869E+01-3.67048E+01-3.32742E+00-1.20685E+01 4.65713E+01
 -1      1132 1.71055E+02 1.18175E+02 4.97505E+02 1.77497E+02 3.01721E+01-1.52985E+02
 -1      1133-1.27462E+02-3.55110E+01-3.99573E+01-6.64538E+00-1.08126E+01 5.51361E+01
 -1      1134 1.76886E+02 9.14046E+01 5.20930E+02-1.49767E+02 1.01911E+01 3.64684E+01
 -1      1135-8.55399E+01-2.58063E+01-1.68059E+01 4.08720E+00 5.75449E+00 2.25496E+01
 -1      1136 1.28258E+02 4.27905E+01 1.61725E+02-2.20938E+02 8.94002E+00-3.47971E+01
 -1      1137-6.50028E+01-1.95882E+01-6.13676E+00 1.14757E+00 7.62900E+00 2.13385E+01
 -1      1138 1.52417E+02 1.75428E+02 9.35135E+00-3.33788E+02-2.78233E+01-1.15087E+02
 -1      1139-5.03462E+01-2.19972E+01-5.77783E+00-1.68885E+00 1.07560E+01 1.85520E+01
 -1      1140 1.89974E+02 3.66932E+02-7.25435E+01-3.61331E+02-6.54228E+01-2.53806E+02
 -1      1141-3.55827E+01-2.47548E+01-1.03892E+00-2.35136E+00 9.66164E+00 1.31811E+01
 -1      1142 2.26624E+02 5.52301E+02-1.11311E+02-2.84749E+02-5.87810E+01-3.90193E+02
 -1      1143-2.42107E+01-2.85864E+01 5.19195E+00-2.18688E+00 7.81319E+00 7.68874E+00
 -1      1144 2.56590E+02 6.74371E+02-1.09619E+02-1.46249E+02-2.79276E+01-4.57507E+02
 -1      1145-1.84710E+01-3.27391E+01 8.63830E+00-1.34872E+00 4.65084E+00 5.23120E+00
 -1      1146 2.68214E+02 7.13952E+02-1.02661E+02 1.68312E-05 2.60547E-05-4.74843E+02
 -1      1147-1.68530E+01-3.46740E+01 9.35217E+00 2.99990E-08-1.47024E-07 4.14966E+00
 -1      1148 2.56590E+02 6.74371E+02-1.09618E+02 1.46249E+02 2.79277E+01-4.57507E+02
 -1      1149-1.84710E+01-3.27391E+01 8.63830E+00 1.34872E+00-4.65084E+00 5.23120E+00
 -1      1150 2.26624E+02 5.52301E+02-1.11311E+02 2.84749E+02 5.87811E+01-3.90193E+02
 -1      1151-2.42107E+01-2.85864E+01 5.19195E+00 2.18688E+00-7.81319E+00 7.68874E+00
 -1      1152 1.89974E+02 3.66932E+02-7.25433E+01 3.61331E+02 6.54228E+01-2.53806E+02
 -1      1153-3.55827E+01-2.47548E+01-1.03892E+00 2.35136E+00-9.66164E+00 1.31811E+01
 -1      1154 1.52417E+02 1.75428E+02 9.35150E+00 3.33788E+02 2.78233E+01-1.15087E+02
 -1      1155-5.03462E+01-2.19972E+01-5.77783E+00 1.68885E+00-1.07560E+01 1.85520E+01
 -1      1156 1.28258E+02 4.27905E+01 1.61725E+02 2.20938E+02-8.94006E+00-3.47971E+01
 -1      1157-6.50028E+01-1.95882E+01-6.13676E+00-1.14757E+00-7.62900E+00 2.13385E+01
 -1      1158 1.76886E+02 9.14046E+01 5.20930E+02 1.49767E+02-1.01911E+01 3.64684E+01
 -1      1159-8.55399E+01-2.58063E+01-1.68059E+01-4.08720E+00-5.75449E+00 2.25496E+01
 -1      1160 1.45602E+02 6.85348E+01 3.06108E+02-5.98303E+01 3.09397E+01 1.16755E+02
 -1      1161-3.01861E+01-9.30817E+00-1.53416E+00-4.96474E-01 2.21078E+00 5.90115E+00
 -1      1162 1.24664E+02 3.95158E+01 1.30892E+02-9.40234E+01 6.28672E+01 3.48186E+01
 -1      1163-1.70346E+01-8.81826E+00 6.38838E+00-3.08134E+00 4.18247E+00 8.85992E+00
 -1      1164 1.47691E+02 1.01762E+02 5.41316E+01-1.87336E+02 6.72610E+01-1.54287E+01
 -1      1165-2.31665E+00-1.29467E+01 1.34951E+01-9.84032E+00 8.55253E+00 7.69554E+00
 -1      1166 1.64586E+02 2.05669E+02 1.46111E+01-2.41361E+02 4.26901E+01-1.63267E+02
 -1      1167-6.28471E+00-2.20530E+01 4.48804E+00-1.41614E+01 1.01139E+01 6.98023E+00
 -1      1168 1.78200E+02 3.04576E+02 1.06080E+01-1.64213E+02 3.08606E+01-3.11265E+02
 -1      1169-1.65243E+01-3.18729E+01-6.88131E+00-9.57096E+00 8.15006E+00 6.35661E+00
 -1      1170 1.93150E+02 3.52288E+02 2.57527E+01-5.89780E+01 2.15201E+01-3.54489E+02
 -1      1171-1.22189E+01-3.57503E+01-1.01270E+00-3.36732E+00 4.17788E+00 4.69975E+00
 -1      1172 1.96698E+02 3.60629E+02 3.39564E+01 4.62763E-05 1.90454E-05-3.55480E+02
 -1      1173-1.24856E+01-3.98212E+01-1.10650E+00 1.58945E-08-7.91943E-08 3.74214E+00
 -1      1174 1.93149E+02 3.52288E+02 2.57528E+01 5.89781E+01-2.15201E+01-3.54489E+02
 -1      1175-1.22189E+01-3.57503E+01-1.01270E+00 3.36732E+00-4.17788E+00 4.69975E+00
 -1      1176 1.78200E+02 3.04576E+02 1.06081E+01 1.64213E+02-3.08606E+01-3.11265E+02
 -1      1177-1.65243E+01-3.18729E+01-6.88131E+00 9.57096E+00-8.15006E+00 6.35661E+00
 -1      1178 1.64586E+02 2.05668E+02 1.46113E+01 2.41361E+02-4.26902E+01-1.63267E+02
 -1      1179-6.28471E+00-2.20530E+01 4.48804E+00 1.41614E+01-1.01139E+01 6.98023E+00
 -1      1180 1.47691E+02 1.01762E+02 5.41316E+01 1.87336E+02-6.72611E+01-1.54287E+01
 -1      1181-2.31665E+00-1.29467E+01 1.34951E+01 9.84032E+00-8.55253E+00 7.69554E+00
 -1      1182 1.24664E+02 3.95158E+01 1.30892E+02 9.40233E+01-6.28673E+01 3.48186E+01
 -1      1183-1.70346E+01-8.81826E+00 6.38838E+00 3.08134E+00-4.18247E+00 8.85992E+00
 -1      1184 1.45602E+02 6.85348E+01 3.06108E+02 5.98303E+01-3.09397E+01 1.16755E+02
 -1      1185-3.01861E+01-9.30818E+00-1.53416E+00 4.96474E-01-2.21078E+00 5.90115E+00
 -1      1186 1.31156E+02 6.29866E+01 1.70845E+02 1.00532E+02 2.91637E+01 1.13345E+02
 -1      1187 9.31469E+00 8.72431E-01 9.59520E+00-7.64185E+00 1.16816E+00 3.15964E+00
 -1      1188 1.45436E+02 6.04227E+01 9.63316E+01 1.50284E+02 6.23477E+01 3.34182E+01
 -1      1189 1.76750E+01-1.12527E+00 1.44275E+01-1.04288E+01 3.94459E+00 7.21976E+00
 -1      1190 2.14519E+02 8.09759E+01 6.33374E+01 2.31000E+02 8.26037E+01 2.45598E+01
 -1      1191 2.84322E+01-5.17534E+00 2.38664E+01-1.31441E+01 5.54921E+00 8.68163E+00
 -1      1192 3.02253E+02 6.01814E+01 4.03193E+01 2.48923E+02 7.48412E+01-2.17080E+02
 -1      1193 3.16942E+01-1.62335E+01 5.25843E+00-1.08049E+01 3.57013E+00 6.74854E+00
 -1      1194 3.93419E+02 2.98547E+01 4.95024E+01 1.86384E+02 5.95271E+01-4.52188E+02
 -1      1195 2.95840E+01-2.72607E+01-1.80062E+01-9.35588E+00 5.01739E+00 3.98246E+00
 -1      1196 4.54514E+02 2.38430E+01 7.08034E+01 8.79321E+01 3.44189E+01-4.40638E+02
 -1      1197 3.01514E+01-2.68119E+01-1.17740E+01-6.35594E+00 4.24962E+00 3.94995E+00
 -1      1198 4.78573E+02 3.06920E+01 8.53363E+01 1.86383E-04 2.47074E-05-4.32523E+02
 -1      1199 2.75740E+01-2.82081E+01-1.22596E+01 3.03460E-08-3.33403E-08 2.92038E+00
 -1      1200 4.54513E+02 2.38429E+01 7.08034E+01-8.79318E+01-3.44189E+01-4.40638E+02
 -1      1201 3.01514E+01-2.68119E+01-1.17740E+01 6.35594E+00-4.24962E+00 3.94995E+00
 -1      1202 3.93419E+02 2.98545E+01 4.95024E+01-1.86383E+02-5.95271E+01-4.52188E+02
 -1      1203 2.95840E+01-2.72607E+01-1.80062E+01 9.35588E+00-5.01739E+00 3.98246E+00
 -1      1204 3.02253E+02 6.01812E+01 4.03193E+01-2.48923E+02-7.48414E+01-2.17080E+02
 -1      1205 3.16942E+01-1.62335E+01 5.25843E+00 1.08049E+01-3.57013E+00 6.74854E+00
 -1      1206 2.14519E+02 8.09761E+01 6.33375E+01-2.31000E+02-8.26038E+01 2.45598E+01
 -1      1207 2.84322E+01-5.17534E+00 2.38664E+01 1.31441E+01-5.54921E+00 8.68163E+00
 -1      1208 1.45436E+02 6.04227E+01 9.63316E+01-1.50284E+02-6.23477E+01 3.34182E+01
 -1      1209 1.76750E+01-1.12527E+00 1.44275E+01 1.04288E+01-3.94459E+00 7.21976E+00
 -1      1210 1.31156E+02 6.29866E+01 1.70845E+02-1.00532E+02-2.91638E+01 1.13345E+02
 -1      1211 9.31469E+00 8.72431E-01 9.59520E+00 7.64185E+00-1.16816E+00 3.15964E+00
 -1      1212-8.94657E+02-8.94660E+02-2.08752E+03 4.78916E-03-9.17297E+02-7.68794E+02
 -1      1213-8.94657E+02-8.94660E+02-2.08752E+03-4.78916E-03 9.17297E+02-7.68794E+02
 -1      1214-1.55140E+03-1.55139E+03-3.61990E+03 7.10880E-03-1.53937E+03-7.17329E+02
 -1      1215-1.55140E+03-1.55139E+03-3.61990E+03-7.10880E-03 1.53937E+03-7.17329E+02
 -1      1216-1.96486E+03-1.96485E+03-4.58464E+03 5.04967E-03-1.96241E+03-4.41073E+02
 -1      1217-1.96486E+03-1.96485E+03-4.58464E+03-5.04967E-03 1.96241E+03-4.41073E+02
 -1      1218-2.13409E+03-2.13408E+03-4.97950E+03 2.23669E-03-2.14195E+03-1.94915E+02
 -1      1219-2.13409E+03-2.13408E+03-4.97950E+03-2.23669E-03 2.14195E+03-1.94915E+02
 -1      1220-2.16164E+03-2.16163E+03-5.04378E+03 5.65074E-04-2.18228E+03-5.67720E+01
 -1      1221-2.16164E+03-2.16163E+03-5.04378E+03-5.65074E-04 2.18228E+03-5.67720E+01
 -1      1222-2.15194E+03-2.15192E+03-5.02114E+03-5.64087E-05-2.17888E+03-1.04261E+00
 -1      1223-2.15194E+03-2.15192E+03-5.02114E+03 5.64087E-05 2.17888E+03-1.04261E+00
 -1      1224-2.14447E+03-2.14446E+03-5.00371E+03-2.40017E-04-2.17194E+03 1.79745E+01
 -1      1225-2.14447E+03-2.14446E+03-5.00372E+03 2.40017E-04 2.17194E+03 1.79744E+01
 -1      1226-2.14388E+03-2.14386E+03-5.00233E+03-3.14817E-04-2.16981E+03 2.61516E+01
 -1      1227-2.14388E+03-2.14386E+03-5.00233E+03 3.14817E-04 2.16981E+03 2.61516E+01
 -1      1228-2.14614E+03-2.14613E+03-5.00762E+03-3.74110E-04-2.17064E+03 3.19204E+01
 -1      1229-2.14614E+03-2.14613E+03-5.00762E+03 3.74110E-04 2.17064E+03 3.19204E+01
 -1      1230-2.14850E+03-2.14849E+03-5.01313E+03-4.28051E-04-2.17214E+03 3.68267E+01
 -1      1231-2.14850E+03-2.14849E+03-5.01313E+03 4.28051E-04 2.17214E+03 3.68267E+01
 -1      1232-2.15012E+03-2.15011E+03-5.01691E+03-4.78899E-04-2.17323E+03 4.13815E+01
 -1      1233-2.15012E+03-2.15011E+03-5.01691E+03 4.78899E-04 2.17323E+03 4.13815E+01
 -1      1234-2.15055E+03-2.15053E+03-5.01790E+03-5.42563E-04-2.17312E+03 4.69645E+01
 -1      1235-2.15055E+03-2.15053E+03-5.01790E+03 5.42563E-04 2.17312E+03 4.69645E+01
 -1      1236-2.14776E+03-2.14775E+03-5.01140E+03-6.49631E-04-2.16981E+03 5.58900E+01
 -1      1237-2.14776E+03-2.14775E+03-5.01140E+03 6.49631E-04 2.16981E+03 5.58900E+01
 -1      1238-2.13675E+03-2.13674E+03-4.98570E+03-8.14173E-04-2.15939E+03 6.89079E+01
 -1      1239-2.13675E+03-2.13674E+03-4.98570E+03 8.14173E-04 2.15939E+03 6.89079E+01
 -1      1240-2.11262E+03-2.11261E+03-4.92940E+03-9.36358E-04-2.13949E+03 7.81127E+01
 -1      1241-2.11262E+03-2.11261E+03-4.92940E+03 9.36358E-04 2.13949E+03 7.81127E+01
 -1      1242-2.08734E+03-2.08732E+03-4.87041E+03-7.34796E-04-2.12101E+03 6.32384E+01
 -1      1243-2.08734E+03-2.08732E+03-4.87041E+03 7.34796E-04 2.12101E+03 6.32384E+01
 -1      1244-2.11292E+03-2.11291E+03-4.93010E+03-1.19500E-04-2.14111E+03 2.59086E+01
 -1      1245-2.11292E+03-2.11291E+03-4.93010E+03 1.19500E-04 2.14111E+03 2.59086E+01
 -1      1246-2.23276E+03-2.23274E+03-5.20971E+03-5.35153E-04-2.22899E+03 8.07781E+01
 -1      1247-2.23276E+03-2.23274E+03-5.20971E+03 5.35153E-04 2.22899E+03 8.07781E+01
 -1      1248-2.26282E+03-2.26280E+03-5.27986E+03-5.34058E-03-2.22607E+03 4.23637E+02
 -1      1249-2.26282E+03-2.26280E+03-5.27986E+03 5.34058E-03 2.22607E+03 4.23637E+02
 -1      1250-1.70435E+03-1.70435E+03-3.97679E+03-9.61564E-03-1.68964E+03 8.74074E+02
 -1      1251-1.70435E+03-1.70435E+03-3.97679E+03 9.61564E-03 1.68964E+03 8.74074E+02
 -1      1252-7.13468E+02-7.13476E+02-1.66477E+03-5.13381E-03-7.56484E+02 8.88768E+02
 -1      1253-7.13468E+02-7.13476E+02-1.66477E+03 5.13381E-03 7.56484E+02 8.88768E+02
 -1      1254-1.55197E+02-1.55204E+02-3.62139E+02-9.56757E-04-2.13999E+02 5.26064E+02
 -1      1255-1.55197E+02-1.55204E+02-3.62139E+02 9.56757E-04 2.13999E+02 5.26064E+02
 -1      1256 3.90321E+00 3.90025E+00 9.10172E+00 1.69521E-05-3.77390E+01 2.36847E+02
 -1      1257 3.90321E+00 3.90025E+00 9.10172E+00-1.69521E-05 3.77390E+01 2.36847E+02
 -1      1258-3.19233E+02-8.45284E+01-1.19220E+03-6.45497E+01-4.37734E+02-7.32137E+02
 -1      1259-3.19233E+02-8.45284E+01-1.19220E+03 6.45497E+01 4.37734E+02-7.32137E+02
 -1      1260-5.18783E+02-1.82229E+02-2.02042E+03-6.69313E+01-7.45858E+02-6.92766E+02
 -1      1261-5.18783E+02-1.82229E+02-2.02042E+03 6.69313E+01 7.45858E+02-6.92766E+02
 -1      1262-6.09414E+02-2.29528E+02-2.55644E+03-3.88641E+01-9.53286E+02-4.25758E+02
 -1      1263-6.09414E+02-2.29528E+02-2.55644E+03 3.88641E+01 9.53286E+02-4.25758E+02
 -1      1264-7.37489E+02-2.44647E+02-2.76874E+03-1.28748E+01-1.03266E+03-1.86342E+02
 -1      1265-7.37489E+02-2.44647E+02-2.76874E+03 1.28748E+01 1.03266E+03-1.86342E+02
 -1      1266-8.34076E+02-2.54350E+02-2.80592E+03-7.55488E-01-1.04816E+03-5.36225E+01
 -1      1267-8.34076E+02-2.54350E+02-2.80592E+03 7.55488E-01 1.04816E+03-5.36225E+01
 -1      1268-8.84368E+02-2.59020E+02-2.79682E+03 2.08876E+00-1.04488E+03-7.10787E-01
 -1      1269-8.84368E+02-2.59020E+02-2.79682E+03-2.08876E+00 1.04488E+03-7.10791E-01
 -1      1270-9.04052E+02-2.61486E+02-2.79128E+03 1.77488E+00-1.04107E+03 1.73894E+01
 -1      1271-9.04052E+02-2.61486E+02-2.79128E+03-1.77488E+00 1.04107E+03 1.73894E+01
 -1      1272-9.10689E+02-2.62396E+02-2.79336E+03 1.09976E+00-1.03983E+03 2.54251E+01
 -1      1273-9.10689E+02-2.62396E+02-2.79336E+03-1.09976E+00 1.03983E+03 2.54251E+01
 -1      1274-9.13583E+02-2.62743E+02-2.79793E+03 7.40519E-01-1.04007E+03 3.12117E+01
 -1      1275-9.13583E+02-2.62743E+02-2.79793E+03-7.40519E-01 1.04007E+03 3.12117E+01
 -1      1276-9.15321E+02-2.62900E+02-2.80181E+03 6.37646E-01-1.04067E+03 3.61040E+01
 -1      1277-9.15321E+02-2.62900E+02-2.80181E+03-6.37646E-01 1.04067E+03 3.61040E+01
 -1      1278-9.15767E+02-2.62905E+02-2.80427E+03 6.84691E-01-1.04113E+03 4.05744E+01
 -1      1279-9.15767E+02-2.62905E+02-2.80427E+03-6.84691E-01 1.04113E+03 4.05744E+01
 -1      1280-9.14009E+02-2.62686E+02-2.80494E+03 9.28949E-01-1.04111E+03 4.59766E+01
 -1      1281-9.14009E+02-2.62686E+02-2.80494E+03-9.28949E-01 1.04111E+03 4.59766E+01
 -1      1282-9.09616E+02-2.62292E+02-2.80144E+03 1.55411E+00-1.03970E+03 5.46311E+01
 -1      1283-9.09616E+02-2.62292E+02-2.80144E+03-1.55411E+00 1.03970E+03 5.46311E+01
 -1      1284-9.05128E+02-2.61966E+02-2.78720E+03 2.59211E+00-1.03504E+03 6.75148E+01
 -1      1285-9.05128E+02-2.61966E+02-2.78720E+03-2.59211E+00 1.03504E+03 6.75148E+01
 -1      1286-9.07102E+02-2.61106E+02-2.75435E+03 3.09077E+00-1.02559E+03 7.72945E+01
 -1      1287-9.07102E+02-2.61106E+02-2.75435E+03-3.09077E+00 1.02559E+03 7.72945E+01
 -1      1288-9.14150E+02-2.56583E+02-2.71516E+03 4.69919E-02-1.01547E+03 6.35186E+01
 -1      1289-9.14150E+02-2.56583E+02-2.71516E+03-4.69919E-02 1.01547E+03 6.35186E+01
 -1      1290-8.88431E+02-2.46764E+02-2.73999E+03-7.55546E+00-1.02239E+03 2.43723E+01
 -1      1291-8.88431E+02-2.46764E+02-2.73999E+03 7.55546E+00 1.02239E+03 2.43723E+01
 -1      1292-7.72475E+02-2.47336E+02-2.90206E+03-3.71806E+00-1.06901E+03 7.02671E+01
 -1      1293-7.72475E+02-2.47336E+02-2.90206E+03 3.71806E+00 1.06901E+03 7.02671E+01
 -1      1294-6.29685E+02-2.71357E+02-2.97345E+03 3.87615E+01-1.08898E+03 4.04963E+02
 -1      1295-6.29685E+02-2.71357E+02-2.97345E+03-3.87615E+01 1.08898E+03 4.04963E+02
 -1      1296-5.35199E+02-2.15651E+02-2.24020E+03 9.56413E+01-8.27386E+02 8.55222E+02
 -1      1297-5.35199E+02-2.15651E+02-2.24020E+03-9.56413E+01 8.27386E+02 8.55222E+02
 -1      1298-4.43680E+02-7.42914E+01-9.01958E+02 9.70197E+01-3.44012E+02 8.67288E+02
 -1      1299-4.43680E+02-7.42914E+01-9.01958E+02-9.70197E+01 3.44012E+02 8.67288E+02
 -1      1300-3.46811E+02-3.18405E+01-1.82531E+02 4.93070E+01-8.82844E+01 5.04473E+02
 -1      1301-3.46811E+02-3.18405E+01-1.82531E+02-4.93070E+01 8.82844E+01 5.04473E+02
 -1      1302-1.65730E+02-2.30481E+01-1.99090E+00 9.57701E+00-1.60073E+01 2.21722E+02
 -1      1303-1.65730E+02-2.30481E+01-1.99090E+00-9.57701E+00 1.60073E+01 2.21722E+02
 -1      1304 3.99274E+01 1.15860E+02-2.71325E+02-1.19903E+02-2.14814E+02-5.10934E+02
 -1      1305 3.99274E+01 1.15860E+02-2.71325E+02 1.19903E+02 2.14814E+02-5.10934E+02
 -1      1306 2.05611E+02 1.58079E+02-3.47827E+02-1.13409E+02-3.85932E+02-4.64538E+02
 -1      1307 2.05611E+02 1.58079E+02-3.47827E+02 1.13409E+02 3.85932E+02-4.64537E+02
 -1      1308 2.84218E+02 2.07555E+02-4.42816E+02-6.39525E+01-4.92837E+02-2.85953E+02
 -1      1309 2.84218E+02 2.07555E+02-4.42816E+02 6.39525E+01 4.92837E+02-2.85953E+02
 -1      1310 2.02576E+02 2.31886E+02-4.50390E+02-2.00096E+01-5.22824E+02-1.25471E+02
 -1      1311 2.02576E+02 2.31886E+02-4.50390E+02 2.00096E+01 5.22824E+02-1.25471E+02
 -1      1312 8.02787E+01 2.31394E+02-4.31393E+02-6.02439E-01-5.24865E+02-3.76403E+01
 -1      1313 8.02787E+01 2.31394E+02-4.31393E+02 6.02439E-01 5.24865E+02-3.76403E+01
 -1      1314-1.96715E-01 2.23547E+02-4.21033E+02 3.83770E+00-5.21421E+02-7.58030E-01
 -1      1315-1.96719E-01 2.23547E+02-4.21033E+02-3.83770E+00 5.21421E+02-7.58034E-01
 -1      1316-3.69495E+01 2.17877E+02-4.22593E+02 3.31294E+00-5.19288E+02 1.46414E+01
 -1      1317-3.69495E+01 2.17877E+02-4.22593E+02-3.31294E+00 5.19288E+02 1.46414E+01
 -1      1318-5.05288E+01 2.15497E+02-4.27927E+02 2.24446E+00-5.18659E+02 2.32938E+01
 -1      1319-5.05288E+01 2.15497E+02-4.27927E+02-2.24446E+00 5.18659E+02 2.32938E+01
 -1      1320-5.57664E+01 2.14882E+02-4.32358E+02 1.67613E+00-5.18707E+02 2.95289E+01
 -1      1321-5.57664E+01 2.14882E+02-4.32358E+02-1.67613E+00 5.18707E+02 2.95289E+01
 -1      1322-5.81778E+01 2.14860E+02-4.35003E+02 1.51363E+00-5.18914E+02 3.42873E+01
 -1      1323-5.81778E+01 2.14860E+02-4.35003E+02-1.51363E+00 5.18914E+02 3.42873E+01
 -1      1324-5.84922E+01 2.15043E+02-4.36499E+02 1.58866E+00-5.19092E+02 3.81614E+01
 -1      1325-5.84922E+01 2.15043E+02-4.36499E+02-1.58866E+00 5.19092E+02 3.81614E+01
 -1      1326-5.60578E+01 2.15252E+02-4.37632E+02 1.97387E+00-5.19128E+02 4.22573E+01
 -1      1327-5.60578E+01 2.15252E+02-4.37632E+02-1.97387E+00 5.19128E+02 4.22573E+01
 -1      1328-5.15106E+01 2.14889E+02-4.38288E+02 2.96079E+00-5.18693E+02 4.83845E+01
 -1      1329-5.15106E+01 2.14889E+02-4.38288E+02-2.96079E+00 5.18693E+02 4.83845E+01
 -1      1330-5.06304E+01 2.12704E+02-4.35510E+02 4.62925E+00-5.16917E+02 5.80789E+01
 -1      1331-5.06304E+01 2.12704E+02-4.35510E+02-4.62925E+00 5.16917E+02 5.80789E+01
 -1      1332-6.38814E+01 2.09117E+02-4.21885E+02 5.66734E+00-5.12321E+02 6.81180E+01
 -1      1333-6.38814E+01 2.09117E+02-4.21885E+02-5.66734E+00 5.12321E+02 6.81180E+01
 -1      1334-8.23847E+01 2.11463E+02-3.95727E+02 1.46484E+00-5.04798E+02 6.41633E+01
 -1      1335-8.23847E+01 2.11463E+02-3.95727E+02-1.46484E+00 5.04798E+02 6.41633E+01
 -1      1336-2.98966E+01 2.30729E+02-3.97898E+02-1.15073E+01-5.02598E+02 3.67567E+01
 -1      1337-2.98966E+01 2.30729E+02-3.97898E+02 1.15073E+01 5.02598E+02 3.67567E+01
 -1      1338 1.91521E+02 2.50720E+02-4.95523E+02-9.34760E+00-5.31323E+02 5.12321E+01
 -1      1339 1.91521E+02 2.50720E+02-4.95523E+02 9.34760E+00 5.31323E+02 5.12321E+01
 -1      1340 3.97288E+02 2.09720E+02-6.07651E+02 6.14526E+01-5.80927E+02 2.63780E+02
 -1      1341 3.97288E+02 2.09720E+02-6.07651E+02-6.14526E+01 5.80927E+02 2.63780E+02
 -1      1342 2.15299E+02 1.44137E+02-4.34433E+02 1.63791E+02-4.43984E+02 5.71758E+02
 -1      1343 2.15299E+02 1.44137E+02-4.34433E+02-1.63791E+02 4.43984E+02 5.71758E+02
 -1      1344-2.06785E+02 1.05854E+02-4.89085E+01 1.64252E+02-1.36067E+02 5.74596E+02
 -1      1345-2.06785E+02 1.05854E+02-4.89085E+01-1.64252E+02 1.36067E+02 5.74596E+02
 -1      1346-3.77244E+02 1.94527E+01 1.05175E+02 7.87125E+01-2.13988E+01 3.27081E+02
 -1      1347-3.77244E+02 1.94527E+01 1.05175E+02-7.87125E+01 2.13988E+01 3.27081E+02
 -1      1348-2.25544E+02-2.08061E+01 4.59293E+01 1.91224E+01-4.61026E+00 1.56150E+02
 -1      1349-2.25544E+02-2.08061E+01 4.59293E+01-1.91224E+01 4.61026E+00 1.56150E+02
 -1      1350 2.24322E+02 1.85911E+02 2.26460E+02-1.47077E+02-1.28376E+02-2.23064E+02
 -1      1351 2.24322E+02 1.85911E+02 2.26460E+02 1.47077E+02 1.28376E+02-2.23064E+02
 -1      1352 5.61711E+02 2.72123E+02 5.38184E+02-1.29837E+02-2.62393E+02-2.14398E+02
 -1      1353 5.61711E+02 2.72123E+02 5.38184E+02 1.29837E+02 2.62393E+02-2.14398E+02
 -1      1354 7.18426E+02 3.63297E+02 6.89565E+02-6.81687E+01-3.26779E+02-1.30326E+02
 -1      1355 7.18426E+02 3.63297E+02 6.89565E+02 6.81687E+01 3.26779E+02-1.30326E+02
 -1      1356 6.54924E+02 4.01193E+02 7.62866E+02-1.85899E+01-3.36257E+02-5.85882E+01
 -1      1357 6.54924E+02 4.01193E+02 7.62866E+02 1.85899E+01 3.36257E+02-5.85882E+01
 -1      1358 5.29389E+02 4.04902E+02 7.98077E+02 1.52509E+00-3.31049E+02-1.94676E+01
 -1      1359 5.29389E+02 4.04902E+02 7.98077E+02-1.52509E+00 3.31049E+02-1.94676E+01
 -1      1360 4.38978E+02 3.96973E+02 8.04350E+02 5.56490E+00-3.27114E+02-8.08146E-01
 -1      1361 4.38978E+02 3.96973E+02 8.04350E+02-5.56490E+00 3.27114E+02-8.08148E-01
 -1      1362 3.94184E+02 3.90792E+02 7.99135E+02 4.74454E+00-3.25799E+02 1.08106E+01
 -1      1363 3.94184E+02 3.90792E+02 7.99135E+02-4.74454E+00 3.25799E+02 1.08105E+01
 -1      1364 3.75468E+02 3.88203E+02 7.93060E+02 3.56757E+00-3.25676E+02 1.94895E+01
 -1      1365 3.75468E+02 3.88203E+02 7.93060E+02-3.56757E+00 3.25676E+02 1.94895E+01
 -1      1366 3.67460E+02 3.87555E+02 7.89309E+02 2.99257E+00-3.25841E+02 2.58356E+01
 -1      1367 3.67460E+02 3.87555E+02 7.89309E+02-2.99257E+00 3.25841E+02 2.58356E+01
 -1      1368 3.63752E+02 3.87578E+02 7.87560E+02 2.84702E+00-3.25999E+02 3.02304E+01
 -1      1369 3.63752E+02 3.87578E+02 7.87560E+02-2.84702E+00 3.25999E+02 3.02304E+01
 -1      1370 3.62932E+02 3.87796E+02 7.86697E+02 2.93519E+00-3.26119E+02 3.33131E+01
 -1      1371 3.62932E+02 3.87796E+02 7.86697E+02-2.93519E+00 3.26119E+02 3.33131E+01
 -1      1372 3.65167E+02 3.87964E+02 7.85604E+02 3.33415E+00-3.26230E+02 3.58966E+01
 -1      1373 3.65167E+02 3.87964E+02 7.85604E+02-3.33415E+00 3.26230E+02 3.58966E+01
 -1      1374 3.69456E+02 3.87385E+02 7.83459E+02 4.38701E+00-3.26237E+02 3.92549E+01
 -1      1375 3.69456E+02 3.87385E+02 7.83459E+02-4.38701E+00 3.26237E+02 3.92549E+01
 -1      1376 3.69931E+02 3.84546E+02 7.81034E+02 6.27585E+00-3.25594E+02 4.54215E+01
 -1      1377 3.69931E+02 3.84546E+02 7.81034E+02-6.27585E+00 3.25594E+02 4.54215E+01
 -1      1378 3.56150E+02 3.79425E+02 7.82982E+02 7.87383E+00-3.22543E+02 5.51605E+01
 -1      1379 3.56150E+02 3.79425E+02 7.82982E+02-7.87383E+00 3.22543E+02 5.51605E+01
 -1      1380 3.36449E+02 3.79629E+02 7.94790E+02 4.39145E+00-3.14715E+02 6.02578E+01
 -1      1381 3.36449E+02 3.79629E+02 7.94790E+02-4.39145E+00 3.14715E+02 6.02578E+01
 -1      1382 3.89516E+02 3.99899E+02 7.96369E+02-1.12081E+01-3.07273E+02 4.51104E+01
 -1      1383 3.89516E+02 3.99899E+02 7.96369E+02 1.12081E+01 3.07273E+02 4.51104E+01
 -1      1384 6.33755E+02 4.31122E+02 7.52292E+02-1.74440E+01-3.31684E+02 2.95653E+01
 -1      1385 6.33755E+02 4.31122E+02 7.52292E+02 1.74440E+01 3.31684E+02 2.95653E+01
 -1      1386 8.67364E+02 3.79292E+02 6.99443E+02 6.29229E+01-4.07514E+02 1.09209E+02
 -1      1387 8.67364E+02 3.79292E+02 6.99443E+02-6.29229E+01 4.07514E+02 1.09209E+02
 -1      1388 5.66328E+02 2.63774E+02 5.59711E+02 1.95293E+02-3.13223E+02 2.54539E+02
 -1      1389 5.66328E+02 2.63774E+02 5.59711E+02-1.95293E+02 3.13223E+02 2.54539E+02
 -1      1390-8.51072E+01 1.80868E+02 3.17060E+02 1.91225E+02-4.41321E+01 2.49471E+02
 -1      1391-8.51072E+01 1.80868E+02 3.17060E+02-1.91225E+02 4.41321E+01 2.49471E+02
 -1      1392-3.53618E+02 3.61371E+01 1.92858E+02 8.10475E+01 1.22541E+01 1.34711E+02
 -1      1393-3.53618E+02 3.61371E+01 1.92858E+02-8.10475E+01-1.22541E+01 1.34711E+02
 -1      1394-2.19388E+02-1.91311E+01 5.53098E+01 1.88225E+01 3.62256E+00 7.43377E+01
 -1      1395-2.19388E+02-1.91311E+01 5.53098E+01-1.88225E+01-3.62256E+00 7.43377E+01
 -1      1396 2.40860E+02 8.74363E+01 3.58846E+02-1.28769E+02-4.53981E+01 4.34072E+01
 -1      1397 2.40860E+02 8.74363E+01 3.58846E+02 1.28769E+02 4.53981E+01 4.34072E+01
 -1      1398 5.49559E+02 6.52213E+01 7.52427E+02-1.07305E+02-1.14484E+02 2.69842E+01
 -1      1399 5.49559E+02 6.52213E+01 7.52427E+02 1.07305E+02 1.14484E+02 2.69842E+01
 -1      1400 6.94146E+02 1.23373E+02 9.63119E+02-4.94698E+01-1.37062E+02 3.30272E+00
 -1      1401 6.94146E+02 1.23373E+02 9.63119E+02 4.94698E+01 1.37062E+02 3.30273E+00
 -1      1402 6.43272E+02 1.51915E+02 1.03980E+03-9.26246E+00-1.30670E+02-5.94364E+00
 -1      1403 6.43272E+02 1.51915E+02 1.03980E+03 9.26246E+00 1.30670E+02-5.94364E+00
 -1      1404 5.38698E+02 1.57691E+02 1.06568E+03 5.07035E+00-1.22211E+02-7.24321E+00
 -1      1405 5.38698E+02 1.57691E+02 1.06568E+03-5.07035E+00 1.22211E+02-7.24321E+00
 -1      1406 4.58141E+02 1.53832E+02 1.06692E+03 7.28754E+00-1.19156E+02-2.32494E+00
 -1      1407 4.58141E+02 1.53832E+02 1.06692E+03-7.28754E+00 1.19156E+02-2.32494E+00
 -1      1408 4.12994E+02 1.50031E+02 1.06140E+03 6.30125E+00-1.18871E+02 6.00203E+00
 -1      1409 4.12994E+02 1.50031E+02 1.06140E+03-6.30125E+00 1.18871E+02 6.00203E+00
 -1      1410 3.90588E+02 1.48234E+02 1.05661E+03 5.36829E+00-1.19205E+02 1.38752E+01
 -1      1411 3.90588E+02 1.48234E+02 1.05661E+03-5.36829E+00 1.19205E+02 1.38752E+01
 -1      1412 3.79510E+02 1.47617E+02 1.05400E+03 4.99757E+00-1.19453E+02 1.95445E+01
 -1      1413 3.79510E+02 1.47617E+02 1.05400E+03-4.99757E+00 1.19453E+02 1.95445E+01
 -1      1414 3.74092E+02 1.47491E+02 1.05294E+03 4.94814E+00-1.19561E+02 2.31330E+01
 -1      1415 3.74092E+02 1.47491E+02 1.05294E+03-4.94814E+00 1.19561E+02 2.31330E+01
 -1      1416 3.72302E+02 1.47542E+02 1.05247E+03 5.04166E+00-1.19622E+02 2.52863E+01
 -1      1417 3.72302E+02 1.47542E+02 1.05247E+03-5.04166E+00 1.19622E+02 2.52863E+01
 -1      1418 3.73559E+02 1.47585E+02 1.05173E+03 5.34283E+00-1.19751E+02 2.65053E+01
 -1      1419 3.73559E+02 1.47585E+02 1.05173E+03-5.34283E+00 1.19751E+02 2.65053E+01
 -1      1420 3.76888E+02 1.47238E+02 1.04988E+03 6.16324E+00-1.20050E+02 2.74305E+01
 -1      1421 3.76888E+02 1.47238E+02 1.04988E+03-6.16324E+00 1.20050E+02 2.74305E+01
 -1      1422 3.78937E+02 1.45722E+02 1.04678E+03 7.77326E+00-1.20301E+02 2.98460E+01
 -1      1423 3.78937E+02 1.45722E+02 1.04678E+03-7.77326E+00 1.20301E+02 2.98460E+01
 -1      1424 3.73809E+02 1.42955E+02 1.04362E+03 9.48196E+00-1.19082E+02 3.66292E+01
 -1      1425 3.73809E+02 1.42955E+02 1.04362E+03-9.48196E+00 1.19082E+02 3.66292E+01
 -1      1426 3.66716E+02 1.45111E+02 1.04397E+03 7.93828E+00-1.12819E+02 4.61807E+01
 -1      1427 3.66716E+02 1.45111E+02 1.04397E+03-7.93828E+00 1.12819E+02 4.61807E+01
 -1      1428 4.05699E+02 1.60545E+02 1.03940E+03-5.78130E+00-1.02739E+02 4.77048E+01
 -1      1429 4.05699E+02 1.60545E+02 1.03940E+03 5.78130E+00 1.02739E+02 4.77048E+01
 -1      1430 5.94703E+02 1.94317E+02 1.03952E+03-2.10706E+01-1.19256E+02 3.11318E+01
 -1      1431 5.94703E+02 1.94317E+02 1.03952E+03 2.10706E+01 1.19256E+02 3.11318E+01
 -1      1432 7.69315E+02 9.00538E+01 1.05603E+03 4.45881E+01-1.94049E+02-1.36353E+01
 -1      1433 7.69315E+02 9.00538E+01 1.05603E+03-4.45881E+01 1.94049E+02-1.36353E+01
 -1      1434 5.04774E+02 2.71686E+01 8.17613E+02 1.71968E+02-1.48171E+02-6.80878E+01
 -1      1435 5.04774E+02 2.71686E+01 8.17613E+02-1.71968E+02 1.48171E+02-6.80878E+01
 -1      1436-2.20110E+01 1.66238E+02 3.51430E+02 1.62523E+02 2.49937E+01-6.84807E+01
 -1      1437-2.20110E+01 1.66238E+02 3.51430E+02-1.62523E+02-2.49937E+01-6.84807E+01
 -1      1438-2.59623E+02 2.15035E+01 1.47645E+02 5.62763E+01 3.26013E+01-2.22011E+01
 -1      1439-2.59623E+02 2.15035E+01 1.47645E+02-5.62763E+01-3.26013E+01-2.22011E+01
 -1      1440-1.53366E+02-1.33889E+01 4.05564E+01 1.03783E+01 7.12247E+00 1.13803E+01
 -1      1441-1.53366E+02-1.33889E+01 4.05564E+01-1.03783E+01-7.12247E+00 1.13803E+01
 -1      1442 1.93427E+02 3.17648E+01 2.39577E+02-4.65448E+01 2.79680E+01 1.62063E+02
 -1      1443 1.93427E+02 3.17648E+01 2.39577E+02 4.65448E+01-2.79680E+01 1.62063E+02
 -1      1444 3.77608E+02-9.24456E+00 4.86945E+02-3.07813E+01 4.69883E+01 1.42153E+02
 -1      1445 3.77608E+02-9.24455E+00 4.86945E+02 3.07813E+01-4.69883E+01 1.42153E+02
 -1      1446 4.64306E+02 2.61386E+01 6.26685E+02-6.66787E+00 5.58231E+01 6.19967E+01
 -1      1447 4.64306E+02 2.61386E+01 6.26685E+02 6.66787E+00-5.58231E+01 6.19967E+01
 -1      1448 4.41464E+02 4.70684E+01 6.70675E+02 4.28889E+00 6.93485E+01 1.26798E+01
 -1      1449 4.41464E+02 4.70684E+01 6.70675E+02-4.28889E+00-6.93485E+01 1.26798E+01
 -1      1450 3.80849E+02 5.33134E+01 6.83168E+02 7.42303E+00 7.58386E+01-3.52952E+00
 -1      1451 3.80849E+02 5.33134E+01 6.83168E+02-7.42303E+00-7.58386E+01-3.52952E+00
 -1      1452 3.22842E+02 5.32910E+01 6.83739E+02 7.46070E+00 7.66782E+01-3.52696E+00
 -1      1453 3.22842E+02 5.32910E+01 6.83739E+02-7.46070E+00-7.66782E+01-3.52696E+00
 -1      1454 2.80907E+02 5.19235E+01 6.81059E+02 6.97383E+00 7.59536E+01 1.77249E+00
 -1      1455 2.80907E+02 5.19235E+01 6.81059E+02-6.97383E+00-7.59536E+01 1.77249E+00
 -1      1456 2.55116E+02 5.08034E+01 6.78502E+02 6.78054E+00 7.53335E+01 6.99382E+00
 -1      1457 2.55116E+02 5.08034E+01 6.78502E+02-6.78054E+00-7.53335E+01 6.99382E+00
 -1      1458 2.40868E+02 5.01472E+01 6.76994E+02 6.84272E+00 7.50811E+01 1.05715E+01
 -1      1459 2.40868E+02 5.01472E+01 6.76994E+02-6.84272E+00-7.50811E+01 1.05715E+01
 -1      1460 2.33745E+02 4.98401E+01 6.76327E+02 6.96883E+00 7.50304E+01 1.26854E+01
 -1      1461 2.33745E+02 4.98401E+01 6.76327E+02-6.96883E+00-7.50304E+01 1.26854E+01
 -1      1462 2.30919E+02 4.97036E+01 6.76007E+02 7.07436E+00 7.50305E+01 1.38169E+01
 -1      1463 2.30919E+02 4.97036E+01 6.76007E+02-7.07436E+00-7.50305E+01 1.38169E+01
 -1      1464 2.30720E+02 4.95804E+01 6.75551E+02 7.19461E+00 7.49453E+01 1.41896E+01
 -1      1465 2.30720E+02 4.95804E+01 6.75551E+02-7.19461E+00-7.49453E+01 1.41896E+01
 -1      1466 2.32066E+02 4.93898E+01 6.74630E+02 7.49553E+00 7.45766E+01 1.39065E+01
 -1      1467 2.32066E+02 4.93898E+01 6.74630E+02-7.49553E+00-7.45766E+01 1.39065E+01
 -1      1468 2.35131E+02 4.91344E+01 6.73327E+02 8.10094E+00 7.38147E+01 1.36393E+01
 -1      1469 2.35131E+02 4.91344E+01 6.73327E+02-8.10094E+00-7.38147E+01 1.36393E+01
 -1      1470 2.43297E+02 4.89055E+01 6.71550E+02 8.86110E+00 7.34092E+01 1.53004E+01
 -1      1471 2.43297E+02 4.89055E+01 6.71550E+02-8.86110E+00-7.34092E+01 1.53004E+01
 -1      1472 2.61993E+02 5.00327E+01 6.67265E+02 8.84625E+00 7.58313E+01 2.11667E+01
 -1      1473 2.61993E+02 5.00327E+01 6.67265E+02-8.84625E+00-7.58313E+01 2.11667E+01
 -1      1474 2.90971E+02 5.50340E+01 6.56416E+02 4.85105E+00 8.47253E+01 3.65771E+01
 -1      1475 2.90971E+02 5.50340E+01 6.56416E+02-4.85105E+00-8.47253E+01 3.65771E+01
 -1      1476 3.56223E+02 7.79677E+01 6.68052E+02-7.45201E+00 7.30778E+01 4.52252E+01
 -1      1477 3.56223E+02 7.79677E+01 6.68052E+02 7.45201E+00-7.30778E+01 4.52252E+01
 -1      1478 3.96349E+02-3.10020E+00 7.08515E+02 8.60237E+00 4.34398E+01-5.60476E+01
 -1      1479 3.96349E+02-3.10020E+00 7.08515E+02-8.60237E+00-4.34398E+01-5.60476E+01
 -1      1480 2.62903E+02-3.16290E+01 5.44499E+02 5.96897E+01 4.14855E+01-2.34160E+02
 -1      1481 2.62903E+02-3.16290E+01 5.44499E+02-5.96897E+01-4.14855E+01-2.34160E+02
 -1      1482 4.30765E+01 1.14803E+02 2.03879E+02 4.99552E+01 4.28273E+01-2.24831E+02
 -1      1483 4.30765E+01 1.14803E+02 2.03879E+02-4.99552E+01-4.28273E+01-2.24831E+02
 -1      1484-7.56730E+01 1.59842E+01 7.09732E+01 6.70890E+00 3.69462E+01-7.84250E+01
 -1      1485-7.56730E+01 1.59842E+01 7.09732E+01-6.70890E+00-3.69462E+01-7.84250E+01
 -1      1486-4.71344E+01-2.21804E+00 2.33682E+01-7.83160E-01 5.58258E+00-8.48207E+00
 -1      1487-4.71344E+01-2.21804E+00 2.33682E+01 7.83160E-01-5.58258E+00-8.48207E+00
 -1      1488 2.43726E+02 2.24550E+02 2.15305E+02 1.47157E+02 2.34895E+01 1.60485E+02
 -1      1489 2.43726E+02 2.24550E+02 2.15305E+02-1.47157E+02-2.34895E+01 1.60485E+02
 -1      1490 4.51547E+02 4.89892E+02 4.58092E+02 1.49580E+02 4.67032E+01 1.47438E+02
 -1      1491 4.51547E+02 4.89892E+02 4.58092E+02-1.49580E+02-4.67032E+01 1.47438E+02
 -1      1492 5.21727E+02 6.04877E+02 5.68361E+02 7.30606E+01 5.79024E+01 6.44041E+01
 -1      1493 5.21727E+02 6.04877E+02 5.68361E+02-7.30606E+01-5.79024E+01 6.44041E+01
 -1      1494 5.33071E+02 6.22419E+02 5.96764E+02 2.20944E+01 6.90644E+01 1.14545E+01
 -1      1495 5.33071E+02 6.22419E+02 5.96764E+02-2.20944E+01-6.90644E+01 1.14545E+01
 -1      1496 5.17570E+02 6.17540E+02 6.06233E+02 5.89252E+00 7.31696E+01-3.01858E+00
 -1      1497 5.17570E+02 6.17541E+02 6.06233E+02-5.89252E+00-7.31696E+01-3.01858E+00
 -1      1498 4.77290E+02 6.13225E+02 6.07870E+02 3.49937E+00 7.31443E+01-2.63945E+00
 -1      1499 4.77290E+02 6.13225E+02 6.07870E+02-3.49937E+00-7.31443E+01-2.63946E+00
 -1      1500 4.34628E+02 6.10361E+02 6.05773E+02 4.88149E+00 7.23252E+01 8.39947E-01
 -1      1501 4.34628E+02 6.10361E+02 6.05773E+02-4.88149E+00-7.23252E+01 8.39947E-01
 -1      1502 4.04409E+02 6.08683E+02 6.03355E+02 6.44107E+00 7.17882E+01 3.80573E+00
 -1      1503 4.04409E+02 6.08683E+02 6.03355E+02-6.44107E+00-7.17882E+01 3.80573E+00
 -1      1504 3.87437E+02 6.07877E+02 6.01922E+02 7.43793E+00 7.15907E+01 5.67860E+00
 -1      1505 3.87437E+02 6.07877E+02 6.01922E+02-7.43793E+00-7.15907E+01 5.67860E+00
 -1      1506 3.79355E+02 6.07585E+02 6.01334E+02 7.94290E+00 7.15555E+01 6.73444E+00
 -1      1507 3.79355E+02 6.07585E+02 6.01334E+02-7.94290E+00-7.15555E+01 6.73444E+00
 -1      1508 3.76117E+02 6.07501E+02 6.01069E+02 8.10385E+00 7.15637E+01 7.27330E+00
 -1      1509 3.76117E+02 6.07501E+02 6.01069E+02-8.10385E+00-7.15637E+01 7.27330E+00
 -1      1510 3.74750E+02 6.07393E+02 6.00609E+02 7.91712E+00 7.15207E+01 7.38426E+00
 -1      1511 3.74750E+02 6.07393E+02 6.00609E+02-7.91712E+00-7.15207E+01 7.38426E+00
 -1      1512 3.73328E+02 6.07123E+02 5.99686E+02 7.20576E+00 7.12590E+01 6.93658E+00
 -1      1513 3.73328E+02 6.07123E+02 5.99687E+02-7.20576E+00-7.12590E+01 6.93658E+00
 -1      1514 3.74401E+02 6.06548E+02 5.98778E+02 5.64259E+00 7.06449E+01 5.73001E+00
 -1      1515 3.74401E+02 6.06548E+02 5.98778E+02-5.64259E+00-7.06449E+01 5.73001E+00
 -1      1516 3.92253E+02 6.04716E+02 5.99267E+02 3.65985E+00 7.00229E+01 3.97840E+00
 -1      1517 3.92253E+02 6.04716E+02 5.99267E+02-3.65985E+00-7.00229E+01 3.97840E+00
 -1      1518 4.41339E+02 5.94594E+02 5.96233E+02 3.97625E+00 7.15010E+01 5.08915E+00
 -1      1519 4.41339E+02 5.94594E+02 5.96233E+02-3.97625E+00-7.15010E+01 5.08915E+00
 -1      1520 4.68440E+02 5.70081E+02 5.76614E+02 2.01041E+01 7.84433E+01 2.60234E+01
 -1      1521 4.68440E+02 5.70081E+02 5.76614E+02-2.01041E+01-7.84433E+01 2.60234E+01
 -1      1522 4.02899E+02 5.92365E+02 5.68410E+02 4.35986E+01 7.19343E+01 5.30141E+01
 -1      1523 4.02899E+02 5.92365E+02 5.68410E+02-4.35986E+01-7.19343E+01 5.30141E+01
 -1      1524 3.74849E+02 7.64365E+02 6.72701E+02-4.94252E+01 5.14890E+01-4.93505E+01
 -1      1525 3.74849E+02 7.64365E+02 6.72701E+02 4.94252E+01-5.14890E+01-4.93505E+01
 -1      1526 3.04254E+02 5.95962E+02 5.34426E+02-2.36321E+02 4.62022E+01-2.48594E+02
 -1      1527 3.04254E+02 5.95962E+02 5.34426E+02 2.36321E+02-4.62022E+01-2.48594E+02
 -1      1528 1.27878E+02 5.72375E+01 1.09713E+02-2.25654E+02 3.58913E+01-2.35175E+02
 -1      1529 1.27878E+02 5.72375E+01 1.09713E+02 2.25654E+02-3.58913E+01-2.35175E+02
 -1      1530 1.23209E+02-3.50644E+00 5.78370E+01-7.58841E+01 2.63030E+01-7.14509E+01
 -1      1531 1.23209E+02-3.50644E+00 5.78370E+01 7.58841E+01-2.63030E+01-7.14509E+01
 -1      1532 5.73400E+01 1.09872E+01 3.22671E+01-1.53040E+01 3.46539E+00-4.20351E+00
 -1      1533 5.73400E+01 1.09872E+01 3.22671E+01 1.53040E+01-3.46538E+00-4.20351E+00
 -1      1534-4.97053E+02-4.97055E+02-1.15979E+03 4.80265E-03-7.75410E+02-6.91977E+02
 -1      1535 2.38776E+02 2.97645E+02 2.47197E+01 2.18347E+02 2.34448E+01 4.52739E+01
 -1      1536-9.10105E+02-9.10101E+02-2.12357E+03 6.30952E-03-1.31647E+03-6.10078E+02
 -1      1537 4.03165E+02 6.80469E+02 1.28556E+02 2.16806E+02 6.07528E+01 3.18519E+01
 -1      1538-1.13787E+03-1.13786E+03-2.65501E+03 4.32990E-03-1.68540E+03-3.79509E+02
 -1      1539 4.23281E+02 8.20857E+02 1.56202E+02 1.01804E+02 7.16582E+01 5.83221E+00
 -1      1540-1.22098E+03-1.22096E+03-2.84892E+03 1.83374E-03-1.83148E+03-1.71147E+02
 -1      1541 4.38794E+02 8.45799E+02 1.65177E+02 3.40352E+01 8.78853E+01-3.63942E+00
 -1      1542-1.22398E+03-1.22397E+03-2.85593E+03 4.17442E-04-1.86011E+03-5.13715E+01
 -1      1543 4.43405E+02 8.44460E+02 1.77653E+02 1.45278E+01 9.13250E+01-1.58491E+00
 -1      1544-1.21221E+03-1.21220E+03-2.82847E+03-9.38341E-05-1.85376E+03-6.76537E-01
 -1      1545 4.14740E+02 8.40126E+02 1.84543E+02 1.23439E+01 9.12960E+01 1.94293E+00
 -1      1546-1.20622E+03-1.20621E+03-2.81450E+03-2.37857E-04-1.84614E+03 1.82371E+01
 -1      1547 3.75759E+02 8.36493E+02 1.85244E+02 1.40473E+01 9.05550E+01 4.47321E+00
 -1      1548-1.20584E+03-1.20583E+03-2.81361E+03-2.95295E-04-1.84335E+03 2.70351E+01
 -1      1549 3.45923E+02 8.34290E+02 1.83724E+02 1.57001E+01 9.01188E+01 6.12690E+00
 -1      1550-1.20733E+03-1.20732E+03-2.81708E+03-3.42145E-04-1.84345E+03 3.30494E+01
 -1      1551 3.28772E+02 8.33353E+02 1.82418E+02 1.67209E+01 8.99639E+01 7.20477E+00
 -1      1552-1.20878E+03-1.20877E+03-2.82047E+03-3.85481E-04-1.84436E+03 3.78972E+01
 -1      1553 3.20617E+02 8.33120E+02 1.81749E+02 1.72234E+01 8.99305E+01 7.90914E+00
 -1      1554-1.20981E+03-1.20980E+03-2.82288E+03-4.26563E-04-1.84512E+03 4.22308E+01
 -1      1555 3.17266E+02 8.33113E+02 1.81363E+02 1.73552E+01 8.99312E+01 8.38541E+00
 -1      1556-1.21033E+03-1.21032E+03-2.82409E+03-4.78471E-04-1.84505E+03 4.73230E+01
 -1      1557 3.15431E+02 8.32958E+02 1.80811E+02 1.70965E+01 8.98845E+01 8.75209E+00
 -1      1558-1.20924E+03-1.20923E+03-2.82154E+03-5.67216E-04-1.84250E+03 5.51559E+01
 -1      1559 3.13116E+02 8.32300E+02 1.80073E+02 1.61759E+01 8.96767E+01 9.08022E+00
 -1      1560-1.20309E+03-1.20308E+03-2.80719E+03-7.06472E-04-1.83412E+03 6.64484E+01
 -1      1561 3.14064E+02 8.30941E+02 1.80533E+02 1.38419E+01 8.89437E+01 9.28937E+00
 -1      1562-1.18750E+03-1.18749E+03-2.77082E+03-8.11627E-04-1.81745E+03 7.48069E+01
 -1      1563 3.35076E+02 8.28021E+02 1.84731E+02 9.71325E+00 8.83011E+01 8.78906E+00
 -1      1564-1.16900E+03-1.16899E+03-2.72765E+03-6.27757E-04-1.80093E+03 6.35556E+01
 -1      1565 3.92983E+02 8.18109E+02 1.89139E+02 7.45547E+00 8.73028E+01 7.27208E+00
 -1      1566-1.18544E+03-1.18543E+03-2.76602E+03-7.33497E-05-1.81736E+03 3.63507E+01
 -1      1567 4.26325E+02 7.92501E+02 1.74582E+02 3.04385E+01 9.90930E+01 1.26173E+01
 -1      1568-1.27560E+03-1.27558E+03-2.97636E+03-4.65751E-04-1.90014E+03 9.12198E+01
 -1      1569 3.06929E+02 7.96306E+02 1.29280E+02 8.38927E+01 9.08456E+01 3.90056E+01
 -1      1570-1.32470E+03-1.32468E+03-3.09092E+03-4.57307E-03-1.91469E+03 3.72509E+02
 -1      1571 2.14140E+02 1.03985E+03 1.88227E+02-4.71085E+01 6.64188E+01 1.56772E+01
 -1      1572-9.90519E+02-9.90514E+02-2.31120E+03-8.42613E-03-1.45235E+03 7.24789E+02
 -1      1573 2.07923E+02 8.42403E+02 1.87455E+02-3.59380E+02 6.52820E+01-7.87496E+01
 -1      1574-3.69051E+02-3.69057E+02-8.61128E+02-5.18235E-03-6.29789E+02 7.39848E+02
 -1      1575 1.42069E+02 5.03438E+01-2.33030E+00-3.36010E+02 3.52915E+01-6.62165E+01
 -1      1576-4.45485E+01-4.45542E+01-1.03958E+02-1.39777E-03-1.65166E+02 4.55578E+02
 -1      1577 2.02130E+02 2.32894E+01 6.10349E+01-9.24261E+01 3.64502E+01 7.05450E+00
 -1      1578 2.66609E+01 2.66583E+01 6.22030E+01-1.24188E-04-2.72507E+01 2.16280E+02
 -1      1579 8.50031E+01 1.99633E+01 3.54948E+01-1.70555E+01-2.61997E+00 1.10038E+01
 -1      1580-6.46393E+02-6.46394E+02-1.50824E+03 5.92995E-03-7.18477E+02-7.30109E+02
 -1      1581 3.16737E+02 3.95960E+02 2.77873E+01 3.43862E+02-3.23147E+02 5.28345E+01
 -1      1582-1.20456E+03-1.20455E+03-2.81062E+03 7.19649E-03-1.24085E+03-6.27089E+02
 -1      1583 4.98977E+02 9.50487E+02 2.89861E+02 3.38834E+02-7.89415E+02 3.22652E+01
 -1      1584-1.50404E+03-1.50403E+03-3.50939E+03 4.70591E-03-1.58816E+03-3.72897E+02
 -1      1585 4.76353E+02 1.12760E+03 2.83160E+02 1.58159E+02-8.82521E+02-9.67086E+00
 -1      1586-1.60116E+03-1.60115E+03-3.73601E+03 1.83016E-03-1.72277E+03-1.59920E+02
 -1      1587 5.35954E+02 1.18909E+03 2.98379E+02 6.67615E+01-8.65358E+02-6.88141E+00
 -1      1588-1.59883E+03-1.59882E+03-3.73058E+03 3.09420E-04-1.74660E+03-4.30151E+01
 -1      1589 5.72169E+02 1.20045E+03 3.08214E+02 4.37549E+01-8.41407E+02 6.31384E-01
 -1      1590-1.58108E+03-1.58107E+03-3.68917E+03-1.83601E-04-1.73887E+03 4.09941E+00
 -1      1591 5.56982E+02 1.19680E+03 3.15239E+02 4.26739E+01-8.29541E+02 5.57480E+00
 -1      1592-1.57190E+03-1.57189E+03-3.66775E+03-2.92668E-04-1.73070E+03 2.12768E+01
 -1      1593 5.21396E+02 1.19096E+03 3.15954E+02 4.53177E+01-8.26188E+02 8.14281E+00
 -1      1594-1.57017E+03-1.57016E+03-3.66371E+03-3.26949E-04-1.72746E+03 2.94933E+01
 -1      1595 4.91517E+02 1.18728E+03 3.14486E+02 4.73961E+01-8.25695E+02 9.53101E+00
 -1      1596-1.57113E+03-1.57112E+03-3.66595E+03-3.61511E-04-1.72714E+03 3.53101E+01
 -1      1597 4.73849E+02 1.18587E+03 3.13198E+02 4.86339E+01-8.25898E+02 1.04131E+01
 -1      1598-1.57239E+03-1.57238E+03-3.66889E+03-3.98214E-04-1.72775E+03 4.00217E+01
 -1      1599 4.65350E+02 1.18561E+03 3.12502E+02 4.92467E+01-8.26116E+02 1.10105E+01
 -1      1600-1.57339E+03-1.57338E+03-3.67122E+03-4.35195E-04-1.72835E+03 4.41895E+01
 -1      1601 4.61675E+02 1.18568E+03 3.12094E+02 4.94214E+01-8.26326E+02 1.14572E+01
 -1      1602-1.57397E+03-1.57396E+03-3.67256E+03-4.85051E-04-1.72828E+03 4.90525E+01
 -1      1603 4.59146E+02 1.18536E+03 3.11478E+02 4.91366E+01-8.26638E+02 1.18748E+01
 -1      1604-1.57281E+03-1.57280E+03-3.66986E+03-5.76229E-04-1.72603E+03 5.66641E+01
 -1      1605 4.55589E+02 1.18389E+03 3.10866E+02 4.79819E+01-8.27010E+02 1.23491E+01
 -1      1606-1.56581E+03-1.56580E+03-3.65354E+03-7.26850E-04-1.71848E+03 6.81854E+01
 -1      1607 4.54890E+02 1.18022E+03 3.10623E+02 4.46724E+01-8.26382E+02 1.28544E+01
 -1      1608-1.54709E+03-1.54709E+03-3.60986E+03-8.44541E-04-1.70313E+03 7.78771E+01
 -1      1609 4.77426E+02 1.17604E+03 3.16305E+02 3.72242E+01-8.21533E+02 1.21558E+01
 -1      1610-1.52235E+03-1.52234E+03-3.55212E+03-6.16504E-04-1.68745E+03 6.73676E+01
 -1      1611 5.42682E+02 1.16730E+03 3.13256E+02 3.09110E+01-8.01110E+02 9.44244E+00
 -1      1612-1.53785E+03-1.53784E+03-3.58829E+03 1.01705E-04-1.70264E+03 3.35304E+01
 -1      1613 6.10747E+02 1.16297E+03 3.18504E+02 5.85357E+01-7.69802E+02 1.48808E+00
 -1      1614-1.65659E+03-1.65658E+03-3.86534E+03-2.15886E-04-1.78302E+03 7.32263E+01
 -1      1615 3.81026E+02 1.10684E+03 1.78384E+02 1.71597E+02-7.31334E+02 6.20081E+01
 -1      1616-1.75171E+03-1.75169E+03-4.08727E+03-4.90959E-03-1.80781E+03 3.64304E+02
 -1      1617 1.82808E+02 1.41099E+03 3.89484E+02 5.71376E+00-1.19851E+03 7.08563E+01
 -1      1618-1.31532E+03-1.31531E+03-3.06905E+03-9.70284E-03-1.37364E+03 7.56076E+02
 -1      1619 2.67760E+02 1.23222E+03 4.60654E+02-5.52050E+02-9.92883E+02-1.14790E+02
 -1      1620-4.53734E+02-4.53740E+02-1.05872E+03-6.44026E-03-5.81062E+02 7.65292E+02
 -1      1621 1.98737E+02 5.08180E+01-2.02260E+02-5.18103E+02 2.11210E+02-7.25588E+01
 -1      1622-4.45658E+01-4.45710E+01-1.03999E+02-2.10727E-03-1.47657E+02 4.46783E+02
 -1      1623 3.97969E+02 1.30726E+02 1.43865E+02-9.48981E+01 2.88473E+01 5.64733E+01
 -1      1624 2.98537E+01 2.98514E+01 6.96528E+01-3.33056E-04-2.28282E+01 2.01819E+02
 -1      1625 1.18823E+02 2.89941E+01 2.39067E+01-2.00663E+01 2.37467E+00 1.21051E+01
 -1      1626-8.61620E+02-8.61625E+02-2.01044E+03 6.10865E-03-6.20999E+02-8.24290E+02
 -1      1627-5.78699E+02-7.88564E+02-1.99801E+03 3.84036E+02-6.47003E+02-1.92509E+02
 -1      1628-1.62329E+03-1.62329E+03-3.78764E+03 7.26704E-03-1.08891E+03-6.93835E+02
 -1      1629-1.89373E+03-1.92234E+03-4.70210E+03 3.82858E+02-1.64872E+03-1.32185E+02
 -1      1630-2.02850E+03-2.02850E+03-4.73312E+03 4.60931E-03-1.39291E+03-3.93840E+02
 -1      1631-2.23317E+03-2.09926E+03-5.25139E+03 1.79821E+02-1.86656E+03-2.92812E+01
 -1      1632-2.15139E+03-2.15138E+03-5.01985E+03 1.67950E-03-1.50930E+03-1.55561E+02
 -1      1633-2.14020E+03-2.02623E+03-5.26563E+03 8.53081E+01-1.85683E+03 2.92657E+01
 -1      1634-2.14516E+03-2.14516E+03-5.00533E+03 1.98833E-04-1.52889E+03-3.40564E+01
 -1      1635-2.01670E+03-1.93175E+03-5.13985E+03 6.48727E+01-1.81813E+03 4.69662E+01
 -1      1636-2.12066E+03-2.12065E+03-4.94815E+03-2.39615E-04-1.52132E+03 1.07504E+01
 -1      1637-1.98740E+03-1.89225E+03-5.06629E+03 6.56838E+01-1.79555E+03 4.81911E+01
 -1      1638-2.10774E+03-2.10774E+03-4.91801E+03-3.13580E-04-1.51370E+03 2.56519E+01
 -1      1639-2.00809E+03-1.88445E+03-5.04075E+03 6.88323E+01-1.78804E+03 4.71406E+01
 -1      1640-2.10454E+03-2.10454E+03-4.91056E+03-3.28605E-04-1.51055E+03 3.27995E+01
 -1      1641-2.03500E+03-1.88572E+03-5.03593E+03 7.08231E+01-1.78643E+03 4.68281E+01
 -1      1642-2.10506E+03-2.10506E+03-4.91176E+03-3.52072E-04-1.51006E+03 3.82216E+01
 -1      1643-2.05302E+03-1.88754E+03-5.03696E+03 7.19180E+01-1.78663E+03 4.71451E+01
 -1      1644-2.10624E+03-2.10623E+03-4.91450E+03-3.81527E-04-1.51047E+03 4.27664E+01
 -1      1645-2.06227E+03-1.88840E+03-5.03848E+03 7.24552E+01-1.78707E+03 4.75914E+01
 -1      1646-2.10728E+03-2.10728E+03-4.91695E+03-4.12918E-04-1.51093E+03 4.68078E+01
 -1      1647-2.06680E+03-1.88899E+03-5.04000E+03 7.26302E+01-1.78756E+03 4.80017E+01
 -1      1648-2.10792E+03-2.10792E+03-4.91844E+03-4.57554E-04-1.51087E+03 5.15877E+01
 -1      1649-2.07057E+03-1.89029E+03-5.04186E+03 7.24196E+01-1.78815E+03 4.85178E+01
 -1      1650-2.10653E+03-2.10653E+03-4.91519E+03-5.43634E-04-1.50897E+03 5.93957E+01
 -1      1651-2.07570E+03-1.89300E+03-5.04328E+03 7.13357E+01-1.78854E+03 4.97325E+01
 -1      1652-2.09805E+03-2.09805E+03-4.89541E+03-6.92043E-04-1.50254E+03 7.19867E+01
 -1      1653-2.07382E+03-1.89274E+03-5.03392E+03 6.77679E+01-1.78621E+03 5.25167E+01
 -1      1654-2.07462E+03-2.07461E+03-4.84073E+03-8.13708E-04-1.48929E+03 8.38253E+01
 -1      1655-2.03691E+03-1.87796E+03-4.99982E+03 5.86405E+01-1.77566E+03 5.74290E+01
 -1      1656-2.04118E+03-2.04118E+03-4.76272E+03-5.75963E-04-1.47559E+03 7.24492E+01
 -1      1657-1.90094E+03-1.80485E+03-4.87050E+03 4.98384E+01-1.73606E+03 5.78389E+01
 -1      1658-2.05576E+03-2.05576E+03-4.79674E+03 2.20830E-04-1.48859E+03 2.44492E+01
 -1      1659-1.75061E+03-1.73386E+03-4.79003E+03 7.69577E+01-1.69191E+03 3.34765E+01
 -1      1660-2.21337E+03-2.21337E+03-5.16448E+03 4.51665E-05-1.55995E+03 4.65126E+01
 -1      1661-1.89986E+03-1.69737E+03-4.59835E+03 2.23144E+02-1.61189E+03-2.11664E-01
 -1      1662-2.36677E+03-2.36676E+03-5.52239E+03-4.77054E-03-1.58933E+03 3.79584E+02
 -1      1663-3.52902E+03-2.85343E+03-6.91131E+03 7.45773E+01-2.48906E+03 1.31260E+02
 -1      1664-1.78474E+03-1.78474E+03-4.16436E+03-9.93346E-03-1.21053E+03 8.60719E+02
 -1      1665-2.80973E+03-2.25031E+03-5.64367E+03-6.04035E+02-2.19909E+03 3.03502E+02
 -1      1666-5.88499E+02-5.88508E+02-1.37318E+03-6.57366E-03-5.02400E+02 8.64361E+02
 -1      1667 8.13153E+02 5.78993E+02 8.44483E+02-5.81329E+02 3.97070E+02 2.30240E+02
 -1      1668-5.32505E+01-5.32568E+01-1.24265E+02-2.22505E-03-1.25621E+02 4.69583E+02
 -1      1669 5.18264E+02 1.66073E+02-1.99007E+01-6.79948E+01-7.36894E+00 8.20350E+01
 -1      1670 3.26441E+01 3.26417E+01 7.61633E+01-4.13927E-04-1.86036E+01 1.93154E+02
 -1      1671 1.68413E+02 6.87954E+01 7.87887E+01-1.63497E+01 1.05254E+01 9.55172E+00
 -1      1672-1.06898E+03-1.06899E+03-2.49428E+03 5.06933E-03-4.60759E+02-9.27094E+02
 -1      1673-1.43942E+03-2.00021E+03-3.87775E+03 2.93651E+02-2.97226E+02-4.41711E+02
 -1      1674-2.02873E+03-2.02874E+03-4.73367E+03 6.02630E-03-8.16878E+02-7.70122E+02
 -1      1675-4.34901E+03-5.01120E+03-9.70271E+03 2.96482E+02-8.66768E+02-3.12717E+02
 -1      1676-2.53780E+03-2.53780E+03-5.92145E+03 3.75610E-03-1.04480E+03-4.22547E+02
 -1      1677-5.08747E+03-5.68030E+03-1.09458E+04 1.33654E+02-1.01888E+03-5.67575E+01
 -1      1678-2.68700E+03-2.68701E+03-6.26959E+03 1.30279E-03-1.13127E+03-1.54993E+02
 -1      1679-4.96271E+03-5.60815E+03-1.09791E+04 5.76825E+01-1.01511E+03 6.51084E+01
 -1      1680-2.67779E+03-2.67780E+03-6.24811E+03 1.02200E-04-1.14544E+03-2.62087E+01
 -1      1681-4.76564E+03-5.44057E+03-1.07587E+04 4.29955E+01-9.95960E+02 9.30024E+01
 -1      1682-2.64715E+03-2.64716E+03-6.17662E+03-2.29586E-04-1.13946E+03 1.72031E+01
 -1      1683-4.69533E+03-5.35658E+03-1.06213E+04 4.43493E+01-9.84411E+02 9.12792E+01
 -1      1684-2.63083E+03-2.63084E+03-6.13854E+03-2.71299E-04-1.13357E+03 3.00079E+01
 -1      1685-4.70199E+03-5.33364E+03-1.05717E+04 4.69335E+01-9.80469E+02 8.67647E+01
 -1      1686-2.62635E+03-2.62636E+03-6.12808E+03-2.73442E-04-1.13108E+03 3.60581E+01
 -1      1687-4.72578E+03-5.33171E+03-1.05605E+04 4.84079E+01-9.79680E+02 8.47679E+01
 -1      1688-2.62652E+03-2.62653E+03-6.12848E+03-2.87062E-04-1.13062E+03 4.10670E+01
 -1      1689-4.74407E+03-5.33382E+03-1.05614E+04 4.91783E+01-9.79817E+02 8.45149E+01
 -1      1690-2.62768E+03-2.62768E+03-6.13117E+03-3.07663E-04-1.13087E+03 4.54580E+01
 -1      1691-4.75414E+03-5.33543E+03-1.05641E+04 4.95581E+01-9.80122E+02 8.48134E+01
 -1      1692-2.62880E+03-2.62881E+03-6.13379E+03-3.30688E-04-1.13119E+03 4.94107E+01
 -1      1693-4.75963E+03-5.33689E+03-1.05671E+04 4.96894E+01-9.80428E+02 8.51973E+01
 -1      1694-2.62950E+03-2.62951E+03-6.13543E+03-3.64809E-04-1.13114E+03 5.41838E+01
 -1      1695-4.76466E+03-5.33935E+03-1.05705E+04 4.95512E+01-9.80794E+02 8.58459E+01
 -1      1696-2.62785E+03-2.62786E+03-6.13158E+03-4.33264E-04-1.12975E+03 6.23297E+01
 -1      1697-4.77099E+03-5.34286E+03-1.05725E+04 4.87616E+01-9.80937E+02 8.78276E+01
 -1      1698-2.61787E+03-2.61788E+03-6.10829E+03-5.55037E-04-1.12501E+03 7.61572E+01
 -1      1699-4.76649E+03-5.33775E+03-1.05541E+04 4.58805E+01-9.79825E+02 9.29619E+01
 -1      1700-2.58979E+03-2.58980E+03-6.04277E+03-6.58903E-04-1.11519E+03 9.01164E+01
 -1      1701-4.71411E+03-5.30024E+03-1.04885E+04 3.87146E+01-9.73269E+02 1.02924E+02
 -1      1702-2.54792E+03-2.54793E+03-5.94509E+03-4.58916E-04-1.10496E+03 7.72059E+01
 -1      1703-4.51534E+03-5.15022E+03-1.02449E+04 3.05855E+01-9.56278E+02 1.06352E+02
 -1      1704-2.56168E+03-2.56169E+03-5.97719E+03 2.48418E-04-1.11446E+03 1.42793E+01
 -1      1705-4.27557E+03-4.99802E+03-1.00761E+04 5.72268E+01-9.20642E+02 6.26068E+01
 -1      1706-2.75734E+03-2.75735E+03-6.43371E+03 2.00468E-04-1.16850E+03 2.11466E+01
 -1      1707-4.37947E+03-4.94018E+03-9.64549E+03 1.74673E+02-9.25952E+02-6.84040E+01
 -1      1708-2.96734E+03-2.96735E+03-6.92370E+03-3.86452E-03-1.19492E+03 4.02187E+02
 -1      1709-7.40547E+03-7.55686E+03-1.43954E+04 6.05446E+01-1.37029E+03 1.63183E+02
 -1      1710-2.24495E+03-2.24496E+03-5.23817E+03-8.34865E-03-9.12177E+02 9.77676E+02
 -1      1711-6.38666E+03-6.48172E+03-1.26772E+04-4.79631E+02-1.36123E+03 7.47044E+02
 -1      1712-7.22217E+02-7.22230E+02-1.68519E+03-5.40810E-03-3.73390E+02 9.77169E+02
 -1      1713 1.46612E+03 1.10077E+03 2.05584E+03-4.68522E+02 2.11738E+02 5.77024E+02
 -1      1714-6.27645E+01-6.27721E+01-1.46466E+02-1.81779E-03-9.23099E+01 5.02176E+02
 -1      1715 6.11099E+02 1.86630E+02-2.16663E+02-5.14992E+01 1.75807E+01 1.05251E+02
 -1      1716 3.53598E+01 3.53571E+01 8.24994E+01-3.60482E-04-1.33477E+01 1.88668E+02
 -1      1717 2.11083E+02 1.12967E+02 1.42959E+02-7.87398E+00 3.18571E+00 5.95817E+00
 -1      1718-1.21385E+03-1.21386E+03-2.83230E+03 2.88348E-03-2.45930E+02-1.00337E+03
 -1      1719-1.29820E+03-1.98604E+03-3.54959E+03 1.40018E+02 3.09315E+01-4.29462E+02
 -1      1720-2.31395E+03-2.31396E+03-5.39915E+03 3.43987E-03-4.38847E+02-8.27501E+02
 -1      1721-4.34050E+03-5.20037E+03-9.41647E+03 1.44131E+02-3.61576E+01-3.23588E+02
 -1      1722-2.89678E+03-2.89680E+03-6.75907E+03 2.12500E-03-5.61360E+02-4.45292E+02
 -1      1723-5.17196E+03-6.01227E+03-1.07375E+04 6.18937E+01-7.31076E+01-7.48998E+01
 -1      1724-3.06479E+03-3.06481E+03-7.15108E+03 7.15017E-04-6.07570E+02-1.55699E+02
 -1      1725-5.03355E+03-5.95519E+03-1.07969E+04 2.11732E+01-7.39252E+01 6.15539E+01
 -1      1726-3.05360E+03-3.05362E+03-7.12498E+03 3.78015E-05-6.15041E+02-2.08975E+01
 -1      1727-4.81948E+03-5.77614E+03-1.05825E+04 1.37358E+01-7.19036E+01 9.49739E+01
 -1      1728-3.01872E+03-3.01874E+03-7.04359E+03-1.41371E-04-6.11758E+02 2.18066E+01
 -1      1729-4.74442E+03-5.68731E+03-1.04503E+04 1.45187E+01-7.13370E+01 9.42436E+01
 -1      1730-3.00005E+03-3.00007E+03-7.00003E+03-1.58853E-04-6.08545E+02 3.31621E+01
 -1      1731-4.74941E+03-5.66264E+03-1.04012E+04 1.58140E+01-7.12001E+01 8.98191E+01
 -1      1732-2.99470E+03-2.99472E+03-6.98755E+03-1.56776E-04-6.07173E+02 3.84207E+01
 -1      1733-4.77309E+03-5.66068E+03-1.03901E+04 1.65348E+01-7.12230E+01 8.76619E+01
 -1      1734-2.99465E+03-2.99467E+03-6.98743E+03-1.62720E-04-6.06905E+02 4.31273E+01
 -1      1735-4.79137E+03-5.66280E+03-1.03905E+04 1.69089E+01-7.12893E+01 8.73125E+01
 -1      1736-2.99580E+03-2.99582E+03-6.99011E+03-1.73292E-04-6.07025E+02 4.74118E+01
 -1      1737-4.80157E+03-5.66446E+03-1.03931E+04 1.70980E+01-7.13422E+01 8.75617E+01
 -1      1738-2.99699E+03-2.99700E+03-6.99288E+03-1.85501E-04-6.07189E+02 5.13120E+01
 -1      1739-4.80717E+03-5.66592E+03-1.03959E+04 1.71634E+01-7.13867E+01 8.79417E+01
 -1      1740-2.99773E+03-2.99775E+03-6.99462E+03-2.04078E-04-6.07161E+02 5.61028E+01
 -1      1741-4.81245E+03-5.66851E+03-1.03993E+04 1.70951E+01-7.14248E+01 8.86431E+01
 -1      1742-2.99590E+03-2.99592E+03-6.99034E+03-2.42269E-04-6.06423E+02 6.45308E+01
 -1      1743-4.81909E+03-5.67201E+03-1.04005E+04 1.67068E+01-7.14494E+01 9.07467E+01
 -1      1744-2.98485E+03-2.98487E+03-6.96456E+03-3.11477E-04-6.03901E+02 7.92915E+01
 -1      1745-4.81566E+03-5.66680E+03-1.03832E+04 1.51995E+01-7.14311E+01 9.61561E+01
 -1      1746-2.95348E+03-2.95350E+03-6.89136E+03-3.71951E-04-5.98663E+02 9.47488E+01
 -1      1747-4.76159E+03-5.62368E+03-1.03140E+04 1.17517E+01-7.06549E+01 1.05661E+02
 -1      1748-2.90565E+03-2.90567E+03-6.77976E+03-2.56970E-04-5.93185E+02 8.05136E+01
 -1      1749-4.56429E+03-5.47196E+03-1.00950E+04 6.99984E+00-7.16794E+01 1.08768E+02
 -1      1750-2.91882E+03-2.91884E+03-6.81050E+03 1.63419E-04-5.98200E+02 6.71345E+00
 -1      1751-4.27247E+03-5.28054E+03-9.87348E+03 2.53749E+01-5.71304E+01 4.65778E+01
 -1      1752-3.14180E+03-3.14182E+03-7.33076E+03 1.70862E-04-6.27438E+02 3.44944E+00
 -1      1753-4.53387E+03-5.41409E+03-9.68611E+03 8.13550E+01-1.02109E+02-5.99596E+01
 -1      1754-3.39275E+03-3.39276E+03-7.91628E+03-2.17801E-03-6.43104E+02 4.20361E+02
 -1      1755-7.61234E+03-8.02325E+03-1.41600E+04 1.79232E+01-1.27159E+02 1.82626E+02
 -1      1756-2.57217E+03-2.57218E+03-6.00166E+03-4.80960E-03-4.91720E+02 1.06479E+03
 -1      1757-6.83299E+03-7.16275E+03-1.31040E+04-2.43485E+02-2.26379E+02 7.23691E+02
 -1      1758-8.16937E+02-8.16953E+02-1.90620E+03-3.05983E-03-1.99633E+02 1.06186E+03
 -1      1759 1.49628E+03 9.81316E+02 1.98226E+03-2.41020E+02 9.42621E+00 6.03014E+02
 -1      1760-6.91891E+01-6.91977E+01-1.61458E+02-1.01498E-03-4.89952E+01 5.28388E+02
 -1      1761 7.62736E+02 2.96829E+02-1.36247E+02-3.33108E+01 3.17668E+01 1.47223E+02
 -1      1762 3.74407E+01 3.74378E+01 8.73544E+01-2.06604E-04-7.00300E+00 1.86727E+02
 -1      1763 2.17938E+02 1.22975E+02 1.34201E+02-1.26071E+00-2.62639E+00 1.56682E+00
 -1      1764-1.26558E+03-1.26559E+03-2.95299E+03 3.99132E-11-6.08611E-06-1.03125E+03
 -1      1765-1.24330E+03-1.93159E+03-3.46454E+03 5.66256E-05-2.66415E-05-4.22649E+02
 -1      1766-2.41616E+03-2.41617E+03-5.63764E+03 4.97175E-12-8.08286E-06-8.48579E+02
 -1      1767-4.33180E+03-5.16588E+03-9.40389E+03 2.06656E-05 1.03409E-06-3.24778E+02
 -1      1768-3.02559E+03-3.02561E+03-7.05961E+03-1.98143E-11-5.78004E-06-4.53798E+02
 -1      1769-5.19339E+03-6.01410E+03-1.07559E+04 3.92311E-06-2.12681E-06-7.99199E+01
 -1      1770-3.20040E+03-3.20042E+03-7.46748E+03-1.19036E-11-4.26543E-06-1.56112E+02
 -1      1771-5.05276E+03-5.96543E+03-1.08263E+04 2.24881E-06-1.10169E-06 6.00479E+01
 -1      1772-3.18852E+03-3.18854E+03-7.43977E+03-1.87580E-12-3.76105E-06-1.90251E+01
 -1      1773-4.83280E+03-5.78438E+03-1.06121E+04 2.45451E-06-3.26065E-06 9.54257E+01
 -1      1774-3.15213E+03-3.15215E+03-7.35486E+03 2.98967E-12-3.56231E-06 2.34680E+01
 -1      1775-4.75592E+03-5.69486E+03-1.04798E+04 3.52594E-06-4.29488E-06 9.50649E+01
 -1      1776-3.13262E+03-3.13264E+03-7.30935E+03 4.83267E-12-3.42603E-06 3.43087E+01
 -1      1777-4.76054E+03-5.67023E+03-1.04308E+04 3.33177E-06-7.90228E-07 9.06991E+01
 -1      1778-3.12696E+03-3.12699E+03-7.29615E+03 5.23611E-12-3.40217E-06 3.92812E+01
 -1      1779-4.78397E+03-5.66817E+03-1.04191E+04 1.85060E-06-1.19822E-06 8.85204E+01
 -1      1780-3.12684E+03-3.12686E+03-7.29585E+03 4.50005E-12-3.55518E-06 4.38780E+01
 -1      1781-4.80235E+03-5.67039E+03-1.04197E+04 1.15671E-06-1.80193E-06 8.81328E+01
 -1      1782-3.12799E+03-3.12801E+03-7.29854E+03 3.51732E-12-3.69755E-06 4.81245E+01
 -1      1783-4.81255E+03-5.67202E+03-1.04221E+04 8.82461E-07-5.82190E-07 8.83730E+01
 -1      1784-3.12919E+03-3.12921E+03-7.30135E+03 2.55199E-12-3.94904E-06 5.20073E+01
 -1      1785-4.81822E+03-5.67349E+03-1.04249E+04 8.49245E-07-2.37109E-06 8.87507E+01
 -1      1786-3.12996E+03-3.12998E+03-7.30314E+03 1.12032E-12-4.15642E-06 5.68076E+01
 -1      1787-4.82355E+03-5.67606E+03-1.04282E+04 3.26620E-07-1.66205E-06 8.94635E+01
 -1      1788-3.12806E+03-3.12808E+03-7.29870E+03-3.39673E-13-4.30356E-06 6.53430E+01
 -1      1789-4.83043E+03-5.67968E+03-1.04296E+04 4.09166E-07-3.38092E-07 9.16224E+01
 -1      1790-3.11662E+03-3.11664E+03-7.27202E+03-2.09217E-12-4.42734E-06 8.04470E+01
 -1      1791-4.82686E+03-5.67409E+03-1.04114E+04 2.10480E-07-2.81489E-06 9.69815E+01
 -1      1792-3.08407E+03-3.08409E+03-7.19607E+03-3.72549E-12-4.44424E-06 9.64395E+01
 -1      1793-4.77388E+03-5.63128E+03-1.03438E+04-2.06498E-07-6.90085E-07 1.06633E+02
 -1      1794-3.03410E+03-3.03412E+03-7.07947E+03-3.32298E-12-4.43932E-06 8.16915E+01
 -1      1795-4.57216E+03-5.47638E+03-1.01214E+04-1.39476E-07-3.10395E-06 1.08571E+02
 -1      1796-3.04707E+03-3.04709E+03-7.10973E+03 2.14870E-13-4.55028E-06 3.94808E+00
 -1      1797-4.27343E+03-5.28486E+03-9.90167E+03-1.56368E-06 2.39343E-06 4.26954E+01
 -1      1798-3.27996E+03-3.27998E+03-7.65312E+03 1.04974E-12-4.80248E-06-2.86005E+00
 -1      1799-4.56954E+03-5.46920E+03-9.74524E+03 1.45941E-06-8.20344E-06-5.86778E+01
 -1      1800-3.54580E+03-3.54582E+03-8.27340E+03-1.98139E-11-5.12957E-06 4.27176E+02
 -1      1801-7.69914E+03-8.07016E+03-1.42580E+04 2.61980E-06-3.43352E-06 1.88364E+02
 -1      1802-2.69016E+03-2.69018E+03-6.27698E+03-4.44875E-11-3.80941E-06 1.09665E+03
 -1      1803-6.95771E+03-7.26659E+03-1.32943E+04-3.58195E-06-4.38951E-07 7.15267E+02
 -1      1804-8.51033E+02-8.51050E+02-1.98576E+03-2.87358E-11-1.22022E-06 1.09295E+03
 -1      1805 1.50534E+03 9.23785E+02 1.98170E+03-4.28449E-06-2.20318E-07 6.04918E+02
 -1      1806-7.14384E+01-7.14474E+01-1.66707E+02-1.10878E-11-1.80582E-07 5.38249E+02
 -1      1807 8.09048E+02 3.30858E+02-1.20992E+02-1.15013E-06 4.95508E-07 1.59599E+02
 -1      1808 3.82152E+01 3.82123E+01 8.91616E+01-3.17961E-12-7.20278E-08 1.86211E+02
 -1      1809 2.23264E+02 1.29398E+02 1.36063E+02-9.19193E-08 6.81034E-09 1.15639E+00
 -1      1810-1.21385E+03-1.21386E+03-2.83230E+03-2.88348E-03 2.45930E+02-1.00337E+03
 -1      1811-1.29820E+03-1.98604E+03-3.54959E+03-1.40017E+02-3.09315E+01-4.29462E+02
 -1      1812-2.31395E+03-2.31396E+03-5.39915E+03-3.43987E-03 4.38847E+02-8.27501E+02
 -1      1813-4.34050E+03-5.20037E+03-9.41647E+03-1.44131E+02 3.61576E+01-3.23588E+02
 -1      1814-2.89678E+03-2.89680E+03-6.75907E+03-2.12500E-03 5.61360E+02-4.45292E+02
 -1      1815-5.17196E+03-6.01227E+03-1.07375E+04-6.18937E+01 7.31076E+01-7.48998E+01
 -1      1816-3.06479E+03-3.06481E+03-7.15108E+03-7.15018E-04 6.07570E+02-1.55699E+02
 -1      1817-5.03355E+03-5.95519E+03-1.07969E+04-2.11732E+01 7.39252E+01 6.15539E+01
 -1      1818-3.05360E+03-3.05362E+03-7.12498E+03-3.78015E-05 6.15041E+02-2.08975E+01
 -1      1819-4.81948E+03-5.77614E+03-1.05825E+04-1.37358E+01 7.19036E+01 9.49739E+01
 -1      1820-3.01872E+03-3.01874E+03-7.04359E+03 1.41371E-04 6.11758E+02 2.18066E+01
 -1      1821-4.74442E+03-5.68731E+03-1.04503E+04-1.45187E+01 7.13370E+01 9.42436E+01
 -1      1822-3.00005E+03-3.00007E+03-7.00003E+03 1.58853E-04 6.08545E+02 3.31621E+01
 -1      1823-4.74941E+03-5.66264E+03-1.04012E+04-1.58140E+01 7.12001E+01 8.98191E+01
 -1      1824-2.99470E+03-2.99472E+03-6.98755E+03 1.56776E-04 6.07173E+02 3.84207E+01
 -1      1825-4.77309E+03-5.66068E+03-1.03901E+04-1.65348E+01 7.12229E+01 8.76619E+01
 -1      1826-2.99465E+03-2.99467E+03-6.98743E+03 1.62720E-04 6.06905E+02 4.31273E+01
 -1      1827-4.79137E+03-5.66280E+03-1.03905E+04-1.69089E+01 7.12893E+01 8.73125E+01
 -1      1828-2.99580E+03-2.99582E+03-6.99011E+03 1.73292E-04 6.07025E+02 4.74118E+01
 -1      1829-4.80157E+03-5.66446E+03-1.03931E+04-1.70980E+01 7.13422E+01 8.75617E+01
 -1      1830-2.99699E+03-2.99700E+03-6.99288E+03 1.85501E-04 6.07189E+02 5.13120E+01
 -1      1831-4.80717E+03-5.66592E+03-1.03959E+04-1.71634E+01 7.13867E+01 8.79417E+01
 -1      1832-2.99773E+03-2.99775E+03-6.99462E+03 2.04078E-04 6.07161E+02 5.61028E+01
 -1      1833-4.81245E+03-5.66851E+03-1.03993E+04-1.70951E+01 7.14248E+01 8.86431E+01
 -1      1834-2.99590E+03-2.99592E+03-6.99034E+03 2.42269E-04 6.06423E+02 6.45308E+01
 -1      1835-4.81909E+03-5.67201E+03-1.04005E+04-1.67068E+01 7.14494E+01 9.07467E+01
 -1      1836-2.98485E+03-2.98487E+03-6.96456E+03 3.11477E-04 6.03901E+02 7.92915E+01
 -1      1837-4.81566E+03-5.66680E+03-1.03832E+04-1.51995E+01 7.14311E+01 9.61561E+01
 -1      1838-2.95348E+03-2.95350E+03-6.89136E+03 3.71951E-04 5.98663E+02 9.47488E+01
 -1      1839-4.76159E+03-5.62368E+03-1.03140E+04-1.17517E+01 7.06549E+01 1.05661E+02
 -1      1840-2.90565E+03-2.90567E+03-6.77976E+03 2.56970E-04 5.93185E+02 8.05136E+01
 -1      1841-4.56429E+03-5.47196E+03-1.00950E+04-6.99984E+00 7.16794E+01 1.08768E+02
 -1      1842-2.91882E+03-2.91884E+03-6.81050E+03-1.63419E-04 5.98200E+02 6.71345E+00
 -1      1843-4.27247E+03-5.28054E+03-9.87348E+03-2.53749E+01 5.71304E+01 4.65778E+01
 -1      1844-3.14180E+03-3.14182E+03-7.33076E+03-1.70862E-04 6.27438E+02 3.44944E+00
 -1      1845-4.53387E+03-5.41409E+03-9.68611E+03-8.13550E+01 1.02109E+02-5.99596E+01
 -1      1846-3.39275E+03-3.39276E+03-7.91628E+03 2.17801E-03 6.43104E+02 4.20361E+02
 -1      1847-7.61234E+03-8.02325E+03-1.41600E+04-1.79232E+01 1.27159E+02 1.82626E+02
 -1      1848-2.57217E+03-2.57218E+03-6.00166E+03 4.80960E-03 4.91720E+02 1.06479E+03
 -1      1849-6.83299E+03-7.16275E+03-1.31040E+04 2.43485E+02 2.26379E+02 7.23691E+02
 -1      1850-8.16937E+02-8.16953E+02-1.90620E+03 3.05983E-03 1.99633E+02 1.06186E+03
 -1      1851 1.49628E+03 9.81316E+02 1.98226E+03 2.41020E+02-9.42621E+00 6.03014E+02
 -1      1852-6.91891E+01-6.91977E+01-1.61458E+02 1.01498E-03 4.89952E+01 5.28388E+02
 -1      1853 7.62736E+02 2.96829E+02-1.36247E+02 3.33108E+01-3.17668E+01 1.47223E+02
 -1      1854 3.74407E+01 3.74378E+01 8.73544E+01 2.06604E-04 7.00300E+00 1.86727E+02
 -1      1855 2.17938E+02 1.22975E+02 1.34201E+02 1.26071E+00 2.62639E+00 1.56682E+00
 -1      1856-1.06898E+03-1.06899E+03-2.49428E+03-5.06933E-03 4.60759E+02-9.27094E+02
 -1      1857-1.43942E+03-2.00021E+03-3.87775E+03-2.93651E+02 2.97226E+02-4.41711E+02
 -1      1858-2.02873E+03-2.02874E+03-4.73367E+03-6.02630E-03 8.16878E+02-7.70122E+02
 -1      1859-4.34901E+03-5.01120E+03-9.70271E+03-2.96482E+02 8.66768E+02-3.12717E+02
 -1      1860-2.53780E+03-2.53780E+03-5.92145E+03-3.75610E-03 1.04480E+03-4.22547E+02
 -1      1861-5.08747E+03-5.68030E+03-1.09458E+04-1.33654E+02 1.01888E+03-5.67574E+01
 -1      1862-2.68700E+03-2.68701E+03-6.26959E+03-1.30279E-03 1.13127E+03-1.54993E+02
 -1      1863-4.96271E+03-5.60815E+03-1.09791E+04-5.76825E+01 1.01511E+03 6.51084E+01
 -1      1864-2.67779E+03-2.67780E+03-6.24811E+03-1.02200E-04 1.14544E+03-2.62087E+01
 -1      1865-4.76564E+03-5.44057E+03-1.07587E+04-4.29955E+01 9.95960E+02 9.30024E+01
 -1      1866-2.64715E+03-2.64716E+03-6.17662E+03 2.29586E-04 1.13946E+03 1.72031E+01
 -1      1867-4.69533E+03-5.35658E+03-1.06213E+04-4.43493E+01 9.84411E+02 9.12792E+01
 -1      1868-2.63083E+03-2.63084E+03-6.13854E+03 2.71299E-04 1.13357E+03 3.00079E+01
 -1      1869-4.70199E+03-5.33364E+03-1.05717E+04-4.69335E+01 9.80468E+02 8.67647E+01
 -1      1870-2.62635E+03-2.62636E+03-6.12808E+03 2.73442E-04 1.13108E+03 3.60581E+01
 -1      1871-4.72578E+03-5.33171E+03-1.05605E+04-4.84079E+01 9.79680E+02 8.47679E+01
 -1      1872-2.62652E+03-2.62653E+03-6.12848E+03 2.87062E-04 1.13062E+03 4.10670E+01
 -1      1873-4.74407E+03-5.33382E+03-1.05614E+04-4.91783E+01 9.79817E+02 8.45149E+01
 -1      1874-2.62768E+03-2.62768E+03-6.13117E+03 3.07663E-04 1.13087E+03 4.54580E+01
 -1      1875-4.75414E+03-5.33543E+03-1.05641E+04-4.95581E+01 9.80122E+02 8.48134E+01
 -1      1876-2.62880E+03-2.62881E+03-6.13379E+03 3.30688E-04 1.13119E+03 4.94107E+01
 -1      1877-4.75963E+03-5.33689E+03-1.05671E+04-4.96894E+01 9.80428E+02 8.51973E+01
 -1      1878-2.62950E+03-2.62951E+03-6.13543E+03 3.64809E-04 1.13114E+03 5.41838E+01
 -1      1879-4.76466E+03-5.33935E+03-1.05705E+04-4.95512E+01 9.80794E+02 8.58459E+01
 -1      1880-2.62785E+03-2.62786E+03-6.13158E+03 4.33264E-04 1.12975E+03 6.23297E+01
 -1      1881-4.77099E+03-5.34286E+03-1.05725E+04-4.87616E+01 9.80937E+02 8.78276E+01
 -1      1882-2.61787E+03-2.61788E+03-6.10829E+03 5.55037E-04 1.12501E+03 7.61572E+01
 -1      1883-4.76649E+03-5.33775E+03-1.05541E+04-4.58805E+01 9.79825E+02 9.29619E+01
 -1      1884-2.58979E+03-2.58980E+03-6.04277E+03 6.58903E-04 1.11519E+03 9.01164E+01
 -1      1885-4.71411E+03-5.30024E+03-1.04885E+04-3.87146E+01 9.73269E+02 1.02924E+02
 -1      1886-2.54792E+03-2.54793E+03-5.94509E+03 4.58916E-04 1.10496E+03 7.72059E+01
 -1      1887-4.51534E+03-5.15022E+03-1.02449E+04-3.05855E+01 9.56278E+02 1.06352E+02
 -1      1888-2.56168E+03-2.56169E+03-5.97719E+03-2.48418E-04 1.11446E+03 1.42793E+01
 -1      1889-4.27557E+03-4.99802E+03-1.00761E+04-5.72268E+01 9.20642E+02 6.26068E+01
 -1      1890-2.75734E+03-2.75735E+03-6.43371E+03-2.00468E-04 1.16850E+03 2.11466E+01
 -1      1891-4.37947E+03-4.94018E+03-9.64549E+03-1.74673E+02 9.25952E+02-6.84040E+01
 -1      1892-2.96734E+03-2.96735E+03-6.92370E+03 3.86452E-03 1.19492E+03 4.02187E+02
 -1      1893-7.40547E+03-7.55686E+03-1.43954E+04-6.05446E+01 1.37029E+03 1.63183E+02
 -1      1894-2.24495E+03-2.24496E+03-5.23817E+03 8.34865E-03 9.12177E+02 9.77676E+02
 -1      1895-6.38666E+03-6.48172E+03-1.26772E+04 4.79631E+02 1.36123E+03 7.47044E+02
 -1      1896-7.22217E+02-7.22230E+02-1.68519E+03 5.40810E-03 3.73390E+02 9.77169E+02
 -1      1897 1.46612E+03 1.10077E+03 2.05584E+03 4.68522E+02-2.11738E+02 5.77024E+02
 -1      1898-6.27645E+01-6.27721E+01-1.46466E+02 1.81779E-03 9.23099E+01 5.02176E+02
 -1      1899 6.11099E+02 1.86630E+02-2.16663E+02 5.14992E+01-1.75807E+01 1.05251E+02
 -1      1900 3.53598E+01 3.53571E+01 8.24994E+01 3.60482E-04 1.33477E+01 1.88668E+02
 -1      1901 2.11083E+02 1.12967E+02 1.42959E+02 7.87398E+00-3.18571E+00 5.95817E+00
 -1      1902-8.61620E+02-8.61625E+02-2.01044E+03-6.10865E-03 6.20999E+02-8.24290E+02
 -1      1903-5.78700E+02-7.88564E+02-1.99801E+03-3.84036E+02 6.47003E+02-1.92509E+02
 -1      1904-1.62329E+03-1.62329E+03-3.78764E+03-7.26704E-03 1.08891E+03-6.93835E+02
 -1      1905-1.89373E+03-1.92234E+03-4.70210E+03-3.82858E+02 1.64872E+03-1.32185E+02
 -1      1906-2.02850E+03-2.02850E+03-4.73312E+03-4.60931E-03 1.39291E+03-3.93840E+02
 -1      1907-2.23317E+03-2.09926E+03-5.25139E+03-1.79821E+02 1.86656E+03-2.92812E+01
 -1      1908-2.15139E+03-2.15138E+03-5.01985E+03-1.67950E-03 1.50930E+03-1.55561E+02
 -1      1909-2.14020E+03-2.02623E+03-5.26563E+03-8.53081E+01 1.85683E+03 2.92657E+01
 -1      1910-2.14516E+03-2.14516E+03-5.00533E+03-1.98833E-04 1.52889E+03-3.40564E+01
 -1      1911-2.01670E+03-1.93175E+03-5.13985E+03-6.48727E+01 1.81813E+03 4.69662E+01
 -1      1912-2.12066E+03-2.12065E+03-4.94815E+03 2.39615E-04 1.52132E+03 1.07504E+01
 -1      1913-1.98740E+03-1.89225E+03-5.06629E+03-6.56837E+01 1.79555E+03 4.81911E+01
 -1      1914-2.10774E+03-2.10774E+03-4.91801E+03 3.13580E-04 1.51370E+03 2.56519E+01
 -1      1915-2.00809E+03-1.88445E+03-5.04075E+03-6.88323E+01 1.78804E+03 4.71406E+01
 -1      1916-2.10454E+03-2.10454E+03-4.91056E+03 3.28605E-04 1.51055E+03 3.27995E+01
 -1      1917-2.03500E+03-1.88572E+03-5.03593E+03-7.08231E+01 1.78643E+03 4.68281E+01
 -1      1918-2.10506E+03-2.10506E+03-4.91176E+03 3.52072E-04 1.51006E+03 3.82216E+01
 -1      1919-2.05302E+03-1.88754E+03-5.03696E+03-7.19180E+01 1.78663E+03 4.71451E+01
 -1      1920-2.10624E+03-2.10623E+03-4.91450E+03 3.81527E-04 1.51047E+03 4.27664E+01
 -1      1921-2.06227E+03-1.88840E+03-5.03848E+03-7.24552E+01 1.78707E+03 4.75914E+01
 -1      1922-2.10728E+03-2.10728E+03-4.91695E+03 4.12918E-04 1.51093E+03 4.68078E+01
 -1      1923-2.06680E+03-1.88899E+03-5.04000E+03-7.26302E+01 1.78756E+03 4.80017E+01
 -1      1924-2.10792E+03-2.10792E+03-4.91844E+03 4.57554E-04 1.51087E+03 5.15877E+01
 -1      1925-2.07057E+03-1.89029E+03-5.04186E+03-7.24196E+01 1.78815E+03 4.85178E+01
 -1      1926-2.10653E+03-2.10653E+03-4.91519E+03 5.43634E-04 1.50897E+03 5.93957E+01
 -1      1927-2.07570E+03-1.89300E+03-5.04328E+03-7.13357E+01 1.78854E+03 4.97325E+01
 -1      1928-2.09805E+03-2.09805E+03-4.89541E+03 6.92043E-04 1.50254E+03 7.19867E+01
 -1      1929-2.07383E+03-1.89274E+03-5.03392E+03-6.77679E+01 1.78621E+03 5.25167E+01
 -1      1930-2.07462E+03-2.07461E+03-4.84073E+03 8.13708E-04 1.48929E+03 8.38253E+01
 -1      1931-2.03691E+03-1.87796E+03-4.99982E+03-5.86405E+01 1.77566E+03 5.74290E+01
 -1      1932-2.04118E+03-2.04118E+03-4.76272E+03 5.75963E-04 1.47559E+03 7.24492E+01
 -1      1933-1.90094E+03-1.80485E+03-4.87050E+03-4.98384E+01 1.73606E+03 5.78389E+01
 -1      1934-2.05576E+03-2.05576E+03-4.79674E+03-2.20830E-04 1.48859E+03 2.44492E+01
 -1      1935-1.75061E+03-1.73386E+03-4.79004E+03-7.69577E+01 1.69191E+03 3.34765E+01
 -1      1936-2.21337E+03-2.21337E+03-5.16448E+03-4.51665E-05 1.55995E+03 4.65126E+01
 -1      1937-1.89986E+03-1.69737E+03-4.59835E+03-2.23144E+02 1.61189E+03-2.11668E-01
 -1      1938-2.36677E+03-2.36676E+03-5.52239E+03 4.77054E-03 1.58933E+03 3.79584E+02
 -1      1939-3.52902E+03-2.85343E+03-6.91131E+03-7.45773E+01 2.48906E+03 1.31260E+02
 -1      1940-1.78474E+03-1.78474E+03-4.16436E+03 9.93346E-03 1.21053E+03 8.60719E+02
 -1      1941-2.80973E+03-2.25031E+03-5.64367E+03 6.04035E+02 2.19909E+03 3.03502E+02
 -1      1942-5.88499E+02-5.88508E+02-1.37318E+03 6.57366E-03 5.02400E+02 8.64361E+02
 -1      1943 8.13153E+02 5.78993E+02 8.44483E+02 5.81329E+02-3.97070E+02 2.30240E+02
 -1      1944-5.32505E+01-5.32568E+01-1.24265E+02 2.22505E-03 1.25621E+02 4.69583E+02
 -1      1945 5.18264E+02 1.66073E+02-1.99007E+01 6.79948E+01 7.36894E+00 8.20350E+01
 -1      1946 3.26441E+01 3.26417E+01 7.61633E+01 4.13927E-04 1.86036E+01 1.93154E+02
 -1      1947 1.68413E+02 6.87954E+01 7.87887E+01 1.63497E+01-1.05254E+01 9.55172E+00
 -1      1948-6.46393E+02-6.46394E+02-1.50824E+03-5.92995E-03 7.18477E+02-7.30109E+02
 -1      1949 3.16737E+02 3.95960E+02 2.77873E+01-3.43862E+02 3.23147E+02 5.28345E+01
 -1      1950-1.20456E+03-1.20455E+03-2.81062E+03-7.19649E-03 1.24085E+03-6.27089E+02
 -1      1951 4.98976E+02 9.50487E+02 2.89861E+02-3.38834E+02 7.89415E+02 3.22652E+01
 -1      1952-1.50404E+03-1.50403E+03-3.50939E+03-4.70591E-03 1.58816E+03-3.72897E+02
 -1      1953 4.76353E+02 1.12760E+03 2.83160E+02-1.58159E+02 8.82521E+02-9.67085E+00
 -1      1954-1.60116E+03-1.60115E+03-3.73601E+03-1.83016E-03 1.72277E+03-1.59920E+02
 -1      1955 5.35954E+02 1.18909E+03 2.98379E+02-6.67615E+01 8.65358E+02-6.88141E+00
 -1      1956-1.59883E+03-1.59882E+03-3.73058E+03-3.09420E-04 1.74660E+03-4.30151E+01
 -1      1957 5.72169E+02 1.20045E+03 3.08214E+02-4.37549E+01 8.41407E+02 6.31384E-01
 -1      1958-1.58108E+03-1.58107E+03-3.68917E+03 1.83601E-04 1.73887E+03 4.09941E+00
 -1      1959 5.56982E+02 1.19680E+03 3.15239E+02-4.26739E+01 8.29541E+02 5.57480E+00
 -1      1960-1.57190E+03-1.57189E+03-3.66775E+03 2.92668E-04 1.73070E+03 2.12768E+01
 -1      1961 5.21396E+02 1.19096E+03 3.15954E+02-4.53177E+01 8.26188E+02 8.14281E+00
 -1      1962-1.57017E+03-1.57016E+03-3.66371E+03 3.26949E-04 1.72746E+03 2.94933E+01
 -1      1963 4.91517E+02 1.18728E+03 3.14486E+02-4.73961E+01 8.25695E+02 9.53101E+00
 -1      1964-1.57113E+03-1.57112E+03-3.66595E+03 3.61511E-04 1.72714E+03 3.53101E+01
 -1      1965 4.73849E+02 1.18587E+03 3.13198E+02-4.86339E+01 8.25898E+02 1.04131E+01
 -1      1966-1.57239E+03-1.57238E+03-3.66889E+03 3.98214E-04 1.72775E+03 4.00217E+01
 -1      1967 4.65350E+02 1.18561E+03 3.12502E+02-4.92467E+01 8.26116E+02 1.10105E+01
 -1      1968-1.57339E+03-1.57338E+03-3.67122E+03 4.35195E-04 1.72835E+03 4.41895E+01
 -1      1969 4.61675E+02 1.18568E+03 3.12094E+02-4.94214E+01 8.26326E+02 1.14572E+01
 -1      1970-1.57397E+03-1.57396E+03-3.67256E+03 4.85051E-04 1.72828E+03 4.90525E+01
 -1      1971 4.59146E+02 1.18536E+03 3.11478E+02-4.91366E+01 8.26638E+02 1.18748E+01
 -1      1972-1.57281E+03-1.57280E+03-3.66986E+03 5.76229E-04 1.72603E+03 5.66641E+01
 -1      1973 4.55589E+02 1.18389E+03 3.10866E+02-4.79819E+01 8.27010E+02 1.23491E+01
 -1      1974-1.56581E+03-1.56580E+03-3.65354E+03 7.26850E-04 1.71848E+03 6.81854E+01
 -1      1975 4.54890E+02 1.18022E+03 3.10623E+02-4.46724E+01 8.26382E+02 1.28544E+01
 -1      1976-1.54709E+03-1.54709E+03-3.60986E+03 8.44541E-04 1.70313E+03 7.78771E+01
 -1      1977 4.77426E+02 1.17604E+03 3.16305E+02-3.72242E+01 8.21533E+02 1.21558E+01
 -1      1978-1.52235E+03-1.52234E+03-3.55212E+03 6.16504E-04 1.68745E+03 6.73676E+01
 -1      1979 5.42682E+02 1.16730E+03 3.13256E+02-3.09110E+01 8.01110E+02 9.44244E+00
 -1      1980-1.53785E+03-1.53784E+03-3.58829E+03-1.01705E-04 1.70264E+03 3.35304E+01
 -1      1981 6.10747E+02 1.16297E+03 3.18504E+02-5.85357E+01 7.69802E+02 1.48808E+00
 -1      1982-1.65659E+03-1.65658E+03-3.86534E+03 2.15886E-04 1.78302E+03 7.32263E+01
 -1      1983 3.81026E+02 1.10684E+03 1.78384E+02-1.71597E+02 7.31334E+02 6.20081E+01
 -1      1984-1.75171E+03-1.75169E+03-4.08727E+03 4.90959E-03 1.80781E+03 3.64304E+02
 -1      1985 1.82808E+02 1.41099E+03 3.89484E+02-5.71376E+00 1.19851E+03 7.08563E+01
 -1      1986-1.31532E+03-1.31531E+03-3.06905E+03 9.70284E-03 1.37364E+03 7.56076E+02
 -1      1987 2.67760E+02 1.23222E+03 4.60654E+02 5.52050E+02 9.92883E+02-1.14790E+02
 -1      1988-4.53734E+02-4.53740E+02-1.05872E+03 6.44026E-03 5.81062E+02 7.65292E+02
 -1      1989 1.98737E+02 5.08180E+01-2.02260E+02 5.18103E+02-2.11210E+02-7.25588E+01
 -1      1990-4.45658E+01-4.45710E+01-1.03999E+02 2.10727E-03 1.47657E+02 4.46783E+02
 -1      1991 3.97969E+02 1.30726E+02 1.43865E+02 9.48981E+01-2.88473E+01 5.64733E+01
 -1      1992 2.98537E+01 2.98514E+01 6.96528E+01 3.33056E-04 2.28282E+01 2.01819E+02
 -1      1993 1.18823E+02 2.89941E+01 2.39067E+01 2.00663E+01-2.37467E+00 1.21051E+01
 -1      1994-4.97053E+02-4.97055E+02-1.15979E+03-4.80265E-03 7.75410E+02-6.91977E+02
 -1      1995 2.38776E+02 2.97645E+02 2.47197E+01-2.18347E+02-2.34448E+01 4.52739E+01
 -1      1996-9.10105E+02-9.10101E+02-2.12357E+03-6.30952E-03 1.31647E+03-6.10078E+02
 -1      1997 4.03165E+02 6.80469E+02 1.28556E+02-2.16806E+02-6.07528E+01 3.18519E+01
 -1      1998-1.13787E+03-1.13786E+03-2.65501E+03-4.32990E-03 1.68540E+03-3.79509E+02
 -1      1999 4.23281E+02 8.20857E+02 1.56202E+02-1.01804E+02-7.16582E+01 5.83221E+00
 -1      2000-1.22098E+03-1.22096E+03-2.84892E+03-1.83374E-03 1.83148E+03-1.71147E+02
 -1      2001 4.38794E+02 8.45799E+02 1.65177E+02-3.40352E+01-8.78853E+01-3.63942E+00
 -1      2002-1.22398E+03-1.22397E+03-2.85593E+03-4.17442E-04 1.86011E+03-5.13715E+01
 -1      2003 4.43405E+02 8.44460E+02 1.77653E+02-1.45278E+01-9.13250E+01-1.58491E+00
 -1      2004-1.21221E+03-1.21220E+03-2.82847E+03 9.38341E-05 1.85376E+03-6.76540E-01
 -1      2005 4.14740E+02 8.40126E+02 1.84543E+02-1.23439E+01-9.12960E+01 1.94293E+00
 -1      2006-1.20622E+03-1.20621E+03-2.81450E+03 2.37857E-04 1.84614E+03 1.82371E+01
 -1      2007 3.75759E+02 8.36493E+02 1.85244E+02-1.40472E+01-9.05550E+01 4.47321E+00
 -1      2008-1.20584E+03-1.20583E+03-2.81361E+03 2.95295E-04 1.84335E+03 2.70351E+01
 -1      2009 3.45923E+02 8.34290E+02 1.83724E+02-1.57001E+01-9.01188E+01 6.12690E+00
 -1      2010-1.20733E+03-1.20732E+03-2.81708E+03 3.42145E-04 1.84345E+03 3.30494E+01
 -1      2011 3.28772E+02 8.33353E+02 1.82418E+02-1.67209E+01-8.99639E+01 7.20477E+00
 -1      2012-1.20878E+03-1.20877E+03-2.82047E+03 3.85481E-04 1.84436E+03 3.78972E+01
 -1      2013 3.20617E+02 8.33120E+02 1.81749E+02-1.72234E+01-8.99305E+01 7.90914E+00
 -1      2014-1.20981E+03-1.20980E+03-2.82288E+03 4.26563E-04 1.84512E+03 4.22308E+01
 -1      2015 3.17266E+02 8.33113E+02 1.81363E+02-1.73552E+01-8.99312E+01 8.38541E+00
 -1      2016-1.21033E+03-1.21032E+03-2.82409E+03 4.78471E-04 1.84505E+03 4.73230E+01
 -1      2017 3.15431E+02 8.32958E+02 1.80811E+02-1.70965E+01-8.98845E+01 8.75209E+00
 -1      2018-1.20924E+03-1.20923E+03-2.82154E+03 5.67216E-04 1.84250E+03 5.51559E+01
 -1      2019 3.13116E+02 8.32300E+02 1.80073E+02-1.61759E+01-8.96766E+01 9.08022E+00
 -1      2020-1.20309E+03-1.20308E+03-2.80719E+03 7.06472E-04 1.83412E+03 6.64484E+01
 -1      2021 3.14064E+02 8.30941E+02 1.80533E+02-1.38419E+01-8.89437E+01 9.28937E+00
 -1      2022-1.18750E+03-1.18749E+03-2.77082E+03 8.11627E-04 1.81745E+03 7.48069E+01
 -1      2023 3.35076E+02 8.28021E+02 1.84731E+02-9.71325E+00-8.83011E+01 8.78906E+00
 -1      2024-1.16900E+03-1.16899E+03-2.72765E+03 6.27757E-04 1.80093E+03 6.35556E+01
 -1      2025 3.92983E+02 8.18109E+02 1.89139E+02-7.45547E+00-8.73028E+01 7.27208E+00
 -1      2026-1.18544E+03-1.18543E+03-2.76602E+03 7.33497E-05 1.81736E+03 3.63507E+01
 -1      2027 4.26325E+02 7.92501E+02 1.74582E+02-3.04385E+01-9.90930E+01 1.26173E+01
 -1      2028-1.27560E+03-1.27558E+03-2.97636E+03 4.65751E-04 1.90014E+03 9.12198E+01
 -1      2029 3.06929E+02 7.96306E+02 1.29280E+02-8.38927E+01-9.08456E+01 3.90056E+01
 -1      2030-1.32470E+03-1.32468E+03-3.09092E+03 4.57307E-03 1.91469E+03 3.72509E+02
 -1      2031 2.14140E+02 1.03985E+03 1.88227E+02 4.71085E+01-6.64188E+01 1.56772E+01
 -1      2032-9.90519E+02-9.90514E+02-2.31120E+03 8.42613E-03 1.45235E+03 7.24789E+02
 -1      2033 2.07923E+02 8.42403E+02 1.87455E+02 3.59380E+02-6.52820E+01-7.87496E+01
 -1      2034-3.69051E+02-3.69057E+02-8.61128E+02 5.18235E-03 6.29789E+02 7.39848E+02
 -1      2035 1.42069E+02 5.03438E+01-2.33030E+00 3.36010E+02-3.52915E+01-6.62165E+01
 -1      2036-4.45485E+01-4.45542E+01-1.03958E+02 1.39777E-03 1.65166E+02 4.55578E+02
 -1      2037 2.02130E+02 2.32894E+01 6.10349E+01 9.24261E+01-3.64502E+01 7.05450E+00
 -1      2038 2.66609E+01 2.66583E+01 6.22030E+01 1.24188E-04 2.72507E+01 2.16280E+02
 -1      2039 8.50031E+01 1.99633E+01 3.54948E+01 1.70555E+01 2.61998E+00 1.10038E+01
 -1      2040-2.64904E+02-1.46345E+02-1.08444E+03-1.05883E+02-5.84414E+02-6.32559E+02
 -1      2041-5.40808E+02-3.46449E+02-1.90758E+03-1.06543E+02-1.01916E+03-5.68126E+02
 -1      2042-6.58147E+02-4.30208E+02-2.39761E+03-5.17457E+01-1.30193E+03-3.49528E+02
 -1      2043-7.63637E+02-4.53832E+02-2.56558E+03-1.16195E+01-1.40486E+03-1.55940E+02
 -1      2044-8.36394E+02-4.57537E+02-2.57666E+03 3.16562E+00-1.42091E+03-4.59743E+01
 -1      2045-8.74118E+02-4.57302E+02-2.55695E+03 4.90033E+00-1.41378E+03 1.53837E-01
 -1      2046-8.89475E+02-4.57463E+02-2.54746E+03 3.38658E+00-1.40729E+03 1.78288E+01
 -1      2047-8.95241E+02-4.57817E+02-2.54769E+03 2.11792E+00-1.40490E+03 2.65079E+01
 -1      2048-8.98061E+02-4.58176E+02-2.55103E+03 1.52592E+00-1.40478E+03 3.25643E+01
 -1      2049-8.99780E+02-4.58445E+02-2.55406E+03 1.31839E+00-1.40533E+03 3.73708E+01
 -1      2050-9.00330E+02-4.58580E+02-2.55611E+03 1.28815E+00-1.40584E+03 4.15511E+01
 -1      2051-8.99061E+02-4.58522E+02-2.55700E+03 1.48104E+00-1.40584E+03 4.63275E+01
 -1      2052-8.95541E+02-4.58132E+02-2.55461E+03 2.20951E+00-1.40414E+03 5.36446E+01
 -1      2053-8.91316E+02-4.56949E+02-2.54247E+03 3.81287E+00-1.39821E+03 6.44997E+01
 -1      2054-8.90693E+02-4.53358E+02-2.51142E+03 5.41211E+00-1.38558E+03 7.34598E+01
 -1      2055-8.91301E+02-4.44921E+02-2.47051E+03 2.07866E+00-1.37110E+03 6.42408E+01
 -1      2056-8.67215E+02-4.37962E+02-2.49270E+03-1.27240E+01-1.37996E+03 3.61704E+01
 -1      2057-7.94366E+02-4.60446E+02-2.67299E+03-1.99984E+01-1.44930E+03 7.90593E+01
 -1      2058-7.17505E+02-5.10430E+02-2.79639E+03 4.49644E+01-1.49155E+03 3.41345E+02
 -1      2059-5.88714E+02-3.95161E+02-2.09781E+03 1.55149E+02-1.13323E+03 6.81020E+02
 -1      2060-3.81583E+02-1.16429E+02-7.66656E+02 1.52792E+02-4.51934E+02 6.92189E+02
 -1      2061-2.63905E+02-2.30437E+01-1.00376E+02 6.07836E+01-1.05735E+02 4.17680E+02
 -1      2062-1.23540E+02-9.82572E+00 2.61771E+01 8.60388E+00-1.61673E+01 1.93278E+02
 -1      2063-4.30183E+02-3.76406E+02-1.49360E+03-1.84894E+02-7.21905E+02-6.90795E+02
 -1      2064-8.89884E+02-7.81398E+02-2.70084E+03-1.86826E+02-1.27894E+03-6.03157E+02
 -1      2065-1.10138E+03-9.64611E+02-3.38142E+03-8.74854E+01-1.63099E+03-3.51741E+02
 -1      2066-1.24553E+03-1.03331E+03-3.59493E+03-1.86138E+01-1.75742E+03-1.45948E+02
 -1      2067-1.32177E+03-1.04522E+03-3.59755E+03 5.97341E+00-1.77536E+03-3.69643E+01
 -1      2068-1.35464E+03-1.04363E+03-3.56467E+03 8.36433E+00-1.76546E+03 5.77943E+00
 -1      2069-1.36585E+03-1.04188E+03-3.54760E+03 5.61017E+00-1.75689E+03 2.14763E+01
 -1      2070-1.36985E+03-1.04173E+03-3.54468E+03 3.47480E+00-1.75362E+03 2.93874E+01
 -1      2071-1.37224E+03-1.04236E+03-3.54696E+03 2.53671E+00-1.75327E+03 3.51516E+01
 -1      2072-1.37400E+03-1.04307E+03-3.54972E+03 2.23308E+00-1.75383E+03 3.97858E+01
 -1      2073-1.37470E+03-1.04351E+03-3.55182E+03 2.19964E+00-1.75441E+03 4.37937E+01
 -1      2074-1.37348E+03-1.04346E+03-3.55281E+03 2.51865E+00-1.75441E+03 4.83690E+01
 -1      2075-1.36937E+03-1.04222E+03-3.54996E+03 3.75337E+00-1.75239E+03 5.55704E+01
 -1      2076-1.36283E+03-1.03831E+03-3.53504E+03 6.58551E+00-1.74523E+03 6.68830E+01
 -1      2077-1.35792E+03-1.02949E+03-3.49570E+03 9.68025E+00-1.72964E+03 7.75321E+01
 -1      2078-1.35584E+03-1.01571E+03-3.43966E+03 4.52786E+00-1.71110E+03 6.90803E+01
 -1      2079-1.33868E+03-1.01186E+03-3.45885E+03-2.18794E+01-1.72139E+03 3.19128E+01
 -1      2080-1.28472E+03-1.05479E+03-3.70536E+03-3.98818E+01-1.80967E+03 5.54876E+01
 -1      2081-1.22705E+03-1.12930E+03-3.94716E+03 7.17682E+01-1.87478E+03 3.39234E+02
 -1      2082-9.81521E+02-8.73366E+02-2.97756E+03 2.72424E+02-1.42827E+03 7.44326E+02
 -1      2083-5.21918E+02-2.91434E+02-1.00154E+03 2.66588E+02-5.53389E+02 7.47680E+02
 -1      2084-3.01840E+02-7.44719E+01-1.17756E+02 1.00042E+02-1.25926E+02 4.17285E+02
 -1      2085-1.24550E+02-1.71123E+01 3.00395E+01 1.35532E+01-1.77681E+01 1.80678E+02
 -1      2086-5.77097E+02-4.38790E+02-2.00231E+03-2.02252E+02-6.49617E+02-8.03628E+02
 -1      2087-1.19255E+03-9.12055E+02-3.68484E+03-2.00171E+02-1.17241E+03-6.88760E+02
 -1      2088-1.48720E+03-1.12326E+03-4.61155E+03-9.48918E+01-1.49379E+03-3.80186E+02
 -1      2089-1.66775E+03-1.19617E+03-4.88265E+03-2.01998E+01-1.60649E+03-1.42381E+02
 -1      2090-1.75370E+03-1.20796E+03-4.87789E+03 6.40022E+00-1.62083E+03-2.71131E+01
 -1      2091-1.78492E+03-1.20540E+03-4.83054E+03 9.08428E+00-1.61085E+03 1.32965E+01
 -1      2092-1.79300E+03-1.20320E+03-4.80526E+03 6.16102E+00-1.60264E+03 2.64870E+01
 -1      2093-1.79518E+03-1.20298E+03-4.79906E+03 3.88844E+00-1.59943E+03 3.31699E+01
 -1      2094-1.79692E+03-1.20371E+03-4.80036E+03 2.89135E+00-1.59896E+03 3.84720E+01
 -1      2095-1.79855E+03-1.20452E+03-4.80299E+03 2.57310E+00-1.59937E+03 4.29173E+01
 -1      2096-1.79927E+03-1.20504E+03-4.80522E+03 2.54383E+00-1.59985E+03 4.67972E+01
 -1      2097-1.79796E+03-1.20501E+03-4.80634E+03 2.89255E+00-1.59986E+03 5.13128E+01
 -1      2098-1.79311E+03-1.20362E+03-4.80283E+03 4.22159E+00-1.59811E+03 5.88022E+01
 -1      2099-1.78450E+03-1.19917E+03-4.78442E+03 7.26541E+00-1.59179E+03 7.14043E+01
 -1      2100-1.77700E+03-1.18920E+03-4.73474E+03 1.06102E+01-1.57770E+03 8.46417E+01
 -1      2101-1.77546E+03-1.17317E+03-4.65922E+03 5.03598E+00-1.56035E+03 7.56687E+01
 -1      2102-1.76237E+03-1.16554E+03-4.67153E+03-2.36865E+01-1.56875E+03 2.17811E+01
 -1      2103-1.71083E+03-1.21468E+03-5.00103E+03-4.28315E+01-1.65181E+03 2.15220E+01
 -1      2104-1.66363E+03-1.32213E+03-5.39932E+03 7.71803E+01-1.72515E+03 3.58437E+02
 -1      2105-1.32567E+03-1.02580E+03-4.09332E+03 2.91959E+02-1.31899E+03 8.82908E+02
 -1      2106-6.53053E+02-3.15001E+02-1.29687E+03 2.86758E+02-4.94029E+02 8.77938E+02
 -1      2107-3.55640E+02-7.65566E+01-1.39388E+02 1.08331E+02-1.07585E+02 4.46697E+02
 -1      2108-1.38909E+02-1.97724E+01 3.19182E+01 1.55399E+01-1.37673E+01 1.72800E+02
 -1      2109-7.06524E+02-4.67133E+02-2.47589E+03-1.67083E+02-4.91125E+02-9.21990E+02
 -1      2110-1.45626E+03-9.74370E+02-4.60859E+03-1.64176E+02-8.98019E+02-7.81488E+02
 -1      2111-1.82363E+03-1.19711E+03-5.77015E+03-7.81261E+01-1.14422E+03-4.14910E+02
 -1      2112-2.03756E+03-1.26792E+03-6.09637E+03-1.68420E+01-1.22913E+03-1.42116E+02
 -1      2113-2.13431E+03-1.27784E+03-6.08520E+03 5.21439E+00-1.23923E+03-1.83642E+01
 -1      2114-2.16555E+03-1.27470E+03-6.02492E+03 7.50678E+00-1.23122E+03 2.05374E+01
 -1      2115-2.17125E+03-1.27236E+03-5.99232E+03 5.15250E+00-1.22478E+03 3.14134E+01
 -1      2116-2.17185E+03-1.27214E+03-5.98326E+03 3.30106E+00-1.22223E+03 3.68729E+01
 -1      2117-2.17295E+03-1.27291E+03-5.98378E+03 2.48656E+00-1.22180E+03 4.17136E+01
 -1      2118-2.17443E+03-1.27375E+03-5.98634E+03 2.22753E+00-1.22207E+03 4.59920E+01
 -1      2119-2.17514E+03-1.27429E+03-5.98873E+03 2.20694E+00-1.22242E+03 4.97831E+01
 -1      2120-2.17369E+03-1.27427E+03-5.98996E+03 2.49761E+00-1.22243E+03 5.43086E+01
 -1      2121-2.16811E+03-1.27287E+03-5.98583E+03 3.58943E+00-1.22114E+03 6.22075E+01
 -1      2122-2.15771E+03-1.26832E+03-5.96413E+03 6.07891E+00-1.21641E+03 7.62316E+01
 -1      2123-2.14844E+03-1.25814E+03-5.90477E+03 8.80299E+00-1.20572E+03 9.20083E+01
 -1      2124-2.14819E+03-1.24049E+03-5.81055E+03 4.15354E+00-1.19230E+03 8.19387E+01
 -1      2125-2.13746E+03-1.22837E+03-5.81547E+03-1.94576E+01-1.19823E+03 1.07724E+01
 -1      2126-2.08355E+03-1.28032E+03-6.22510E+03-3.49415E+01-1.26320E+03-1.11095E+01
 -1      2127-2.04351E+03-1.41611E+03-6.77719E+03 6.31099E+01-1.32674E+03 3.83106E+02
 -1      2128-1.62903E+03-1.10188E+03-5.15872E+03 2.38960E+02-1.01798E+03 1.03003E+03
 -1      2129-7.71688E+02-3.10418E+02-1.57504E+03 2.35399E+02-3.72697E+02 1.01850E+03
 -1      2130-4.10348E+02-7.08876E+01-1.57990E+02 8.94101E+01-7.86368E+01 4.84090E+02
 -1      2131-1.56844E+02-2.18941E+01 3.35944E+01 1.33047E+01-9.44142E+00 1.68284E+02
 -1      2132-7.95104E+02-4.81101E+02-2.80520E+03-9.36540E+01-2.63849E+02-1.00830E+03
 -1      2133-1.63636E+03-1.00549E+03-5.25510E+03-9.18018E+01-4.86119E+02-8.49847E+02
 -1      2134-2.05379E+03-1.23290E+03-6.58339E+03-4.37472E+01-6.19671E+02-4.41526E+02
 -1      2135-2.29130E+03-1.30147E+03-6.94915E+03-9.50695E+00-6.65300E+02-1.42882E+02
 -1      2136-2.39622E+03-1.30993E+03-6.93381E+03 2.89403E+00-6.70549E+02-1.23934E+01
 -1      2137-2.42795E+03-1.30648E+03-6.86470E+03 4.21528E+00-6.66117E+02 2.56856E+01
 -1      2138-2.43219E+03-1.30413E+03-6.82709E+03 2.91447E+00-6.62590E+02 3.49624E+01
 -1      2139-2.43172E+03-1.30393E+03-6.81610E+03 1.88477E+00-6.61182E+02 3.95491E+01
 -1      2140-2.43237E+03-1.30472E+03-6.81611E+03 1.43023E+00-6.60930E+02 4.40589E+01
 -1      2141-2.43374E+03-1.30557E+03-6.81864E+03 1.28586E+00-6.61065E+02 4.82235E+01
 -1      2142-2.43444E+03-1.30611E+03-6.82116E+03 1.27541E+00-6.61247E+02 5.19621E+01
 -1      2143-2.43287E+03-1.30610E+03-6.82247E+03 1.43947E+00-6.61253E+02 5.65147E+01
 -1      2144-2.42675E+03-1.30470E+03-6.81789E+03 2.05007E+00-6.60567E+02 6.47403E+01
 -1      2145-2.41514E+03-1.30017E+03-6.79386E+03 3.43826E+00-6.58033E+02 7.98179E+01
 -1      2146-2.40480E+03-1.28999E+03-6.72770E+03 4.94754E+00-6.52281E+02 9.73836E+01
 -1      2147-2.40567E+03-1.27134E+03-6.62034E+03 2.31990E+00-6.44999E+02 8.63199E+01
 -1      2148-2.39626E+03-1.25608E+03-6.62006E+03-1.08748E+01-6.48069E+02 2.62463E+00
 -1      2149-2.33971E+03-1.30906E+03-7.08738E+03-1.94879E+01-6.83785E+02-3.40437E+01
 -1      2150-2.30373E+03-1.46257E+03-7.74951E+03 3.51152E+01-7.20478E+02 4.02061E+02
 -1      2151-1.83853E+03-1.14017E+03-5.91483E+03 1.33401E+02-5.54253E+02 1.13744E+03
 -1      2152-8.54955E+02-3.02761E+02-1.77228E+03 1.31681E+02-2.00451E+02 1.12206E+03
 -1      2153-4.50263E+02-6.62389E+01-1.70545E+02 5.01421E+01-4.14750E+01 5.13210E+02
 -1      2154-1.70740E+02-2.34135E+01 3.48545E+01 7.60385E+00-4.81420E+00 1.66050E+02
 -1      2155-8.26129E+02-4.84944E+02-2.92176E+03-1.20676E-06-7.80209E-06-1.03961E+03
 -1      2156-1.69947E+03-1.01425E+03-5.48472E+03 2.01607E-06-8.98155E-06-8.74751E+02
 -1      2157-2.13459E+03-1.24267E+03-6.87281E+03 1.87787E-06-5.88001E-06-4.51374E+02
 -1      2158-2.38057E+03-1.31032E+03-7.25284E+03 7.49082E-07-4.26738E-06-1.43300E+02
 -1      2159-2.48850E+03-1.31825E+03-7.23608E+03 4.67643E-08-3.90931E-06-1.02832E+01
 -1      2160-2.52049E+03-1.31472E+03-7.16386E+03-2.43480E-07-3.86105E-06 2.75403E+01
 -1      2161-2.52423E+03-1.31238E+03-7.12449E+03-3.37501E-07-3.84076E-06 3.62497E+01
 -1      2162-2.52338E+03-1.31219E+03-7.11282E+03-3.48853E-07-3.91528E-06 4.05225E+01
 -1      2163-2.52388E+03-1.31299E+03-7.11265E+03-2.95896E-07-4.17315E-06 4.49129E+01
 -1      2164-2.52520E+03-1.31383E+03-7.11518E+03-2.48132E-07-4.33583E-06 4.90372E+01
 -1      2165-2.52590E+03-1.31438E+03-7.11773E+03-2.11800E-07-4.66695E-06 5.27583E+01
 -1      2166-2.52428E+03-1.31437E+03-7.11908E+03-1.31756E-07-4.90832E-06 5.73238E+01
 -1      2167-2.51798E+03-1.31298E+03-7.11434E+03-6.66603E-08-5.07357E-06 6.56717E+01
 -1      2168-2.50593E+03-1.30846E+03-7.08948E+03 9.53402E-09-5.23022E-06 8.11339E+01
 -1      2169-2.49524E+03-1.29830E+03-7.02090E+03 9.29996E-08-5.22702E-06 9.93374E+01
 -1      2170-2.49656E+03-1.27933E+03-6.90887E+03 1.08081E-07-5.16713E-06 8.78781E+01
 -1      2171-2.48758E+03-1.26297E+03-6.90677E+03 1.62955E-09-5.22457E-06-3.54665E-01
 -1      2172-2.42996E+03-1.31613E+03-7.39499E+03-1.78455E-07-5.51628E-06-4.22340E+01
 -1      2173-2.39518E+03-1.47544E+03-8.09659E+03 3.40491E-07-6.19508E-06 4.09053E+02
 -1      2174-1.91250E+03-1.15097E+03-6.18566E+03 1.47314E-06-4.67683E-06 1.17637E+03
 -1      2175-8.84703E+02-2.99300E+02-1.84312E+03 1.48452E-06-1.27991E-06 1.15978E+03
 -1      2176-4.64750E+02-6.45111E+01-1.74914E+02 6.01789E-07-9.17075E-08 5.24062E+02
 -1      2177-1.75898E+02-2.39643E+01 3.53246E+01 1.17288E-07-3.21407E-08 1.65394E+02
 -1      2178-7.95104E+02-4.81101E+02-2.80520E+03 9.36540E+01 2.63849E+02-1.00830E+03
 -1      2179-1.63636E+03-1.00549E+03-5.25510E+03 9.18018E+01 4.86119E+02-8.49847E+02
 -1      2180-2.05379E+03-1.23290E+03-6.58339E+03 4.37472E+01 6.19671E+02-4.41526E+02
 -1      2181-2.29130E+03-1.30147E+03-6.94915E+03 9.50696E+00 6.65300E+02-1.42882E+02
 -1      2182-2.39622E+03-1.30993E+03-6.93381E+03-2.89403E+00 6.70549E+02-1.23934E+01
 -1      2183-2.42795E+03-1.30648E+03-6.86470E+03-4.21528E+00 6.66117E+02 2.56856E+01
 -1      2184-2.43219E+03-1.30413E+03-6.82709E+03-2.91447E+00 6.62590E+02 3.49624E+01
 -1      2185-2.43172E+03-1.30393E+03-6.81610E+03-1.88477E+00 6.61182E+02 3.95491E+01
 -1      2186-2.43237E+03-1.30472E+03-6.81611E+03-1.43023E+00 6.60930E+02 4.40589E+01
 -1      2187-2.43374E+03-1.30557E+03-6.81864E+03-1.28586E+00 6.61065E+02 4.82235E+01
 -1      2188-2.43444E+03-1.30611E+03-6.82116E+03-1.27541E+00 6.61247E+02 5.19621E+01
 -1      2189-2.43287E+03-1.30610E+03-6.82247E+03-1.43947E+00 6.61253E+02 5.65147E+01
 -1      2190-2.42675E+03-1.30470E+03-6.81789E+03-2.05007E+00 6.60567E+02 6.47403E+01
 -1      2191-2.41514E+03-1.30017E+03-6.79386E+03-3.43826E+00 6.58033E+02 7.98179E+01
 -1      2192-2.40480E+03-1.28999E+03-6.72770E+03-4.94754E+00 6.52281E+02 9.73836E+01
 -1      2193-2.40567E+03-1.27134E+03-6.62034E+03-2.31990E+00 6.44999E+02 8.63199E+01
 -1      2194-2.39626E+03-1.25608E+03-6.62006E+03 1.08748E+01 6.48069E+02 2.62463E+00
 -1      2195-2.33971E+03-1.30906E+03-7.08738E+03 1.94879E+01 6.83785E+02-3.40437E+01
 -1      2196-2.30373E+03-1.46257E+03-7.74951E+03-3.51152E+01 7.20478E+02 4.02061E+02
 -1      2197-1.83853E+03-1.14017E+03-5.91483E+03-1.33401E+02 5.54253E+02 1.13744E+03
 -1      2198-8.54955E+02-3.02761E+02-1.77228E+03-1.31681E+02 2.00451E+02 1.12206E+03
 -1      2199-4.50263E+02-6.62389E+01-1.70545E+02-5.01421E+01 4.14750E+01 5.13210E+02
 -1      2200-1.70740E+02-2.34135E+01 3.48545E+01-7.60385E+00 4.81420E+00 1.66050E+02
 -1      2201-7.06524E+02-4.67133E+02-2.47589E+03 1.67083E+02 4.91125E+02-9.21990E+02
 -1      2202-1.45626E+03-9.74370E+02-4.60859E+03 1.64176E+02 8.98019E+02-7.81488E+02
 -1      2203-1.82363E+03-1.19711E+03-5.77015E+03 7.81261E+01 1.14422E+03-4.14910E+02
 -1      2204-2.03756E+03-1.26792E+03-6.09637E+03 1.68420E+01 1.22913E+03-1.42116E+02
 -1      2205-2.13431E+03-1.27784E+03-6.08520E+03-5.21439E+00 1.23923E+03-1.83642E+01
 -1      2206-2.16555E+03-1.27470E+03-6.02492E+03-7.50678E+00 1.23122E+03 2.05374E+01
 -1      2207-2.17125E+03-1.27236E+03-5.99232E+03-5.15250E+00 1.22478E+03 3.14134E+01
 -1      2208-2.17185E+03-1.27214E+03-5.98326E+03-3.30106E+00 1.22223E+03 3.68729E+01
 -1      2209-2.17295E+03-1.27291E+03-5.98378E+03-2.48656E+00 1.22180E+03 4.17136E+01
 -1      2210-2.17443E+03-1.27375E+03-5.98634E+03-2.22753E+00 1.22207E+03 4.59920E+01
 -1      2211-2.17514E+03-1.27429E+03-5.98873E+03-2.20694E+00 1.22242E+03 4.97831E+01
 -1      2212-2.17369E+03-1.27427E+03-5.98996E+03-2.49761E+00 1.22243E+03 5.43086E+01
 -1      2213-2.16811E+03-1.27287E+03-5.98583E+03-3.58943E+00 1.22114E+03 6.22075E+01
 -1      2214-2.15771E+03-1.26832E+03-5.96413E+03-6.07891E+00 1.21641E+03 7.62316E+01
 -1      2215-2.14844E+03-1.25814E+03-5.90477E+03-8.80299E+00 1.20572E+03 9.20083E+01
 -1      2216-2.14819E+03-1.24049E+03-5.81055E+03-4.15354E+00 1.19230E+03 8.19387E+01
 -1      2217-2.13746E+03-1.22837E+03-5.81547E+03 1.94576E+01 1.19823E+03 1.07724E+01
 -1      2218-2.08355E+03-1.28032E+03-6.22510E+03 3.49415E+01 1.26320E+03-1.11095E+01
 -1      2219-2.04351E+03-1.41611E+03-6.77719E+03-6.31099E+01 1.32674E+03 3.83106E+02
 -1      2220-1.62903E+03-1.10188E+03-5.15872E+03-2.38960E+02 1.01798E+03 1.03003E+03
 -1      2221-7.71688E+02-3.10418E+02-1.57504E+03-2.35399E+02 3.72697E+02 1.01850E+03
 -1      2222-4.10348E+02-7.08876E+01-1.57990E+02-8.94101E+01 7.86368E+01 4.84090E+02
 -1      2223-1.56844E+02-2.18941E+01 3.35944E+01-1.33047E+01 9.44142E+00 1.68284E+02
 -1      2224-5.77097E+02-4.38790E+02-2.00231E+03 2.02252E+02 6.49617E+02-8.03628E+02
 -1      2225-1.19255E+03-9.12055E+02-3.68484E+03 2.00171E+02 1.17241E+03-6.88760E+02
 -1      2226-1.48720E+03-1.12326E+03-4.61155E+03 9.48919E+01 1.49379E+03-3.80186E+02
 -1      2227-1.66775E+03-1.19617E+03-4.88265E+03 2.01998E+01 1.60649E+03-1.42381E+02
 -1      2228-1.75370E+03-1.20796E+03-4.87789E+03-6.40022E+00 1.62083E+03-2.71131E+01
 -1      2229-1.78492E+03-1.20540E+03-4.83054E+03-9.08429E+00 1.61085E+03 1.32965E+01
 -1      2230-1.79300E+03-1.20320E+03-4.80526E+03-6.16102E+00 1.60264E+03 2.64870E+01
 -1      2231-1.79518E+03-1.20298E+03-4.79906E+03-3.88844E+00 1.59943E+03 3.31699E+01
 -1      2232-1.79692E+03-1.20371E+03-4.80036E+03-2.89135E+00 1.59896E+03 3.84720E+01
 -1      2233-1.79855E+03-1.20452E+03-4.80299E+03-2.57310E+00 1.59937E+03 4.29173E+01
 -1      2234-1.79927E+03-1.20504E+03-4.80522E+03-2.54383E+00 1.59985E+03 4.67972E+01
 -1      2235-1.79796E+03-1.20501E+03-4.80634E+03-2.89255E+00 1.59986E+03 5.13128E+01
 -1      2236-1.79311E+03-1.20362E+03-4.80283E+03-4.22159E+00 1.59811E+03 5.88022E+01
 -1      2237-1.78450E+03-1.19917E+03-4.78442E+03-7.26541E+00 1.59179E+03 7.14043E+01
 -1      2238-1.77700E+03-1.18920E+03-4.73474E+03-1.06102E+01 1.57770E+03 8.46417E+01
 -1      2239-1.77546E+03-1.17317E+03-4.65922E+03-5.03598E+00 1.56035E+03 7.56687E+01
 -1      2240-1.76237E+03-1.16554E+03-4.67153E+03 2.36865E+01 1.56875E+03 2.17811E+01
 -1      2241-1.71083E+03-1.21468E+03-5.00103E+03 4.28315E+01 1.65181E+03 2.15220E+01
 -1      2242-1.66363E+03-1.32213E+03-5.39932E+03-7.71803E+01 1.72515E+03 3.58437E+02
 -1      2243-1.32567E+03-1.02580E+03-4.09332E+03-2.91959E+02 1.31899E+03 8.82908E+02
 -1      2244-6.53053E+02-3.15001E+02-1.29687E+03-2.86758E+02 4.94029E+02 8.77938E+02
 -1      2245-3.55640E+02-7.65566E+01-1.39388E+02-1.08331E+02 1.07585E+02 4.46697E+02
 -1      2246-1.38909E+02-1.97724E+01 3.19182E+01-1.55399E+01 1.37673E+01 1.72800E+02
 -1      2247-4.30183E+02-3.76406E+02-1.49360E+03 1.84894E+02 7.21905E+02-6.90795E+02
 -1      2248-8.89884E+02-7.81398E+02-2.70084E+03 1.86826E+02 1.27894E+03-6.03157E+02
 -1      2249-1.10138E+03-9.64611E+02-3.38142E+03 8.74854E+01 1.63099E+03-3.51741E+02
 -1      2250-1.24553E+03-1.03331E+03-3.59493E+03 1.86138E+01 1.75742E+03-1.45948E+02
 -1      2251-1.32177E+03-1.04522E+03-3.59755E+03-5.97341E+00 1.77536E+03-3.69643E+01
 -1      2252-1.35464E+03-1.04363E+03-3.56467E+03-8.36433E+00 1.76546E+03 5.77943E+00
 -1      2253-1.36585E+03-1.04188E+03-3.54760E+03-5.61017E+00 1.75689E+03 2.14763E+01
 -1      2254-1.36985E+03-1.04173E+03-3.54468E+03-3.47480E+00 1.75362E+03 2.93874E+01
 -1      2255-1.37224E+03-1.04236E+03-3.54696E+03-2.53671E+00 1.75327E+03 3.51516E+01
 -1      2256-1.37400E+03-1.04307E+03-3.54972E+03-2.23308E+00 1.75383E+03 3.97858E+01
 -1      2257-1.37470E+03-1.04351E+03-3.55182E+03-2.19964E+00 1.75441E+03 4.37937E+01
 -1      2258-1.37348E+03-1.04346E+03-3.55281E+03-2.51865E+00 1.75441E+03 4.83690E+01
 -1      2259-1.36937E+03-1.04222E+03-3.54996E+03-3.75337E+00 1.75239E+03 5.55704E+01
 -1      2260-1.36283E+03-1.03831E+03-3.53504E+03-6.58551E+00 1.74523E+03 6.68830E+01
 -1      2261-1.35792E+03-1.02949E+03-3.49570E+03-9.68025E+00 1.72964E+03 7.75321E+01
 -1      2262-1.35584E+03-1.01571E+03-3.43966E+03-4.52786E+00 1.71110E+03 6.90803E+01
 -1      2263-1.33868E+03-1.01186E+03-3.45885E+03 2.18794E+01 1.72139E+03 3.19128E+01
 -1      2264-1.28472E+03-1.05479E+03-3.70536E+03 3.98818E+01 1.80967E+03 5.54876E+01
 -1      2265-1.22705E+03-1.12930E+03-3.94716E+03-7.17682E+01 1.87478E+03 3.39234E+02
 -1      2266-9.81521E+02-8.73366E+02-2.97756E+03-2.72424E+02 1.42827E+03 7.44326E+02
 -1      2267-5.21918E+02-2.91434E+02-1.00154E+03-2.66588E+02 5.53389E+02 7.47680E+02
 -1      2268-3.01840E+02-7.44719E+01-1.17756E+02-1.00042E+02 1.25926E+02 4.17285E+02
 -1      2269-1.24550E+02-1.71123E+01 3.00395E+01-1.35532E+01 1.77681E+01 1.80678E+02
 -1      2270-2.64904E+02-1.46345E+02-1.08444E+03 1.05883E+02 5.84414E+02-6.32559E+02
 -1      2271-5.40808E+02-3.46449E+02-1.90758E+03 1.06543E+02 1.01916E+03-5.68126E+02
 -1      2272-6.58147E+02-4.30208E+02-2.39761E+03 5.17457E+01 1.30193E+03-3.49528E+02
 -1      2273-7.63637E+02-4.53832E+02-2.56558E+03 1.16195E+01 1.40486E+03-1.55940E+02
 -1      2274-8.36394E+02-4.57537E+02-2.57666E+03-3.16562E+00 1.42091E+03-4.59743E+01
 -1      2275-8.74118E+02-4.57302E+02-2.55695E+03-4.90033E+00 1.41378E+03 1.53834E-01
 -1      2276-8.89475E+02-4.57463E+02-2.54746E+03-3.38658E+00 1.40729E+03 1.78288E+01
 -1      2277-8.95241E+02-4.57817E+02-2.54769E+03-2.11792E+00 1.40490E+03 2.65079E+01
 -1      2278-8.98061E+02-4.58176E+02-2.55103E+03-1.52592E+00 1.40478E+03 3.25643E+01
 -1      2279-8.99780E+02-4.58445E+02-2.55406E+03-1.31839E+00 1.40533E+03 3.73708E+01
 -1      2280-9.00330E+02-4.58580E+02-2.55611E+03-1.28815E+00 1.40584E+03 4.15511E+01
 -1      2281-8.99061E+02-4.58522E+02-2.55700E+03-1.48104E+00 1.40584E+03 4.63275E+01
 -1      2282-8.95541E+02-4.58132E+02-2.55461E+03-2.20951E+00 1.40414E+03 5.36446E+01
 -1      2283-8.91316E+02-4.56949E+02-2.54247E+03-3.81287E+00 1.39821E+03 6.44997E+01
 -1      2284-8.90693E+02-4.53358E+02-2.51142E+03-5.41211E+00 1.38558E+03 7.34598E+01
 -1      2285-8.91301E+02-4.44921E+02-2.47051E+03-2.07866E+00 1.37110E+03 6.42408E+01
 -1      2286-8.67215E+02-4.37962E+02-2.49270E+03 1.27240E+01 1.37996E+03 3.61704E+01
 -1      2287-7.94366E+02-4.60446E+02-2.67299E+03 1.99984E+01 1.44930E+03 7.90593E+01
 -1      2288-7.17505E+02-5.10430E+02-2.79639E+03-4.49644E+01 1.49155E+03 3.41345E+02
 -1      2289-5.88714E+02-3.95161E+02-2.09781E+03-1.55149E+02 1.13323E+03 6.81020E+02
 -1      2290-3.81583E+02-1.16429E+02-7.66656E+02-1.52792E+02 4.51934E+02 6.92189E+02
 -1      2291-2.63905E+02-2.30437E+01-1.00376E+02-6.07836E+01 1.05735E+02 4.17680E+02
 -1      2292-1.23540E+02-9.82572E+00 2.61771E+01-8.60388E+00 1.61673E+01 1.93278E+02
 -1      2293-1.92960E+02-1.04104E+02-1.04163E+03-2.02385E+02-4.30070E+02-4.72087E+02
 -1      2294-3.32140E+02-2.61546E+02-1.68505E+03-1.96802E+02-7.88026E+02-4.17944E+02
 -1      2295-4.35030E+02-3.27760E+02-2.13504E+03-9.59049E+01-9.98151E+02-2.50853E+02
 -1      2296-5.44760E+02-3.35253E+02-2.25494E+03-2.19274E+01-1.06142E+03-1.08305E+02
 -1      2297-6.48067E+02-3.34515E+02-2.24330E+03 5.26010E+00-1.06539E+03-3.09572E+01
 -1      2298-7.10436E+02-3.35747E+02-2.21745E+03 8.86236E+00-1.05781E+03 1.92734E+00
 -1      2299-7.38879E+02-3.37529E+02-2.20757E+03 6.41221E+00-1.05286E+03 1.65309E+01
 -1      2300-7.50366E+02-3.38642E+02-2.20812E+03 4.25385E+00-1.05122E+03 2.51070E+01
 -1      2301-7.55614E+02-3.39161E+02-2.21136E+03 3.26098E+00-1.05116E+03 3.12357E+01
 -1      2302-7.58393E+02-3.39383E+02-2.21410E+03 2.94579E+00-1.05152E+03 3.58035E+01
 -1      2303-7.59156E+02-3.39430E+02-2.21597E+03 2.94625E+00-1.05187E+03 3.94394E+01
 -1      2304-7.57315E+02-3.39352E+02-2.21713E+03 3.35514E+00-1.05195E+03 4.31684E+01
 -1      2305-7.52870E+02-3.39270E+02-2.21599E+03 4.73564E+00-1.05103E+03 4.86300E+01
 -1      2306-7.49058E+02-3.39159E+02-2.20631E+03 7.64889E+00-1.04731E+03 5.74054E+01
 -1      2307-7.52679E+02-3.37190E+02-2.17729E+03 1.05955E+01-1.03800E+03 6.72595E+01
 -1      2308-7.56619E+02-3.27580E+02-2.13190E+03 5.31602E+00-1.02357E+03 6.53804E+01
 -1      2309-7.10332E+02-3.11869E+02-2.14406E+03-2.10089E+01-1.02169E+03 4.07067E+01
 -1      2310-5.74295E+02-3.28701E+02-2.34151E+03-3.77671E+01-1.07993E+03 5.14864E+01
 -1      2311-4.67052E+02-4.13339E+02-2.53105E+03 8.12146E+01-1.17228E+03 2.38921E+02
 -1      2312-4.24500E+02-3.29983E+02-1.88642E+03 2.91510E+02-8.96380E+02 5.10046E+02
 -1      2313-3.65845E+02-4.50037E+01-5.93445E+02 2.84759E+02-2.81701E+02 5.10842E+02
 -1      2314-3.35053E+02 9.01316E-01-1.38297E-01 1.10022E+02-4.69801E+01 2.90843E+02
 -1      2315-1.88032E+02-1.63611E+01 3.45560E+01 1.81487E+01-6.06422E+00 1.38146E+02
 -1      2316-3.15024E+02-1.47802E+02-1.55056E+03-3.20967E+02-6.17520E+02-5.54565E+02
 -1      2317-6.15560E+02-3.63311E+02-2.65024E+03-3.06766E+02-1.15416E+03-4.75872E+02
 -1      2318-8.08452E+02-4.44090E+02-3.32670E+03-1.41884E+02-1.45843E+03-2.62243E+02
 -1      2319-9.50884E+02-4.53970E+02-3.49123E+03-2.77756E+01-1.54691E+03-9.86513E+01
 -1      2320-1.05716E+03-4.54651E+02-3.46843E+03 1.13029E+01-1.55027E+03-2.06608E+01
 -1      2321-1.11363E+03-4.56153E+02-3.42770E+03 1.49272E+01-1.53828E+03 8.96038E+00
 -1      2322-1.13731E+03-4.58038E+02-3.40955E+03 1.04391E+01-1.53083E+03 2.13961E+01
 -1      2323-1.14665E+03-4.59223E+02-3.40664E+03 7.02723E+00-1.52836E+03 2.90415E+01
 -1      2324-1.15128E+03-4.59871E+02-3.40872E+03 5.55893E+00-1.52821E+03 3.47896E+01
 -1      2325-1.15399E+03-4.60207E+02-3.41117E+03 5.10980E+00-1.52870E+03 3.91511E+01
 -1      2326-1.15487E+03-4.60322E+02-3.41309E+03 5.08451E+00-1.52920E+03 4.26154E+01
 -1      2327-1.15312E+03-4.60233E+02-3.41437E+03 5.62002E+00-1.52934E+03 4.61815E+01
 -1      2328-1.14819E+03-4.59973E+02-3.41272E+03 7.63477E+00-1.52809E+03 5.16342E+01
 -1      2329-1.14222E+03-4.59435E+02-3.40005E+03 1.22255E+01-1.52287E+03 6.10834E+01
 -1      2330-1.14221E+03-4.57007E+02-3.36195E+03 1.74957E+01-1.50939E+03 7.31068E+01
 -1      2331-1.14576E+03-4.46646E+02-3.29778E+03 1.04461E+01-1.48752E+03 7.29479E+01
 -1      2332-1.10731E+03-4.26446E+02-3.29691E+03-3.26717E+01-1.48372E+03 3.69300E+01
 -1      2333-9.80237E+02-4.36993E+02-3.56563E+03-7.05016E+01-1.57126E+03 1.83225E+01
 -1      2334-9.01769E+02-5.65053E+02-3.94552E+03 1.12329E+02-1.72253E+03 2.41308E+02
 -1      2335-7.66785E+02-4.62648E+02-2.97489E+03 4.59557E+02-1.32358E+03 6.21751E+02
 -1      2336-4.65102E+02-3.94425E+01-8.27503E+02 4.45309E+02-3.94413E+02 6.08652E+02
 -1      2337-3.68321E+02-6.65224E+00-9.99449E+00 1.57463E+02-5.94560E+01 2.96916E+02
 -1      2338-1.87780E+02-2.18522E+01 3.50770E+01 2.03251E+01-4.89869E+00 1.27010E+02
 -1      2339-4.94094E+02-2.20396E+02-2.20502E+03-3.44363E+02-6.17714E+02-6.90107E+02
 -1      2340-9.78897E+02-4.98573E+02-3.91928E+03-3.23916E+02-1.17906E+03-5.83450E+02
 -1      2341-1.27963E+03-6.07442E+02-4.89929E+03-1.49724E+02-1.48847E+03-2.95688E+02
 -1      2342-1.46972E+03-6.18444E+02-5.12120E+03-2.84729E+01-1.57483E+03-9.31486E+01
 -1      2343-1.59163E+03-6.20241E+02-5.08543E+03 1.27556E+01-1.57584E+03-8.68411E+00
 -1      2344-1.64701E+03-6.22251E+02-5.02726E+03 1.63719E+01-1.56278E+03 1.81064E+01
 -1      2345-1.66668E+03-6.24404E+02-4.99972E+03 1.15470E+01-1.55497E+03 2.78022E+01
 -1      2346-1.67364E+03-6.25854E+02-4.99323E+03 7.92647E+00-1.55237E+03 3.41275E+01
 -1      2347-1.67743E+03-6.26756E+02-4.99434E+03 6.38128E+00-1.55215E+03 3.93906E+01
 -1      2348-1.68000E+03-6.27279E+02-4.99672E+03 5.91186E+00-1.55261E+03 4.35611E+01
 -1      2349-1.68093E+03-6.27496E+02-4.99885E+03 5.88298E+00-1.55310E+03 4.69049E+01
 -1      2350-1.67904E+03-6.27405E+02-5.00031E+03 6.43827E+00-1.55327E+03 5.04257E+01
 -1      2351-1.67308E+03-6.26941E+02-4.99797E+03 8.55241E+00-1.55210E+03 5.62188E+01
 -1      2352-1.66429E+03-6.25825E+02-4.98130E+03 1.34069E+01-1.54698E+03 6.71246E+01
 -1      2353-1.66123E+03-6.22685E+02-4.93119E+03 1.90742E+01-1.53337E+03 8.23713E+01
 -1      2354-1.66796E+03-6.10565E+02-4.84117E+03 1.16528E+01-1.51046E+03 8.36189E+01
 -1      2355-1.63520E+03-5.82052E+02-4.81804E+03-3.49228E+01-1.50527E+03 2.89356E+01
 -1      2356-1.49769E+03-5.90899E+02-5.18106E+03-7.61087E+01-1.59780E+03-3.00848E+01
 -1      2357-1.43817E+03-7.72308E+02-5.83937E+03 1.16793E+02-1.77053E+03 2.57260E+02
 -1      2358-1.19966E+03-6.33431E+02-4.44797E+03 4.85613E+02-1.37012E+03 8.13194E+02
 -1      2359-6.15304E+02-4.28229E+01-1.11942E+03 4.72089E+02-3.85672E+02 7.82909E+02
 -1      2360-4.47826E+02-9.95430E+00-1.61104E+01 1.66007E+02-5.07414E+01 3.25176E+02
 -1      2361-2.10355E+02-3.02261E+01 3.40065E+01 2.06121E+01-1.80568E+00 1.17644E+02
 -1      2362-6.43231E+02-2.27246E+02-2.80471E+03-2.82927E+02-4.83363E+02-8.26411E+02
 -1      2363-1.28067E+03-5.10611E+02-5.10749E+03-2.64115E+02-9.37184E+02-6.94381E+02
 -1      2364-1.67150E+03-6.15038E+02-6.37714E+03-1.22216E+02-1.18453E+03-3.32616E+02
 -1      2365-1.90378E+03-6.15648E+02-6.65172E+03-2.32498E+01-1.25156E+03-8.97903E+01
 -1      2366-2.04254E+03-6.15350E+02-6.60292E+03 1.06148E+01-1.25125E+03 2.38841E+00
 -1      2367-2.09916E+03-6.18321E+02-6.52870E+03 1.36234E+01-1.24046E+03 2.69090E+01
 -1      2368-2.11598E+03-6.21326E+02-6.49274E+03 9.71457E+00-1.23413E+03 3.40356E+01
 -1      2369-2.12089E+03-6.23254E+02-6.48316E+03 6.76784E+00-1.23200E+03 3.90883E+01
 -1      2370-2.12385E+03-6.24383E+02-6.48350E+03 5.50672E+00-1.23179E+03 4.38976E+01
 -1      2371-2.12624E+03-6.24997E+02-6.48587E+03 5.12337E+00-1.23212E+03 4.79119E+01
 -1      2372-2.12717E+03-6.25240E+02-6.48822E+03 5.10079E+00-1.23250E+03 5.11722E+01
 -1      2373-2.12506E+03-6.25157E+02-6.48988E+03 5.55547E+00-1.23264E+03 5.46985E+01
 -1      2374-2.11810E+03-6.24733E+02-6.48694E+03 7.27638E+00-1.23176E+03 6.09125E+01
 -1      2375-2.10693E+03-6.23797E+02-6.46661E+03 1.12192E+01-1.22780E+03 7.33490E+01
 -1      2376-2.10214E+03-6.21404E+02-6.40533E+03 1.58136E+01-1.21706E+03 9.17533E+01
 -1      2377-2.11321E+03-6.08613E+02-6.29032E+03 9.63625E+00-1.19864E+03 9.40210E+01
 -1      2378-2.08351E+03-5.71178E+02-6.24420E+03-2.85749E+01-1.19388E+03 2.03064E+01
 -1      2379-1.92901E+03-5.73121E+02-6.70081E+03-6.21999E+01-1.27042E+03-7.78589E+01
 -1      2380-1.88384E+03-7.97002E+02-7.63928E+03 9.40345E+01-1.41789E+03 2.74313E+02
 -1      2381-1.56883E+03-6.62199E+02-5.86677E+03 3.95325E+02-1.10539E+03 1.00718E+03
 -1      2382-7.43582E+02 4.24388E+00-1.38314E+03 3.85800E+02-3.00111E+02 9.62401E+02
 -1      2383-5.27174E+02 1.54371E+00-1.31164E+01 1.35768E+02-3.47778E+01 3.57601E+02
 -1      2384-2.37547E+02-3.53874E+01 3.43378E+01 1.70536E+01 1.05024E-01 1.09894E+02
 -1      2385-7.36261E+02-2.10621E+02-3.20471E+03-1.57978E+02-2.61952E+02-9.22931E+02
 -1      2386-1.46891E+03-4.76841E+02-5.90824E+03-1.47164E+02-5.12277E+02-7.74113E+02
 -1      2387-1.91826E+03-5.66899E+02-7.37971E+03-6.82005E+01-6.48783E+02-3.60169E+02
 -1      2388-2.17951E+03-5.57199E+02-7.69167E+03-1.30494E+01-6.85360E+02-8.81352E+01
 -1      2389-2.33097E+03-5.54873E+02-7.63438E+03 5.93685E+00-6.85000E+02 1.00261E+01
 -1      2390-2.38934E+03-5.58772E+02-7.54950E+03 7.67097E+00-6.79010E+02 3.31365E+01
 -1      2391-2.40454E+03-5.62616E+02-7.50794E+03 5.51224E+00-6.75509E+02 3.84956E+01
 -1      2392-2.40810E+03-5.64956E+02-7.49630E+03 3.87504E+00-6.74322E+02 4.26559E+01
 -1      2393-2.41048E+03-5.66242E+02-7.49613E+03 3.17139E+00-6.74192E+02 4.71481E+01
 -1      2394-2.41272E+03-5.66895E+02-7.49851E+03 2.95710E+00-6.74366E+02 5.10597E+01
 -1      2395-2.41362E+03-5.67134E+02-7.50103E+03 2.94522E+00-6.74569E+02 5.42705E+01
 -1      2396-2.41134E+03-5.67056E+02-7.50281E+03 3.20052E+00-6.74649E+02 5.78175E+01
 -1      2397-2.40367E+03-5.66719E+02-7.49946E+03 4.15889E+00-6.74177E+02 6.43546E+01
 -1      2398-2.39095E+03-5.66136E+02-7.47663E+03 6.34891E+00-6.72029E+02 7.78967E+01
 -1      2399-2.38539E+03-5.64711E+02-7.40775E+03 8.87980E+00-6.66171E+02 9.85087E+01
 -1      2400-2.40012E+03-5.51958E+02-7.27583E+03 5.36630E+00-6.56081E+02 1.01264E+02
 -1      2401-2.37220E+03-5.08493E+02-7.21429E+03-1.59590E+01-6.53421E+02 1.36849E+01
 -1      2402-2.20423E+03-5.03338E+02-7.73931E+03-3.45802E+01-6.96668E+02-1.11347E+02
 -1      2403-2.16413E+03-7.49671E+02-8.86937E+03 5.19267E+01-7.79838E+02 2.86598E+02
 -1      2404-1.80634E+03-6.32077E+02-6.84840E+03 2.19773E+02-6.11355E+02 1.14462E+03
 -1      2405-8.30368E+02 5.13857E+01-1.56847E+03 2.15200E+02-1.63967E+02 1.09165E+03
 -1      2406-5.84232E+02 1.27409E+01-8.76997E+00 7.59244E+01-1.75903E+01 3.82607E+02
 -1      2407-2.58498E+02-3.83551E+01 3.49665E+01 9.67227E+00 4.51569E-01 1.04864E+02
 -1      2408-7.66664E+02-2.01111E+02-3.34124E+03 9.44534E-07-1.22276E-05-9.57115E+02
 -1      2409-1.53041E+03-4.57622E+02-6.18270E+03 5.02482E-06-1.03043E-05-8.02605E+02
 -1      2410-1.99964E+03-5.40631E+02-7.72519E+03 3.56876E-06-5.53116E-06-3.70226E+02
 -1      2411-2.27115E+03-5.26814E+02-8.05064E+03 1.35707E-06-3.93555E-06-8.76736E+01
 -1      2412-2.42733E+03-5.23717E+02-7.99057E+03 2.17567E-07-3.91460E-06 1.27197E+01
 -1      2413-2.48650E+03-5.27996E+02-7.90206E+03-2.23224E-07-4.08134E-06 3.53626E+01
 -1      2414-2.50118E+03-5.32182E+02-7.85858E+03-3.80455E-07-4.10175E-06 4.01017E+01
 -1      2415-2.50428E+03-5.34682E+02-7.84623E+03-4.51231E-07-4.22807E-06 4.39452E+01
 -1      2416-2.50644E+03-5.36026E+02-7.84589E+03-3.96520E-07-4.61212E-06 4.83246E+01
 -1      2417-2.50863E+03-5.36688E+02-7.84828E+03-3.45932E-07-4.69613E-06 5.22004E+01
 -1      2418-2.50952E+03-5.36922E+02-7.85085E+03-3.09334E-07-5.15238E-06 5.53949E+01
 -1      2419-2.50717E+03-5.36846E+02-7.85267E+03-1.80249E-07-5.39409E-06 5.89516E+01
 -1      2420-2.49924E+03-5.36549E+02-7.84917E+03-9.43207E-08-5.56089E-06 6.56080E+01
 -1      2421-2.48600E+03-5.36125E+02-7.82548E+03 1.91038E-08-5.79520E-06 7.95443E+01
 -1      2422-2.48024E+03-5.35119E+02-7.75398E+03 1.53459E-07-5.75075E-06 1.00939E+02
 -1      2423-2.49642E+03-5.22463E+02-7.61624E+03 1.78456E-07-5.59907E-06 1.03804E+02
 -1      2424-2.46917E+03-4.76958E+02-7.54959E+03 2.09452E-08-5.54989E-06 1.11891E+01
 -1      2425-2.29616E+03-4.68814E+02-8.09945E+03-3.12110E-07-5.94410E-06-1.23125E+02
 -1      2426-2.25642E+03-7.21576E+02-9.29509E+03 4.88002E-07-7.32685E-06 2.91010E+02
 -1      2427-1.88578E+03-6.12537E+02-7.19082E+03 2.36487E-06-5.63085E-06 1.19322E+03
 -1      2428-8.60870E+02 7.03263E+01-1.63494E+03 2.32242E-06-9.50007E-07 1.13788E+03
 -1      2429-6.04855E+02 1.70693E+01-7.02810E+00 8.41153E-07 2.00082E-07 3.91951E+02
 -1      2430-2.66261E+02-3.93136E+01 3.52732E+01 1.53633E-07 5.64642E-08 1.03151E+02
 -1      2431-7.36261E+02-2.10621E+02-3.20471E+03 1.57978E+02 2.61952E+02-9.22931E+02
 -1      2432-1.46891E+03-4.76841E+02-5.90824E+03 1.47164E+02 5.12277E+02-7.74113E+02
 -1      2433-1.91826E+03-5.66899E+02-7.37971E+03 6.82005E+01 6.48783E+02-3.60169E+02
 -1      2434-2.17951E+03-5.57199E+02-7.69167E+03 1.30494E+01 6.85360E+02-8.81352E+01
 -1      2435-2.33097E+03-5.54873E+02-7.63438E+03-5.93685E+00 6.85000E+02 1.00261E+01
 -1      2436-2.38934E+03-5.58772E+02-7.54950E+03-7.67097E+00 6.79010E+02 3.31365E+01
 -1      2437-2.40454E+03-5.62616E+02-7.50794E+03-5.51224E+00 6.75509E+02 3.84956E+01
 -1      2438-2.40810E+03-5.64956E+02-7.49630E+03-3.87504E+00 6.74322E+02 4.26559E+01
 -1      2439-2.41048E+03-5.66242E+02-7.49613E+03-3.17139E+00 6.74192E+02 4.71481E+01
 -1      2440-2.41272E+03-5.66895E+02-7.49851E+03-2.95710E+00 6.74366E+02 5.10597E+01
 -1      2441-2.41362E+03-5.67134E+02-7.50103E+03-2.94522E+00 6.74569E+02 5.42705E+01
 -1      2442-2.41134E+03-5.67056E+02-7.50281E+03-3.20052E+00 6.74649E+02 5.78175E+01
 -1      2443-2.40367E+03-5.66719E+02-7.49946E+03-4.15889E+00 6.74177E+02 6.43546E+01
 -1      2444-2.39095E+03-5.66136E+02-7.47663E+03-6.34891E+00 6.72029E+02 7.78967E+01
 -1      2445-2.38539E+03-5.64711E+02-7.40775E+03-8.87980E+00 6.66171E+02 9.85087E+01
 -1      2446-2.40012E+03-5.51958E+02-7.27583E+03-5.36630E+00 6.56081E+02 1.01264E+02
 -1      2447-2.37220E+03-5.08493E+02-7.21429E+03 1.59590E+01 6.53421E+02 1.36849E+01
 -1      2448-2.20423E+03-5.03338E+02-7.73931E+03 3.45802E+01 6.96668E+02-1.11347E+02
 -1      2449-2.16413E+03-7.49671E+02-8.86937E+03-5.19267E+01 7.79838E+02 2.86598E+02
 -1      2450-1.80634E+03-6.32077E+02-6.84840E+03-2.19773E+02 6.11355E+02 1.14462E+03
 -1      2451-8.30368E+02 5.13857E+01-1.56847E+03-2.15200E+02 1.63967E+02 1.09165E+03
 -1      2452-5.84232E+02 1.27409E+01-8.76997E+00-7.59244E+01 1.75903E+01 3.82607E+02
 -1      2453-2.58498E+02-3.83551E+01 3.49665E+01-9.67227E+00-4.51569E-01 1.04864E+02
 -1      2454-6.43231E+02-2.27246E+02-2.80471E+03 2.82927E+02 4.83363E+02-8.26411E+02
 -1      2455-1.28067E+03-5.10611E+02-5.10749E+03 2.64115E+02 9.37184E+02-6.94381E+02
 -1      2456-1.67150E+03-6.15038E+02-6.37714E+03 1.22216E+02 1.18453E+03-3.32616E+02
 -1      2457-1.90378E+03-6.15648E+02-6.65172E+03 2.32498E+01 1.25156E+03-8.97903E+01
 -1      2458-2.04254E+03-6.15350E+02-6.60292E+03-1.06148E+01 1.25125E+03 2.38841E+00
 -1      2459-2.09916E+03-6.18321E+02-6.52870E+03-1.36234E+01 1.24046E+03 2.69090E+01
 -1      2460-2.11598E+03-6.21326E+02-6.49274E+03-9.71457E+00 1.23413E+03 3.40356E+01
 -1      2461-2.12089E+03-6.23254E+02-6.48316E+03-6.76784E+00 1.23200E+03 3.90883E+01
 -1      2462-2.12385E+03-6.24383E+02-6.48350E+03-5.50672E+00 1.23179E+03 4.38976E+01
 -1      2463-2.12624E+03-6.24997E+02-6.48587E+03-5.12337E+00 1.23212E+03 4.79119E+01
 -1      2464-2.12717E+03-6.25240E+02-6.48822E+03-5.10079E+00 1.23250E+03 5.11722E+01
 -1      2465-2.12506E+03-6.25157E+02-6.48988E+03-5.55547E+00 1.23264E+03 5.46985E+01
 -1      2466-2.11810E+03-6.24733E+02-6.48694E+03-7.27638E+00 1.23176E+03 6.09125E+01
 -1      2467-2.10693E+03-6.23797E+02-6.46661E+03-1.12192E+01 1.22780E+03 7.33490E+01
 -1      2468-2.10214E+03-6.21404E+02-6.40533E+03-1.58136E+01 1.21706E+03 9.17533E+01
 -1      2469-2.11321E+03-6.08613E+02-6.29032E+03-9.63625E+00 1.19864E+03 9.40210E+01
 -1      2470-2.08351E+03-5.71178E+02-6.24420E+03 2.85749E+01 1.19388E+03 2.03064E+01
 -1      2471-1.92902E+03-5.73121E+02-6.70081E+03 6.21999E+01 1.27042E+03-7.78589E+01
 -1      2472-1.88384E+03-7.97002E+02-7.63928E+03-9.40345E+01 1.41789E+03 2.74313E+02
 -1      2473-1.56883E+03-6.62199E+02-5.86677E+03-3.95325E+02 1.10539E+03 1.00718E+03
 -1      2474-7.43582E+02 4.24388E+00-1.38314E+03-3.85800E+02 3.00111E+02 9.62401E+02
 -1      2475-5.27174E+02 1.54371E+00-1.31164E+01-1.35768E+02 3.47778E+01 3.57601E+02
 -1      2476-2.37547E+02-3.53874E+01 3.43378E+01-1.70536E+01-1.05024E-01 1.09894E+02
 -1      2477-4.94094E+02-2.20396E+02-2.20502E+03 3.44363E+02 6.17714E+02-6.90107E+02
 -1      2478-9.78897E+02-4.98573E+02-3.91928E+03 3.23916E+02 1.17906E+03-5.83450E+02
 -1      2479-1.27963E+03-6.07442E+02-4.89929E+03 1.49724E+02 1.48847E+03-2.95688E+02
 -1      2480-1.46972E+03-6.18444E+02-5.12120E+03 2.84729E+01 1.57483E+03-9.31486E+01
 -1      2481-1.59163E+03-6.20241E+02-5.08543E+03-1.27556E+01 1.57584E+03-8.68411E+00
 -1      2482-1.64701E+03-6.22251E+02-5.02726E+03-1.63719E+01 1.56278E+03 1.81064E+01
 -1      2483-1.66668E+03-6.24404E+02-4.99972E+03-1.15470E+01 1.55497E+03 2.78022E+01
 -1      2484-1.67364E+03-6.25854E+02-4.99323E+03-7.92647E+00 1.55237E+03 3.41275E+01
 -1      2485-1.67743E+03-6.26756E+02-4.99434E+03-6.38128E+00 1.55215E+03 3.93906E+01
 -1      2486-1.68000E+03-6.27279E+02-4.99672E+03-5.91186E+00 1.55261E+03 4.35611E+01
 -1      2487-1.68093E+03-6.27496E+02-4.99885E+03-5.88298E+00 1.55310E+03 4.69049E+01
 -1      2488-1.67904E+03-6.27405E+02-5.00031E+03-6.43827E+00 1.55327E+03 5.04257E+01
 -1      2489-1.67308E+03-6.26941E+02-4.99797E+03-8.55241E+00 1.55210E+03 5.62188E+01
 -1      2490-1.66429E+03-6.25825E+02-4.98130E+03-1.34069E+01 1.54698E+03 6.71246E+01
 -1      2491-1.66123E+03-6.22685E+02-4.93119E+03-1.90742E+01 1.53337E+03 8.23713E+01
 -1      2492-1.66796E+03-6.10565E+02-4.84117E+03-1.16528E+01 1.51046E+03 8.36189E+01
 -1      2493-1.63520E+03-5.82052E+02-4.81804E+03 3.49228E+01 1.50527E+03 2.89356E+01
 -1      2494-1.49769E+03-5.90899E+02-5.18106E+03 7.61087E+01 1.59780E+03-3.00848E+01
 -1      2495-1.43817E+03-7.72308E+02-5.83937E+03-1.16793E+02 1.77053E+03 2.57260E+02
 -1      2496-1.19966E+03-6.33431E+02-4.44797E+03-4.85613E+02 1.37012E+03 8.13194E+02
 -1      2497-6.15304E+02-4.28229E+01-1.11942E+03-4.72089E+02 3.85672E+02 7.82909E+02
 -1      2498-4.47826E+02-9.95430E+00-1.61104E+01-1.66007E+02 5.07414E+01 3.25176E+02
 -1      2499-2.10355E+02-3.02261E+01 3.40065E+01-2.06121E+01 1.80568E+00 1.17644E+02
 -1      2500-3.15024E+02-1.47802E+02-1.55056E+03 3.20967E+02 6.17520E+02-5.54565E+02
 -1      2501-6.15560E+02-3.63311E+02-2.65024E+03 3.06766E+02 1.15416E+03-4.75872E+02
 -1      2502-8.08452E+02-4.44090E+02-3.32670E+03 1.41884E+02 1.45843E+03-2.62243E+02
 -1      2503-9.50884E+02-4.53970E+02-3.49123E+03 2.77756E+01 1.54691E+03-9.86513E+01
 -1      2504-1.05716E+03-4.54651E+02-3.46843E+03-1.13029E+01 1.55027E+03-2.06608E+01
 -1      2505-1.11363E+03-4.56153E+02-3.42770E+03-1.49272E+01 1.53828E+03 8.96038E+00
 -1      2506-1.13731E+03-4.58038E+02-3.40955E+03-1.04391E+01 1.53083E+03 2.13961E+01
 -1      2507-1.14665E+03-4.59223E+02-3.40664E+03-7.02723E+00 1.52836E+03 2.90415E+01
 -1      2508-1.15128E+03-4.59871E+02-3.40872E+03-5.55893E+00 1.52821E+03 3.47896E+01
 -1      2509-1.15399E+03-4.60207E+02-3.41117E+03-5.10980E+00 1.52870E+03 3.91511E+01
 -1      2510-1.15487E+03-4.60322E+02-3.41309E+03-5.08451E+00 1.52920E+03 4.26154E+01
 -1      2511-1.15312E+03-4.60233E+02-3.41437E+03-5.62002E+00 1.52934E+03 4.61815E+01
 -1      2512-1.14819E+03-4.59973E+02-3.41272E+03-7.63477E+00 1.52809E+03 5.16342E+01
 -1      2513-1.14222E+03-4.59435E+02-3.40005E+03-1.22255E+01 1.52287E+03 6.10834E+01
 -1      2514-1.14221E+03-4.57007E+02-3.36195E+03-1.74957E+01 1.50939E+03 7.31068E+01
 -1      2515-1.14576E+03-4.46646E+02-3.29778E+03-1.04461E+01 1.48752E+03 7.29479E+01
 -1      2516-1.10731E+03-4.26446E+02-3.29691E+03 3.26717E+01 1.48372E+03 3.69300E+01
 -1      2517-9.80237E+02-4.36993E+02-3.56563E+03 7.05016E+01 1.57126E+03 1.83225E+01
 -1      2518-9.01769E+02-5.65053E+02-3.94552E+03-1.12329E+02 1.72253E+03 2.41308E+02
 -1      2519-7.66785E+02-4.62648E+02-2.97489E+03-4.59557E+02 1.32358E+03 6.21751E+02
 -1      2520-4.65102E+02-3.94425E+01-8.27503E+02-4.45309E+02 3.94413E+02 6.08652E+02
 -1      2521-3.68321E+02-6.65224E+00-9.99449E+00-1.57463E+02 5.94560E+01 2.96916E+02
 -1      2522-1.87780E+02-2.18522E+01 3.50770E+01-2.03251E+01 4.89869E+00 1.27010E+02
 -1      2523-1.92960E+02-1.04104E+02-1.04163E+03 2.02385E+02 4.30070E+02-4.72087E+02
 -1      2524-3.32140E+02-2.61546E+02-1.68505E+03 1.96802E+02 7.88026E+02-4.17944E+02
 -1      2525-4.35030E+02-3.27760E+02-2.13504E+03 9.59049E+01 9.98151E+02-2.50853E+02
 -1      2526-5.44760E+02-3.35253E+02-2.25494E+03 2.19274E+01 1.06142E+03-1.08305E+02
 -1      2527-6.48067E+02-3.34515E+02-2.24330E+03-5.26010E+00 1.06539E+03-3.09572E+01
 -1      2528-7.10436E+02-3.35747E+02-2.21745E+03-8.86236E+00 1.05781E+03 1.92734E+00
 -1      2529-7.38879E+02-3.37529E+02-2.20757E+03-6.41221E+00 1.05286E+03 1.65309E+01
 -1      2530-7.50366E+02-3.38642E+02-2.20812E+03-4.25385E+00 1.05122E+03 2.51070E+01
 -1      2531-7.55614E+02-3.39161E+02-2.21136E+03-3.26098E+00 1.05116E+03 3.12357E+01
 -1      2532-7.58393E+02-3.39383E+02-2.21410E+03-2.94579E+00 1.05152E+03 3.58035E+01
 -1      2533-7.59156E+02-3.39430E+02-2.21597E+03-2.94625E+00 1.05187E+03 3.94394E+01
 -1      2534-7.57315E+02-3.39352E+02-2.21713E+03-3.35514E+00 1.05195E+03 4.31684E+01
 -1      2535-7.52870E+02-3.39270E+02-2.21599E+03-4.73564E+00 1.05103E+03 4.86300E+01
 -1      2536-7.49058E+02-3.39159E+02-2.20631E+03-7.64889E+00 1.04731E+03 5.74054E+01
 -1      2537-7.52679E+02-3.37190E+02-2.17729E+03-1.05955E+01 1.03800E+03 6.72595E+01
 -1      2538-7.56619E+02-3.27580E+02-2.13190E+03-5.31602E+00 1.02357E+03 6.53804E+01
 -1      2539-7.10332E+02-3.11869E+02-2.14406E+03 2.10089E+01 1.02169E+03 4.07067E+01
 -1      2540-5.74295E+02-3.28701E+02-2.34151E+03 3.77671E+01 1.07993E+03 5.14864E+01
 -1      2541-4.67052E+02-4.13339E+02-2.53105E+03-8.12146E+01 1.17228E+03 2.38921E+02
 -1      2542-4.24500E+02-3.29983E+02-1.88642E+03-2.91510E+02 8.96380E+02 5.10046E+02
 -1      2543-3.65845E+02-4.50037E+01-5.93445E+02-2.84759E+02 2.81701E+02 5.10842E+02
 -1      2544-3.35053E+02 9.01316E-01-1.38298E-01-1.10022E+02 4.69801E+01 2.90843E+02
 -1      2545-1.88032E+02-1.63611E+01 3.45560E+01-1.81487E+01 6.06422E+00 1.38146E+02
 -1      2546-7.63678E+01-7.50806E+01-7.33550E+02-2.56087E+02-2.96699E+02-2.68631E+02
 -1      2547-1.05815E+02-2.36009E+02-1.14804E+03-2.36397E+02-5.98418E+02-2.57577E+02
 -1      2548-1.67920E+02-2.81544E+02-1.43906E+03-1.06907E+02-7.41172E+02-1.42727E+02
 -1      2549-2.67096E+02-2.77094E+02-1.49958E+03-1.97304E+01-7.66684E+02-5.55424E+01
 -1      2550-3.71479E+02-2.70170E+02-1.47260E+03 9.60582E+00-7.58140E+02-1.36128E+01
 -1      2551-4.41249E+02-2.70235E+02-1.44835E+03 1.25424E+01-7.49631E+02 4.23350E+00
 -1      2552-4.76590E+02-2.72066E+02-1.44054E+03 9.36213E+00-7.46028E+02 1.46523E+01
 -1      2553-4.92962E+02-2.73326E+02-1.44137E+03 6.86293E+00-7.45159E+02 2.24525E+01
 -1      2554-5.00993E+02-2.73895E+02-1.44397E+03 5.78344E+00-7.45234E+02 2.82434E+01
 -1      2555-5.05120E+02-2.74097E+02-1.44597E+03 5.46791E+00-7.45483E+02 3.23031E+01
 -1      2556-5.06444E+02-2.74129E+02-1.44734E+03 5.48118E+00-7.45724E+02 3.51912E+01
 -1      2557-5.04867E+02-2.74123E+02-1.44848E+03 5.92709E+00-7.45912E+02 3.76863E+01
 -1      2558-5.00691E+02-2.74282E+02-1.44848E+03 7.47746E+00-7.45727E+02 4.10942E+01
 -1      2559-4.96822E+02-2.74659E+02-1.44265E+03 1.08952E+01-7.43975E+02 4.75436E+01
 -1      2560-4.99203E+02-2.73369E+02-1.42181E+03 1.48877E+01-7.37527E+02 5.78815E+01
 -1      2561-5.01153E+02-2.63496E+02-1.38410E+03 1.08339E+01-7.22350E+02 6.29155E+01
 -1      2562-4.51290E+02-2.43127E+02-1.38466E+03-2.02800E+01-7.09345E+02 4.14223E+01
 -1      2563-3.03994E+02-2.54364E+02-1.55017E+03-5.62203E+01-7.57110E+02 1.76678E+01
 -1      2564-2.05046E+02-3.84314E+02-1.74734E+03 8.33650E+01-9.11239E+02 1.26859E+02
 -1      2565-2.32757E+02-3.23034E+02-1.28954E+03 3.67103E+02-7.04773E+02 3.29106E+02
 -1      2566-2.70828E+02 2.57399E+01-3.23908E+02 3.49415E+02-1.14845E+02 3.18116E+02
 -1      2567-3.08221E+02 2.21114E+01 7.52160E+01 1.15099E+02 1.06750E+01 1.53695E+02
 -1      2568-1.82511E+02-1.47798E+01 3.86287E+01 1.64931E+01 4.69348E+00 7.08321E+01
 -1      2569-2.40297E+02-9.55522E+01-1.42641E+03-4.06342E+02-5.33186E+02-3.86834E+02
 -1      2570-4.71718E+02-3.10834E+02-2.46346E+03-3.70893E+02-1.09094E+03-3.56998E+02
 -1      2571-6.46686E+02-3.58012E+02-3.04949E+03-1.57842E+02-1.34948E+03-1.68880E+02
 -1      2572-7.89995E+02-3.48186E+02-3.17140E+03-2.28892E+01-1.39608E+03-4.74748E+01
 -1      2573-8.99413E+02-3.40948E+02-3.13524E+03 1.90207E+01-1.38125E+03-1.21775E+00
 -1      2574-9.61827E+02-3.41418E+02-3.09461E+03 2.13066E+01-1.36593E+03 1.37934E+01
 -1      2575-9.91310E+02-3.43669E+02-3.07739E+03 1.55527E+01-1.35925E+03 2.17320E+01
 -1      2576-1.00521E+03-3.45208E+02-3.07457E+03 1.15753E+01-1.35754E+03 2.83122E+01
 -1      2577-1.01261E+03-3.45949E+02-3.07622E+03 9.97278E+00-1.35762E+03 3.35840E+01
 -1      2578-1.01675E+03-3.46248E+02-3.07822E+03 9.52547E+00-1.35806E+03 3.73976E+01
 -1      2579-1.01826E+03-3.46325E+02-3.07984E+03 9.51649E+00-1.35850E+03 4.01310E+01
 -1      2580-1.01681E+03-3.46320E+02-3.08111E+03 1.00985E+01-1.35883E+03 4.25508E+01
 -1      2581-1.01204E+03-3.46445E+02-3.08022E+03 1.23713E+01-1.35844E+03 4.61752E+01
 -1      2582-1.00535E+03-3.46705E+02-3.06990E+03 1.77642E+01-1.35515E+03 5.37763E+01
 -1      2583-1.00237E+03-3.45381E+02-3.03677E+03 2.46926E+01-1.34361E+03 6.69708E+01
 -1      2584-1.00368E+03-3.35320E+02-2.97571E+03 1.98703E+01-1.31667E+03 7.44661E+01
 -1      2585-9.66444E+02-3.08186E+02-2.95369E+03-3.03193E+01-1.29475E+03 3.90474E+01
 -1      2586-8.23351E+02-3.03612E+02-3.19141E+03-1.02703E+02-1.37912E+03-2.96851E+01
 -1      2587-7.66044E+02-5.04123E+02-3.67918E+03 1.10724E+02-1.66176E+03 1.37169E+02
 -1      2588-6.80297E+02-4.44545E+02-2.78432E+03 5.85877E+02-1.29842E+03 5.22815E+02
 -1      2589-3.89715E+02 7.88342E+01-6.04796E+02 5.52391E+02-2.05113E+02 4.86115E+02
 -1      2590-3.58530E+02 2.10297E+01 4.71078E+01 1.61000E+02 1.49625E+01 1.71064E+02
 -1      2591-1.81560E+02-2.01663E+01 2.92358E+01 1.54958E+01 9.15317E+00 6.25507E+01
 -1      2592-4.51319E+02-1.35470E+02-2.24077E+03-4.37463E+02-6.11624E+02-5.57860E+02
 -1      2593-9.20749E+02-4.03625E+02-4.13241E+03-3.93516E+02-1.27464E+03-5.00400E+02
 -1      2594-1.21969E+03-4.57461E+02-5.07249E+03-1.65522E+02-1.57871E+03-2.06596E+02
 -1      2595-1.41634E+03-4.35764E+02-5.24152E+03-2.20563E+01-1.63290E+03-3.75323E+01
 -1      2596-1.54152E+03-4.26698E+02-5.18293E+03 2.17246E+01-1.61553E+03 1.49394E+01
 -1      2597-1.60065E+03-4.27682E+02-5.12023E+03 2.36948E+01-1.59760E+03 2.62877E+01
 -1      2598-1.62486E+03-4.30604E+02-5.09209E+03 1.74510E+01-1.58966E+03 3.09618E+01
 -1      2599-1.63593E+03-4.32640E+02-5.08549E+03 1.32079E+01-1.58755E+03 3.60644E+01
 -1      2600-1.64238E+03-4.33635E+02-5.08626E+03 1.15152E+01-1.58758E+03 4.08102E+01
 -1      2601-1.64639E+03-4.34053E+02-5.08830E+03 1.10442E+01-1.58806E+03 4.44319E+01
 -1      2602-1.64800E+03-4.34175E+02-5.09025E+03 1.10269E+01-1.58856E+03 4.70481E+01
 -1      2603-1.64645E+03-4.34176E+02-5.09182E+03 1.16204E+01-1.58895E+03 4.94406E+01
 -1      2604-1.64065E+03-4.34341E+02-5.09036E+03 1.39966E+01-1.58849E+03 5.34548E+01
 -1      2605-1.63075E+03-4.34572E+02-5.07555E+03 1.96856E+01-1.58464E+03 6.28587E+01
 -1      2606-1.62311E+03-4.33269E+02-5.02804E+03 2.71088E+01-1.57134E+03 8.01609E+01
 -1      2607-1.62763E+03-4.22604E+02-4.93428E+03 2.23293E+01-1.54036E+03 9.14843E+01
 -1      2608-1.60005E+03-3.82722E+02-4.86706E+03-3.18117E+01-1.51531E+03 3.75064E+01
 -1      2609-1.43202E+03-3.61000E+02-5.18334E+03-1.12816E+02-1.61546E+03-1.01765E+02
 -1      2610-1.43560E+03-6.56281E+02-6.18286E+03 1.10678E+02-1.95371E+03 1.41057E+02
 -1      2611-1.23750E+03-5.88797E+02-4.77616E+03 6.24616E+02-1.54739E+03 8.05149E+02
 -1      2612-5.17949E+02 1.50529E+02-7.95230E+02 5.90661E+02-2.34228E+02 7.30746E+02
 -1      2613-4.52575E+02 2.87981E+01 6.00869E+01 1.66830E+02 1.82678E+01 1.89484E+02
 -1      2614-2.02238E+02-2.93748E+01 2.06798E+01 1.38227E+01 1.14752E+01 5.16374E+01
 -1      2615-6.42629E+02-1.45777E+02-2.99348E+03-3.57813E+02-4.99291E+02-7.27927E+02
 -1      2616-1.32812E+03-4.27624E+02-5.73059E+03-3.20826E+02-1.05576E+03-6.46128E+02
 -1      2617-1.73928E+03-4.70368E+02-7.02062E+03-1.34900E+02-1.31465E+03-2.46363E+02
 -1      2618-1.98701E+03-4.34096E+02-7.23421E+03-1.77608E+01-1.36122E+03-2.88994E+01
 -1      2619-2.13041E+03-4.22560E+02-7.15348E+03 1.81589E+01-1.34706E+03 3.03519E+01
 -1      2620-2.18898E+03-4.24671E+02-7.07006E+03 1.98383E+01-1.33217E+03 3.83939E+01
 -1      2621-2.20909E+03-4.28634E+02-7.03181E+03 1.47854E+01-1.32549E+03 3.99580E+01
 -1      2622-2.21767E+03-4.31307E+02-7.02181E+03 1.13303E+01-1.32366E+03 4.36548E+01
 -1      2623-2.22319E+03-4.32580E+02-7.02186E+03 9.94420E+00-1.32364E+03 4.79294E+01
 -1      2624-2.22703E+03-4.33095E+02-7.02401E+03 9.55681E+00-1.32403E+03 5.14033E+01
 -1      2625-2.22870E+03-4.33237E+02-7.02630E+03 9.54159E+00-1.32445E+03 5.39385E+01
 -1      2626-2.22697E+03-4.33247E+02-7.02819E+03 1.00278E+01-1.32477E+03 5.63398E+01
 -1      2627-2.22009E+03-4.33528E+02-7.02623E+03 1.19589E+01-1.32436E+03 6.08006E+01
 -1      2628-2.20729E+03-4.33993E+02-7.00719E+03 1.65565E+01-1.32114E+03 7.20409E+01
 -1      2629-2.19617E+03-4.33375E+02-6.94599E+03 2.25231E+01-1.31009E+03 9.33759E+01
 -1      2630-2.20514E+03-4.22810E+02-6.82065E+03 1.84558E+01-1.28472E+03 1.08321E+02
 -1      2631-2.18476E+03-3.71562E+02-6.70768E+03-2.61315E+01-1.26435E+03 3.52035E+01
 -1      2632-1.98769E+03-3.30705E+02-7.10805E+03-9.22007E+01-1.35358E+03-1.74652E+02
 -1      2633-2.04401E+03-6.97379E+02-8.62378E+03 8.69405E+01-1.63604E+03 1.40318E+02
 -1      2634-1.76227E+03-6.43935E+02-6.77102E+03 5.07721E+02-1.31403E+03 1.08802E+03
 -1      2635-6.36445E+02 2.35529E+02-9.60722E+02 4.83709E+02-2.01034E+02 9.81027E+02
 -1      2636-5.51510E+02 3.90856E+01 8.32400E+01 1.36120E+02 1.73544E+01 2.08758E+02
 -1      2637-2.28954E+02-3.70765E+01 1.34985E+01 1.10056E+01 1.02695E+01 4.10095E+01
 -1      2638-7.41688E+02-1.20640E+02-3.43027E+03-1.97453E+02-2.64847E+02-8.40326E+02
 -1      2639-1.54019E+03-3.75176E+02-6.67554E+03-1.77419E+02-5.64820E+02-7.45677E+02
 -1      2640-2.01840E+03-3.94335E+02-8.19291E+03-7.50423E+01-7.08686E+02-2.75242E+02
 -1      2641-2.30092E+03-3.44909E+02-8.43838E+03-1.00276E+01-7.35212E+02-2.37047E+01
 -1      2642-2.45902E+03-3.31643E+02-8.34565E+03 1.01144E+01-7.27900E+02 4.07437E+01
 -1      2643-2.51889E+03-3.35163E+02-8.25025E+03 1.11578E+01-7.19917E+02 4.67023E+01
 -1      2644-2.53683E+03-3.40240E+02-8.20595E+03 8.39666E+00-7.16285E+02 4.62166E+01
 -1      2645-2.54382E+03-3.43481E+02-8.19385E+03 6.48692E+00-7.15272E+02 4.89649E+01
 -1      2646-2.54868E+03-3.44962E+02-8.19343E+03 5.71418E+00-7.15248E+02 5.29246E+01
 -1      2647-2.55239E+03-3.45522E+02-8.19564E+03 5.49697E+00-7.15456E+02 5.63048E+01
 -1      2648-2.55405E+03-3.45651E+02-8.19812E+03 5.48872E+00-7.15681E+02 5.87939E+01
 -1      2649-2.55215E+03-3.45662E+02-8.20018E+03 5.76220E+00-7.15850E+02 6.12104E+01
 -1      2650-2.54450E+03-3.46072E+02-8.19785E+03 6.83386E+00-7.15618E+02 6.60074E+01
 -1      2651-2.52990E+03-3.46959E+02-8.17618E+03 9.36090E+00-7.13853E+02 7.84783E+01
 -1      2652-2.51726E+03-3.47458E+02-8.10675E+03 1.26046E+01-7.07857E+02 1.02533E+02
 -1      2653-2.53114E+03-3.37924E+02-7.96300E+03 1.01596E+01-6.94380E+02 1.19683E+02
 -1      2654-2.51616E+03-2.79885E+02-7.82248E+03-1.47842E+01-6.83706E+02 3.18494E+01
 -1      2655-2.29976E+03-2.24504E+02-8.29122E+03-5.04275E+01-7.36396E+02-2.23181E+02
 -1      2656-2.36770E+03-6.18169E+02-1.01058E+04 4.74177E+01-8.85923E+02 1.39509E+02
 -1      2657-2.05700E+03-5.96171E+02-8.01859E+03 2.78944E+02-7.19691E+02 1.27551E+03
 -1      2658-7.19362E+02 3.04896E+02-1.08828E+03 2.67994E+02-1.16255E+02 1.15306E+03
 -1      2659-6.21557E+02 4.91196E+01 1.03420E+02 7.63275E+01 1.07291E+01 2.25514E+02
 -1      2660-2.49971E+02-4.16007E+01 9.11284E+00 6.25614E+00 5.89927E+00 3.34268E+01
 -1      2661-7.66610E+02-1.04814E+02-3.55704E+03 6.46714E-06-1.98171E-05-8.77415E+02
 -1      2662-1.59347E+03-3.41316E+02-6.95242E+03 9.68735E-06-1.15648E-05-7.79489E+02
 -1      2663-2.09224E+03-3.48976E+02-8.54372E+03 5.08566E-06-4.95449E-06-2.85550E+02
 -1      2664-2.38693E+03-2.94451E+02-8.80089E+03 1.82449E-06-3.37329E-06-2.20725E+01
 -1      2665-2.55073E+03-2.80613E+02-8.70506E+03 4.51385E-07-3.86496E-06 4.43189E+01
 -1      2666-2.61149E+03-2.84780E+02-8.60624E+03 5.94417E-09-4.45054E-06 4.96004E+01
 -1      2667-2.62881E+03-2.90332E+02-8.56011E+03-1.65497E-07-4.45126E-06 4.84293E+01
 -1      2668-2.63528E+03-2.93799E+02-8.54734E+03-3.59687E-07-4.70942E-06 5.08535E+01
 -1      2669-2.63991E+03-2.95356E+02-8.54676E+03-3.24615E-07-5.40078E-06 5.47051E+01
 -1      2670-2.64356E+03-2.95928E+02-8.54897E+03-3.13813E-07-5.28314E-06 5.80535E+01
 -1      2671-2.64521E+03-2.96047E+02-8.55151E+03-3.21641E-07-6.07507E-06 6.05278E+01
 -1      2672-2.64324E+03-2.96056E+02-8.55361E+03-1.42987E-07-6.25144E-06 6.29513E+01
 -1      2673-2.63532E+03-2.96523E+02-8.55116E+03-9.53087E-08-6.42867E-06 6.78687E+01
 -1      2674-2.62011E+03-2.97596E+02-8.52862E+03 2.77672E-08-6.84260E-06 8.07551E+01
 -1      2675-2.60721E+03-2.98643E+02-8.45678E+03 2.04373E-07-6.69408E-06 1.05724E+02
 -1      2676-2.62328E+03-2.89639E+02-8.30759E+03 2.39367E-07-6.40538E-06 1.23570E+02
 -1      2677-2.61047E+03-2.29495E+02-8.15907E+03 8.04809E-08-6.12764E-06 3.01352E+01
 -1      2678-2.38802E+03-1.69297E+02-8.65493E+03-4.78729E-07-6.77720E-06-2.39275E+02
 -1      2679-2.45161E+03-5.66020E+02-1.05519E+04 3.93174E-07-9.00558E-06 1.39681E+02
 -1      2680-2.13809E+03-5.59229E+02-8.40327E+03 2.90774E-06-7.07929E-06 1.33740E+03
 -1      2681-7.49978E+02 3.29794E+02-1.13954E+03 2.71602E-06-6.72398E-07 1.21166E+03
 -1      2682-6.46285E+02 5.32796E+01 1.11131E+02 7.24130E-07 4.90247E-07 2.32549E+02
 -1      2683-2.57777E+02-4.29612E+01 7.92470E+00 9.44019E-08 1.36082E-07 3.06446E+01
 -1      2684-7.41688E+02-1.20640E+02-3.43027E+03 1.97453E+02 2.64847E+02-8.40326E+02
 -1      2685-1.54019E+03-3.75176E+02-6.67554E+03 1.77419E+02 5.64820E+02-7.45677E+02
 -1      2686-2.01840E+03-3.94335E+02-8.19291E+03 7.50423E+01 7.08686E+02-2.75242E+02
 -1      2687-2.30092E+03-3.44909E+02-8.43838E+03 1.00276E+01 7.35212E+02-2.37047E+01
 -1      2688-2.45902E+03-3.31643E+02-8.34565E+03-1.01144E+01 7.27900E+02 4.07437E+01
 -1      2689-2.51889E+03-3.35163E+02-8.25025E+03-1.11578E+01 7.19917E+02 4.67023E+01
 -1      2690-2.53683E+03-3.40240E+02-8.20595E+03-8.39666E+00 7.16285E+02 4.62166E+01
 -1      2691-2.54382E+03-3.43481E+02-8.19385E+03-6.48692E+00 7.15272E+02 4.89649E+01
 -1      2692-2.54868E+03-3.44962E+02-8.19343E+03-5.71418E+00 7.15248E+02 5.29246E+01
 -1      2693-2.55239E+03-3.45522E+02-8.19564E+03-5.49697E+00 7.15456E+02 5.63048E+01
 -1      2694-2.55405E+03-3.45651E+02-8.19812E+03-5.48872E+00 7.15681E+02 5.87939E+01
 -1      2695-2.55215E+03-3.45662E+02-8.20018E+03-5.76220E+00 7.15850E+02 6.12104E+01
 -1      2696-2.54450E+03-3.46072E+02-8.19785E+03-6.83386E+00 7.15618E+02 6.60074E+01
 -1      2697-2.52990E+03-3.46959E+02-8.17618E+03-9.36090E+00 7.13853E+02 7.84783E+01
 -1      2698-2.51726E+03-3.47458E+02-8.10675E+03-1.26046E+01 7.07857E+02 1.02533E+02
 -1      2699-2.53114E+03-3.37924E+02-7.96300E+03-1.01596E+01 6.94380E+02 1.19683E+02
 -1      2700-2.51616E+03-2.79885E+02-7.82248E+03 1.47842E+01 6.83706E+02 3.18494E+01
 -1      2701-2.29976E+03-2.24504E+02-8.29122E+03 5.04275E+01 7.36396E+02-2.23181E+02
 -1      2702-2.36770E+03-6.18169E+02-1.01058E+04-4.74177E+01 8.85923E+02 1.39509E+02
 -1      2703-2.05700E+03-5.96171E+02-8.01859E+03-2.78944E+02 7.19691E+02 1.27551E+03
 -1      2704-7.19362E+02 3.04896E+02-1.08828E+03-2.67994E+02 1.16255E+02 1.15306E+03
 -1      2705-6.21557E+02 4.91196E+01 1.03420E+02-7.63275E+01-1.07291E+01 2.25514E+02
 -1      2706-2.49971E+02-4.16007E+01 9.11284E+00-6.25614E+00-5.89927E+00 3.34268E+01
 -1      2707-6.42629E+02-1.45777E+02-2.99348E+03 3.57813E+02 4.99291E+02-7.27927E+02
 -1      2708-1.32812E+03-4.27624E+02-5.73059E+03 3.20826E+02 1.05576E+03-6.46128E+02
 -1      2709-1.73928E+03-4.70368E+02-7.02062E+03 1.34900E+02 1.31465E+03-2.46363E+02
 -1      2710-1.98701E+03-4.34096E+02-7.23421E+03 1.77608E+01 1.36122E+03-2.88994E+01
 -1      2711-2.13041E+03-4.22560E+02-7.15348E+03-1.81589E+01 1.34706E+03 3.03519E+01
 -1      2712-2.18898E+03-4.24671E+02-7.07006E+03-1.98383E+01 1.33217E+03 3.83939E+01
 -1      2713-2.20909E+03-4.28634E+02-7.03181E+03-1.47854E+01 1.32549E+03 3.99580E+01
 -1      2714-2.21767E+03-4.31307E+02-7.02181E+03-1.13303E+01 1.32366E+03 4.36548E+01
 -1      2715-2.22319E+03-4.32580E+02-7.02186E+03-9.94420E+00 1.32364E+03 4.79294E+01
 -1      2716-2.22703E+03-4.33095E+02-7.02401E+03-9.55681E+00 1.32403E+03 5.14033E+01
 -1      2717-2.22870E+03-4.33237E+02-7.02630E+03-9.54159E+00 1.32445E+03 5.39385E+01
 -1      2718-2.22697E+03-4.33247E+02-7.02819E+03-1.00278E+01 1.32477E+03 5.63398E+01
 -1      2719-2.22009E+03-4.33528E+02-7.02623E+03-1.19589E+01 1.32436E+03 6.08006E+01
 -1      2720-2.20729E+03-4.33993E+02-7.00719E+03-1.65565E+01 1.32114E+03 7.20409E+01
 -1      2721-2.19617E+03-4.33375E+02-6.94599E+03-2.25231E+01 1.31009E+03 9.33759E+01
 -1      2722-2.20514E+03-4.22810E+02-6.82065E+03-1.84558E+01 1.28472E+03 1.08321E+02
 -1      2723-2.18476E+03-3.71562E+02-6.70768E+03 2.61315E+01 1.26435E+03 3.52035E+01
 -1      2724-1.98769E+03-3.30705E+02-7.10805E+03 9.22007E+01 1.35358E+03-1.74652E+02
 -1      2725-2.04401E+03-6.97379E+02-8.62378E+03-8.69405E+01 1.63604E+03 1.40318E+02
 -1      2726-1.76227E+03-6.43935E+02-6.77102E+03-5.07721E+02 1.31403E+03 1.08802E+03
 -1      2727-6.36445E+02 2.35529E+02-9.60722E+02-4.83709E+02 2.01034E+02 9.81027E+02
 -1      2728-5.51510E+02 3.90856E+01 8.32400E+01-1.36120E+02-1.73544E+01 2.08758E+02
 -1      2729-2.28954E+02-3.70765E+01 1.34985E+01-1.10056E+01-1.02695E+01 4.10095E+01
 -1      2730-4.51319E+02-1.35470E+02-2.24077E+03 4.37463E+02 6.11624E+02-5.57859E+02
 -1      2731-9.20749E+02-4.03625E+02-4.13241E+03 3.93516E+02 1.27464E+03-5.00400E+02
 -1      2732-1.21969E+03-4.57461E+02-5.07249E+03 1.65522E+02 1.57871E+03-2.06596E+02
 -1      2733-1.41634E+03-4.35764E+02-5.24152E+03 2.20563E+01 1.63290E+03-3.75323E+01
 -1      2734-1.54152E+03-4.26698E+02-5.18293E+03-2.17246E+01 1.61553E+03 1.49394E+01
 -1      2735-1.60065E+03-4.27682E+02-5.12023E+03-2.36948E+01 1.59760E+03 2.62877E+01
 -1      2736-1.62486E+03-4.30604E+02-5.09209E+03-1.74510E+01 1.58966E+03 3.09617E+01
 -1      2737-1.63593E+03-4.32640E+02-5.08549E+03-1.32079E+01 1.58755E+03 3.60644E+01
 -1      2738-1.64238E+03-4.33635E+02-5.08626E+03-1.15152E+01 1.58758E+03 4.08102E+01
 -1      2739-1.64639E+03-4.34053E+02-5.08830E+03-1.10442E+01 1.58806E+03 4.44319E+01
 -1      2740-1.64800E+03-4.34175E+02-5.09025E+03-1.10269E+01 1.58856E+03 4.70481E+01
 -1      2741-1.64645E+03-4.34176E+02-5.09182E+03-1.16204E+01 1.58895E+03 4.94406E+01
 -1      2742-1.64065E+03-4.34341E+02-5.09036E+03-1.39966E+01 1.58849E+03 5.34548E+01
 -1      2743-1.63075E+03-4.34572E+02-5.07555E+03-1.96856E+01 1.58464E+03 6.28587E+01
 -1      2744-1.62311E+03-4.33269E+02-5.02804E+03-2.71088E+01 1.57134E+03 8.01609E+01
 -1      2745-1.62763E+03-4.22604E+02-4.93428E+03-2.23293E+01 1.54036E+03 9.14843E+01
 -1      2746-1.60005E+03-3.82722E+02-4.86706E+03 3.18117E+01 1.51531E+03 3.75064E+01
 -1      2747-1.43202E+03-3.61000E+02-5.18334E+03 1.12816E+02 1.61546E+03-1.01765E+02
 -1      2748-1.43560E+03-6.56281E+02-6.18286E+03-1.10678E+02 1.95371E+03 1.41057E+02
 -1      2749-1.23750E+03-5.88797E+02-4.77616E+03-6.24616E+02 1.54739E+03 8.05149E+02
 -1      2750-5.17949E+02 1.50529E+02-7.95230E+02-5.90661E+02 2.34228E+02 7.30746E+02
 -1      2751-4.52575E+02 2.87981E+01 6.00869E+01-1.66830E+02-1.82678E+01 1.89484E+02
 -1      2752-2.02238E+02-2.93748E+01 2.06798E+01-1.38227E+01-1.14752E+01 5.16374E+01
 -1      2753-2.40297E+02-9.55522E+01-1.42641E+03 4.06342E+02 5.33186E+02-3.86834E+02
 -1      2754-4.71718E+02-3.10834E+02-2.46346E+03 3.70893E+02 1.09094E+03-3.56998E+02
 -1      2755-6.46686E+02-3.58012E+02-3.04949E+03 1.57842E+02 1.34948E+03-1.68880E+02
 -1      2756-7.89995E+02-3.48186E+02-3.17140E+03 2.28892E+01 1.39608E+03-4.74748E+01
 -1      2757-8.99413E+02-3.40948E+02-3.13524E+03-1.90207E+01 1.38125E+03-1.21775E+00
 -1      2758-9.61827E+02-3.41418E+02-3.09461E+03-2.13066E+01 1.36593E+03 1.37934E+01
 -1      2759-9.91310E+02-3.43669E+02-3.07739E+03-1.55527E+01 1.35925E+03 2.17320E+01
 -1      2760-1.00521E+03-3.45208E+02-3.07457E+03-1.15753E+01 1.35754E+03 2.83122E+01
 -1      2761-1.01261E+03-3.45949E+02-3.07623E+03-9.97278E+00 1.35762E+03 3.35840E+01
 -1      2762-1.01675E+03-3.46248E+02-3.07822E+03-9.52547E+00 1.35806E+03 3.73976E+01
 -1      2763-1.01826E+03-3.46325E+02-3.07984E+03-9.51649E+00 1.35850E+03 4.01310E+01
 -1      2764-1.01681E+03-3.46320E+02-3.08111E+03-1.00985E+01 1.35883E+03 4.25508E+01
 -1      2765-1.01204E+03-3.46445E+02-3.08022E+03-1.23713E+01 1.35844E+03 4.61752E+01
 -1      2766-1.00535E+03-3.46705E+02-3.06990E+03-1.77642E+01 1.35515E+03 5.37763E+01
 -1      2767-1.00237E+03-3.45381E+02-3.03677E+03-2.46926E+01 1.34361E+03 6.69708E+01
 -1      2768-1.00368E+03-3.35320E+02-2.97571E+03-1.98703E+01 1.31667E+03 7.44661E+01
 -1      2769-9.66444E+02-3.08186E+02-2.95369E+03 3.03193E+01 1.29475E+03 3.90474E+01
 -1      2770-8.23351E+02-3.03612E+02-3.19141E+03 1.02703E+02 1.37912E+03-2.96851E+01
 -1      2771-7.66044E+02-5.04123E+02-3.67918E+03-1.10724E+02 1.66176E+03 1.37169E+02
 -1      2772-6.80297E+02-4.44545E+02-2.78432E+03-5.85877E+02 1.29842E+03 5.22815E+02
 -1      2773-3.89715E+02 7.88342E+01-6.04796E+02-5.52391E+02 2.05113E+02 4.86115E+02
 -1      2774-3.58530E+02 2.10297E+01 4.71078E+01-1.61000E+02-1.49625E+01 1.71064E+02
 -1      2775-1.81560E+02-2.01663E+01 2.92358E+01-1.54958E+01-9.15317E+00 6.25507E+01
 -1      2776-7.63678E+01-7.50806E+01-7.33550E+02 2.56087E+02 2.96699E+02-2.68631E+02
 -1      2777-1.05815E+02-2.36009E+02-1.14804E+03 2.36397E+02 5.98418E+02-2.57577E+02
 -1      2778-1.67920E+02-2.81544E+02-1.43906E+03 1.06907E+02 7.41172E+02-1.42727E+02
 -1      2779-2.67096E+02-2.77094E+02-1.49958E+03 1.97304E+01 7.66684E+02-5.55424E+01
 -1      2780-3.71479E+02-2.70170E+02-1.47260E+03-9.60582E+00 7.58140E+02-1.36128E+01
 -1      2781-4.41249E+02-2.70235E+02-1.44835E+03-1.25424E+01 7.49631E+02 4.23350E+00
 -1      2782-4.76590E+02-2.72066E+02-1.44054E+03-9.36212E+00 7.46028E+02 1.46523E+01
 -1      2783-4.92962E+02-2.73326E+02-1.44137E+03-6.86293E+00 7.45159E+02 2.24525E+01
 -1      2784-5.00993E+02-2.73895E+02-1.44397E+03-5.78344E+00 7.45234E+02 2.82434E+01
 -1      2785-5.05120E+02-2.74097E+02-1.44597E+03-5.46791E+00 7.45483E+02 3.23031E+01
 -1      2786-5.06444E+02-2.74129E+02-1.44734E+03-5.48118E+00 7.45724E+02 3.51912E+01
 -1      2787-5.04867E+02-2.74123E+02-1.44848E+03-5.92709E+00 7.45912E+02 3.76863E+01
 -1      2788-5.00691E+02-2.74282E+02-1.44848E+03-7.47746E+00 7.45727E+02 4.10942E+01
 -1      2789-4.96822E+02-2.74659E+02-1.44265E+03-1.08952E+01 7.43975E+02 4.75436E+01
 -1      2790-4.99203E+02-2.73369E+02-1.42181E+03-1.48877E+01 7.37527E+02 5.78815E+01
 -1      2791-5.01153E+02-2.63496E+02-1.38410E+03-1.08339E+01 7.22350E+02 6.29155E+01
 -1      2792-4.51290E+02-2.43127E+02-1.38466E+03 2.02800E+01 7.09345E+02 4.14223E+01
 -1      2793-3.03994E+02-2.54364E+02-1.55017E+03 5.62203E+01 7.57110E+02 1.76678E+01
 -1      2794-2.05046E+02-3.84314E+02-1.74734E+03-8.33650E+01 9.11239E+02 1.26859E+02
 -1      2795-2.32757E+02-3.23034E+02-1.28954E+03-3.67103E+02 7.04773E+02 3.29106E+02
 -1      2796-2.70828E+02 2.57400E+01-3.23908E+02-3.49415E+02 1.14845E+02 3.18116E+02
 -1      2797-3.08221E+02 2.21114E+01 7.52160E+01-1.15099E+02-1.06750E+01 1.53695E+02
 -1      2798-1.82511E+02-1.47798E+01 3.86287E+01-1.64931E+01-4.69348E+00 7.08321E+01
 -1      2799-1.62900E+00-1.35170E+02-4.09457E+02-2.41678E+02-1.68866E+02-8.37871E+01
 -1      2800-2.97496E+00-3.97925E+02-6.17205E+02-2.09942E+02-3.76734E+02-1.01573E+02
 -1      2801-4.26223E+01-4.57546E+02-7.65302E+02-8.07737E+01-4.52379E+02-5.13997E+01
 -1      2802-1.21172E+02-4.50661E+02-7.86378E+02-5.95240E+00-4.48830E+02-1.52758E+01
 -1      2803-2.04778E+02-4.37993E+02-7.62219E+02 1.55587E+01-4.34267E+02-2.00518E+00
 -1      2804-2.66124E+02-4.33698E+02-7.45031E+02 1.61231E+01-4.27071E+02 4.63704E+00
 -1      2805-3.02966E+02-4.33694E+02-7.40082E+02 1.27355E+01-4.25132E+02 1.13312E+01
 -1      2806-3.23436E+02-4.34477E+02-7.40900E+02 1.05435E+01-4.25020E+02 1.76100E+01
 -1      2807-3.34544E+02-4.35075E+02-7.42716E+02 9.71178E+00-4.25244E+02 2.23436E+01
 -1      2808-3.40276E+02-4.35379E+02-7.44022E+02 9.51434E+00-4.25425E+02 2.54811E+01
 -1      2809-3.42463E+02-4.35530E+02-7.44916E+02 9.53598E+00-4.25576E+02 2.74843E+01
 -1      2810-3.41831E+02-4.35685E+02-7.45776E+02 9.86463E+00-4.25802E+02 2.88593E+01
 -1      2811-3.38832E+02-4.35878E+02-7.46147E+02 1.11082E+01-4.26097E+02 3.04669E+01
 -1      2812-3.34253E+02-4.35620E+02-7.43017E+02 1.41068E+01-4.25826E+02 3.42859E+01
 -1      2813-3.29308E+02-4.32657E+02-7.30616E+02 1.81640E+01-4.22425E+02 4.26508E+01
 -1      2814-3.20458E+02-4.20309E+02-7.07800E+02 1.70282E+01-4.09746E+02 5.05705E+01
 -1      2815-2.81168E+02-3.99727E+02-7.04175E+02-8.66471E+00-3.89896E+02 3.74397E+01
 -1      2816-1.78595E+02-4.05213E+02-8.17285E+02-6.36676E+01-4.20818E+02 4.35782E+00
 -1      2817-1.35721E+02-6.15852E+02-9.47846E+02 5.32122E+01-5.94409E+02 3.95943E+01
 -1      2818-1.71989E+02-5.27999E+02-6.87225E+02 3.53368E+02-4.64039E+02 1.38232E+02
 -1      2819-1.59039E+02 6.84725E+01-1.46343E+02 3.20785E+02 1.44858E+01 1.25314E+02
 -1      2820-2.06684E+02 2.57020E+01 8.59909E+01 7.51880E+01 4.63160E+01 4.40937E+01
 -1      2821-1.20025E+02-6.81262E+00 3.03308E+01 6.32993E+00 8.35429E+00 2.10820E+01
 -1      2822-1.53872E+02-1.50065E+02-1.05527E+03-4.07592E+02-4.51487E+02-2.10565E+02
 -1      2823-3.38125E+02-4.70893E+02-1.85485E+03-3.48681E+02-1.01206E+03-2.14551E+02
 -1      2824-4.86203E+02-5.32251E+02-2.26731E+03-1.22087E+02-1.21443E+03-8.21941E+01
 -1      2825-6.10063E+02-5.17410E+02-2.33634E+03-1.67446E+00-1.22068E+03-7.52785E+00
 -1      2826-6.97515E+02-5.03198E+02-2.30424E+03 2.94018E+01-1.19193E+03 1.23283E+01
 -1      2827-7.49878E+02-4.98474E+02-2.27216E+03 2.82509E+01-1.17518E+03 1.69480E+01
 -1      2828-7.80559E+02-4.98822E+02-2.25899E+03 2.20160E+01-1.16957E+03 2.12775E+01
 -1      2829-7.98579E+02-4.99916E+02-2.25674E+03 1.83979E+01-1.16863E+03 2.62929E+01
 -1      2830-8.09124E+02-5.00680E+02-2.25785E+03 1.71141E+01-1.16892E+03 3.04655E+01
 -1      2831-8.14896E+02-5.01052E+02-2.25924E+03 1.68311E+01-1.16932E+03 3.33549E+01
 -1      2832-8.17297E+02-5.01226E+02-2.26041E+03 1.68365E+01-1.16970E+03 3.52331E+01
 -1      2833-8.16864E+02-5.01411E+02-2.26141E+03 1.72740E+01-1.17015E+03 3.66083E+01
 -1      2834-8.13390E+02-5.01669E+02-2.26095E+03 1.91447E+01-1.17049E+03 3.85629E+01
 -1      2835-8.06216E+02-5.01511E+02-2.25387E+03 2.40855E+01-1.16881E+03 4.37103E+01
 -1      2836-7.95018E+02-4.97976E+02-2.22975E+03 3.12746E+01-1.15991E+03 5.50204E+01
 -1      2837-7.84601E+02-4.85347E+02-2.18712E+03 3.10017E+01-1.13085E+03 6.51196E+01
 -1      2838-7.63871E+02-4.58371E+02-2.15540E+03-8.75297E+00-1.09211E+03 3.89539E+01
 -1      2839-6.65277E+02-4.49124E+02-2.31788E+03-1.21838E+02-1.15216E+03-4.26433E+01
 -1      2840-6.57850E+02-7.40127E+02-2.77269E+03 5.84765E+01-1.56755E+03 5.78634E+01
 -1      2841-5.93119E+02-6.67206E+02-2.09593E+03 6.08219E+02-1.25168E+03 3.65384E+02
 -1      2842-2.68880E+02 1.36129E+02-3.55417E+02 5.41922E+02 3.00851E-01 3.18448E+02
 -1      2843-2.55699E+02 2.92657E+01 6.60949E+01 9.60902E+01 6.93979E+01 6.71653E+01
 -1      2844-1.11238E+02-9.96585E+00 1.40483E+01 2.45834E+00 1.50751E+01 1.75121E+01
 -1      2845-4.64789E+02-2.28491E+02-2.15880E+03-4.57776E+02-6.21225E+02-4.16152E+02
 -1      2846-1.03868E+03-6.77384E+02-4.29327E+03-3.87190E+02-1.41578E+03-3.86141E+02
 -1      2847-1.33992E+03-7.48045E+02-5.12497E+03-1.31403E+02-1.70605E+03-1.15496E+02
 -1      2848-1.52394E+03-7.19221E+02-5.22955E+03 8.02263E-01-1.72511E+03 8.63916E+00
 -1      2849-1.61956E+03-6.99863E+02-5.16042E+03 3.38936E+01-1.69074E+03 3.49221E+01
 -1      2850-1.66200E+03-6.93024E+02-5.09639E+03 3.23091E+01-1.66883E+03 3.50259E+01
 -1      2851-1.68538E+03-6.93492E+02-5.06945E+03 2.53749E+01-1.66079E+03 3.57683E+01
 -1      2852-1.70009E+03-6.94973E+02-5.06284E+03 2.13970E+01-1.65913E+03 3.92202E+01
 -1      2853-1.70975E+03-6.95983E+02-5.06325E+03 1.99862E+01-1.65936E+03 4.28632E+01
 -1      2854-1.71551E+03-6.96453E+02-5.06492E+03 1.96728E+01-1.65987E+03 4.55792E+01
 -1      2855-1.71813E+03-6.96665E+02-5.06662E+03 1.96705E+01-1.66039E+03 4.73590E+01
 -1      2856-1.71781E+03-6.96918E+02-5.06818E+03 2.01367E+01-1.66095E+03 4.87184E+01
 -1      2857-1.71339E+03-6.97317E+02-5.06717E+03 2.21480E+01-1.66116E+03 5.11548E+01
 -1      2858-1.70278E+03-6.97275E+02-5.05485E+03 2.75291E+01-1.65831E+03 5.81840E+01
 -1      2859-1.68334E+03-6.92175E+02-5.01073E+03 3.53498E+01-1.64595E+03 7.48690E+01
 -1      2860-1.66740E+03-6.76457E+02-4.92130E+03 3.56218E+01-1.60829E+03 8.86315E+01
 -1      2861-1.66555E+03-6.38439E+02-4.82394E+03-7.09272E+00-1.56151E+03 5.15297E+01
 -1      2862-1.52187E+03-5.90368E+02-4.97838E+03-1.40349E+02-1.64006E+03-1.31274E+02
 -1      2863-1.69706E+03-1.05873E+03-6.41060E+03 4.86298E+01-2.19524E+03 3.96925E+01
 -1      2864-1.47405E+03-9.67511E+02-5.06840E+03 6.84189E+02-1.79961E+03 7.44640E+02
 -1      2865-3.34873E+02 2.70760E+02-2.85887E+02 6.11096E+02-2.12761E+01 6.22895E+02
 -1      2866-3.65778E+02 2.90763E+01 5.80992E+01 9.56253E+01 6.92919E+01 6.14534E+01
 -1      2867-1.14812E+02-1.61399E+01-2.56877E+00 7.84445E-01 1.78571E+01 1.26191E+01
 -1      2868-7.47852E+02-2.84934E+02-3.16320E+03-3.69435E+02-4.84267E+02-6.22757E+02
 -1      2869-1.69575E+03-8.26163E+02-6.64317E+03-3.14960E+02-1.12505E+03-5.63272E+02
 -1      2870-2.14404E+03-8.94769E+02-7.90567E+03-1.07941E+02-1.37785E+03-1.51159E+02
 -1      2871-2.38627E+03-8.50381E+02-8.04197E+03 4.35739E-01-1.39967E+03 2.42105E+01
 -1      2872-2.49385E+03-8.26885E+02-7.93810E+03 2.79930E+01-1.37416E+03 5.69013E+01
 -1      2873-2.52936E+03-8.18694E+02-7.84393E+03 2.70394E+01-1.35698E+03 5.27907E+01
 -1      2874-2.54668E+03-8.19573E+02-7.80401E+03 2.15388E+01-1.35042E+03 5.00235E+01
 -1      2875-2.55839E+03-8.21542E+02-7.79335E+03 1.83030E+01-1.34897E+03 5.19810E+01
 -1      2876-2.56715E+03-8.22811E+02-7.79314E+03 1.71353E+01-1.34911E+03 5.51452E+01
 -1      2877-2.57287E+03-8.23376E+02-7.79514E+03 1.68678E+01-1.34952E+03 5.77287E+01
 -1      2878-2.57568E+03-8.23618E+02-7.79739E+03 1.68673E+01-1.34995E+03 5.94379E+01
 -1      2879-2.57537E+03-8.23942E+02-7.79954E+03 1.72542E+01-1.35039E+03 6.08095E+01
 -1      2880-2.56995E+03-8.24515E+02-7.79807E+03 1.89135E+01-1.35044E+03 6.37541E+01
 -1      2881-2.55623E+03-8.24726E+02-7.78083E+03 2.31919E+01-1.34801E+03 7.27358E+01
 -1      2882-2.52972E+03-8.18546E+02-7.71750E+03 2.93009E+01-1.33771E+03 9.45792E+01
 -1      2883-2.51057E+03-8.01006E+02-7.58480E+03 2.91918E+01-1.30889E+03 1.12286E+02
 -1      2884-2.52492E+03-7.53991E+02-7.42029E+03-7.08081E+00-1.27150E+03 6.21724E+01
 -1      2885-2.33738E+03-6.66423E+02-7.58543E+03-1.11875E+02-1.35520E+03-2.22257E+02
 -1      2886-2.67802E+03-1.27839E+03-9.98684E+03 3.49166E+01-1.77931E+03 7.68573E+00
 -1      2887-2.36221E+03-1.20424E+03-8.16229E+03 5.49819E+02-1.49964E+03 1.12907E+03
 -1      2888-3.85645E+02 4.13922E+02-1.65250E+02 5.00909E+02-5.36716E+01 9.43176E+02
 -1      2889-4.84631E+02 2.57961E+01 6.02307E+01 7.99838E+01 5.91890E+01 5.24729E+01
 -1      2890-1.24420E+02-2.17694E+01-1.78064E+01 4.60535E-01 1.42755E+01 7.57154E+00
 -1      2891-8.23453E+02-2.64431E+02-3.50663E+03-1.93250E+02-2.18284E+02-7.33134E+02
 -1      2892-1.88378E+03-7.84777E+02-7.51290E+03-1.67710E+02-5.18415E+02-6.67119E+02
 -1      2893-2.39993E+03-8.30475E+02-8.99194E+03-5.94797E+01-6.50665E+02-1.76326E+02
 -1      2894-2.68061E+03-7.74326E+02-9.15310E+03-4.12557E-01-6.64627E+02 3.27738E+01
 -1      2895-2.80200E+03-7.49575E+02-9.03995E+03 1.51569E+01-6.53092E+02 7.00922E+01
 -1      2896-2.83719E+03-7.42168E+02-8.93542E+03 1.49478E+01-6.45061E+02 6.37396E+01
 -1      2897-2.85194E+03-7.43991E+02-8.89025E+03 1.20937E+01-6.41917E+02 5.89863E+01
 -1      2898-2.86201E+03-7.46508E+02-8.87774E+03 1.03491E+01-6.41206E+02 6.00540E+01
 -1      2899-2.87016E+03-7.47973E+02-8.87710E+03 9.70618E+00-6.41270E+02 6.29352E+01
 -1      2900-2.87577E+03-7.48571E+02-8.87916E+03 9.55485E+00-6.41475E+02 6.54389E+01
 -1      2901-2.87862E+03-7.48789E+02-8.88160E+03 9.55688E+00-6.41685E+02 6.71096E+01
 -1      2902-2.87819E+03-7.49121E+02-8.88389E+03 9.77347E+00-6.41895E+02 6.85026E+01
 -1      2903-2.87210E+03-7.49850E+02-8.88207E+03 1.06918E+01-6.41878E+02 7.17460E+01
 -1      2904-2.85669E+03-7.50445E+02-8.86249E+03 1.29410E+01-6.40666E+02 8.19782E+01
 -1      2905-2.82769E+03-7.44644E+02-8.79142E+03 1.60405E+01-6.35600E+02 1.06346E+02
 -1      2906-2.81323E+03-7.28462E+02-8.64599E+03 1.56229E+01-6.22325E+02 1.27239E+02
 -1      2907-2.83863E+03-6.76211E+02-8.44727E+03-5.65354E+00-6.04014E+02 6.24646E+01
 -1      2908-2.64259E+03-5.75473E+02-8.68180E+03-5.65108E+01-6.60177E+02-2.72833E+02
 -1      2909-2.97783E+03-1.20709E+03-1.13987E+04 2.01860E+01-8.47247E+02-6.73094E+00
 -1      2910-2.67946E+03-1.17389E+03-9.49870E+03 2.84705E+02-7.31784E+02 1.33632E+03
 -1      2911-4.58671E+02 4.83240E+02-2.07069E+02 2.67016E+02-5.24262E+01 1.13432E+03
 -1      2912-5.56202E+02 3.23307E+01 8.67716E+01 4.77966E+01 3.56288E+01 5.89102E+01
 -1      2913-1.35910E+02-2.57920E+01-3.00703E+01 1.90331E-01 7.40396E+00 6.64972E-01
 -1      2914-8.27631E+02-2.59745E+02-3.54827E+03 1.77043E-05-2.88230E-05-7.64965E+02
 -1      2915-1.90085E+03-7.74561E+02-7.64591E+03 1.57980E-05-1.06654E-05-6.99670E+02
 -1      2916-2.43336E+03-8.11255E+02-9.17943E+03 6.04948E-06-3.72148E-06-1.85364E+02
 -1      2917-2.72685E+03-7.50919E+02-9.35029E+03 2.25953E-06-2.36963E-06 3.47799E+01
 -1      2918-2.85383E+03-7.25165E+02-9.23691E+03 7.64278E-07-3.40152E-06 7.38163E+01
 -1      2919-2.88967E+03-7.17876E+02-9.13103E+03 5.49054E-07-4.34096E-06 6.68022E+01
 -1      2920-2.90382E+03-7.20001E+02-9.08488E+03 4.28808E-07-3.77513E-06 6.14520E+01
 -1      2921-2.91340E+03-7.22695E+02-9.07190E+03-3.53077E-08-4.05150E-06 6.22439E+01
 -1      2922-2.92133E+03-7.24241E+02-9.07113E+03-1.77070E-08-5.01933E-06 6.50334E+01
 -1      2923-2.92690E+03-7.24848E+02-9.07316E+03-1.18992E-07-4.43024E-06 6.75123E+01
 -1      2924-2.92974E+03-7.25058E+02-9.07561E+03-2.24111E-07-5.71191E-06 6.91718E+01
 -1      2925-2.92925E+03-7.25394E+02-9.07789E+03 3.97641E-08-5.60671E-06 7.05681E+01
 -1      2926-2.92294E+03-7.26198E+02-9.07597E+03-7.41777E-08-5.63257E-06 7.39220E+01
 -1      2927-2.90702E+03-7.26884E+02-9.05574E+03 4.38580E-08-6.47739E-06 8.45039E+01
 -1      2928-2.87770E+03-7.21332E+02-8.98349E+03 2.43729E-07-6.00335E-06 1.09698E+02
 -1      2929-2.86585E+03-7.04923E+02-8.83654E+03 2.74559E-07-5.92244E-06 1.31418E+02
 -1      2930-2.89518E+03-6.50940E+02-8.63029E+03 1.44884E-07-4.74276E-06 6.12084E+01
 -1      2931-2.69860E+03-5.45438E+02-8.89842E+03-5.32601E-07-7.14568E-06-2.88643E+02
 -1      2932-3.01539E+03-1.18596E+03-1.16533E+04 1.73545E-07-8.92574E-06-1.17684E+01
 -1      2933-2.73035E+03-1.15576E+03-9.76687E+03 2.66345E-06-6.79259E-06 1.39728E+03
 -1      2934-4.89966E+02 5.05274E+02-2.50596E+02 2.27073E-06-3.37335E-07 1.19401E+03
 -1      2935-5.78243E+02 3.60694E+01 1.00884E+02 2.57043E-07 6.96525E-07 6.29035E+01
 -1      2936-1.40963E+02-2.68663E+01-3.42936E+01-2.34609E-08 1.54172E-07-1.91382E+00
 -1      2937-8.23453E+02-2.64431E+02-3.50663E+03 1.93250E+02 2.18284E+02-7.33134E+02
 -1      2938-1.88378E+03-7.84777E+02-7.51290E+03 1.67710E+02 5.18415E+02-6.67119E+02
 -1      2939-2.39993E+03-8.30475E+02-8.99194E+03 5.94798E+01 6.50665E+02-1.76326E+02
 -1      2940-2.68061E+03-7.74326E+02-9.15310E+03 4.12561E-01 6.64627E+02 3.27738E+01
 -1      2941-2.80200E+03-7.49575E+02-9.03995E+03-1.51568E+01 6.53092E+02 7.00922E+01
 -1      2942-2.83719E+03-7.42168E+02-8.93542E+03-1.49478E+01 6.45061E+02 6.37396E+01
 -1      2943-2.85194E+03-7.43991E+02-8.89025E+03-1.20937E+01 6.41917E+02 5.89863E+01
 -1      2944-2.86201E+03-7.46508E+02-8.87774E+03-1.03491E+01 6.41205E+02 6.00540E+01
 -1      2945-2.87016E+03-7.47973E+02-8.87710E+03-9.70618E+00 6.41270E+02 6.29352E+01
 -1      2946-2.87577E+03-7.48571E+02-8.87916E+03-9.55485E+00 6.41475E+02 6.54389E+01
 -1      2947-2.87862E+03-7.48789E+02-8.88160E+03-9.55688E+00 6.41685E+02 6.71096E+01
 -1      2948-2.87819E+03-7.49121E+02-8.88389E+03-9.77347E+00 6.41895E+02 6.85026E+01
 -1      2949-2.87210E+03-7.49850E+02-8.88207E+03-1.06918E+01 6.41878E+02 7.17460E+01
 -1      2950-2.85669E+03-7.50445E+02-8.86249E+03-1.29410E+01 6.40666E+02 8.19782E+01
 -1      2951-2.82769E+03-7.44644E+02-8.79142E+03-1.60405E+01 6.35600E+02 1.06346E+02
 -1      2952-2.81323E+03-7.28462E+02-8.64599E+03-1.56229E+01 6.22325E+02 1.27239E+02
 -1      2953-2.83863E+03-6.76211E+02-8.44727E+03 5.65354E+00 6.04014E+02 6.24646E+01
 -1      2954-2.64259E+03-5.75473E+02-8.68180E+03 5.65108E+01 6.60177E+02-2.72833E+02
 -1      2955-2.97783E+03-1.20709E+03-1.13987E+04-2.01860E+01 8.47247E+02-6.73094E+00
 -1      2956-2.67946E+03-1.17389E+03-9.49870E+03-2.84705E+02 7.31784E+02 1.33632E+03
 -1      2957-4.58671E+02 4.83240E+02-2.07069E+02-2.67016E+02 5.24262E+01 1.13432E+03
 -1      2958-5.56202E+02 3.23307E+01 8.67716E+01-4.77966E+01-3.56288E+01 5.89102E+01
 -1      2959-1.35910E+02-2.57920E+01-3.00703E+01-1.90331E-01-7.40396E+00 6.64971E-01
 -1      2960-7.47852E+02-2.84934E+02-3.16320E+03 3.69435E+02 4.84267E+02-6.22757E+02
 -1      2961-1.69575E+03-8.26163E+02-6.64317E+03 3.14960E+02 1.12505E+03-5.63272E+02
 -1      2962-2.14404E+03-8.94769E+02-7.90567E+03 1.07941E+02 1.37785E+03-1.51159E+02
 -1      2963-2.38627E+03-8.50381E+02-8.04197E+03-4.35735E-01 1.39967E+03 2.42105E+01
 -1      2964-2.49385E+03-8.26885E+02-7.93810E+03-2.79930E+01 1.37416E+03 5.69013E+01
 -1      2965-2.52936E+03-8.18694E+02-7.84393E+03-2.70393E+01 1.35698E+03 5.27907E+01
 -1      2966-2.54668E+03-8.19573E+02-7.80401E+03-2.15388E+01 1.35042E+03 5.00235E+01
 -1      2967-2.55839E+03-8.21542E+02-7.79335E+03-1.83030E+01 1.34897E+03 5.19810E+01
 -1      2968-2.56715E+03-8.22811E+02-7.79314E+03-1.71353E+01 1.34911E+03 5.51452E+01
 -1      2969-2.57287E+03-8.23376E+02-7.79514E+03-1.68678E+01 1.34952E+03 5.77287E+01
 -1      2970-2.57568E+03-8.23618E+02-7.79739E+03-1.68673E+01 1.34995E+03 5.94379E+01
 -1      2971-2.57537E+03-8.23942E+02-7.79954E+03-1.72542E+01 1.35039E+03 6.08095E+01
 -1      2972-2.56995E+03-8.24515E+02-7.79807E+03-1.89135E+01 1.35044E+03 6.37541E+01
 -1      2973-2.55623E+03-8.24726E+02-7.78083E+03-2.31919E+01 1.34801E+03 7.27358E+01
 -1      2974-2.52972E+03-8.18546E+02-7.71750E+03-2.93009E+01 1.33771E+03 9.45792E+01
 -1      2975-2.51057E+03-8.01006E+02-7.58480E+03-2.91918E+01 1.30889E+03 1.12286E+02
 -1      2976-2.52492E+03-7.53991E+02-7.42029E+03 7.08081E+00 1.27150E+03 6.21724E+01
 -1      2977-2.33738E+03-6.66423E+02-7.58543E+03 1.11875E+02 1.35520E+03-2.22257E+02
 -1      2978-2.67802E+03-1.27839E+03-9.98684E+03-3.49166E+01 1.77931E+03 7.68573E+00
 -1      2979-2.36221E+03-1.20424E+03-8.16229E+03-5.49819E+02 1.49964E+03 1.12907E+03
 -1      2980-3.85645E+02 4.13922E+02-1.65250E+02-5.00909E+02 5.36716E+01 9.43176E+02
 -1      2981-4.84631E+02 2.57961E+01 6.02307E+01-7.99838E+01-5.91890E+01 5.24729E+01
 -1      2982-1.24420E+02-2.17694E+01-1.78064E+01-4.60535E-01-1.42755E+01 7.57154E+00
 -1      2983-4.64789E+02-2.28491E+02-2.15880E+03 4.57776E+02 6.21225E+02-4.16152E+02
 -1      2984-1.03868E+03-6.77384E+02-4.29327E+03 3.87190E+02 1.41578E+03-3.86141E+02
 -1      2985-1.33992E+03-7.48045E+02-5.12497E+03 1.31403E+02 1.70605E+03-1.15496E+02
 -1      2986-1.52394E+03-7.19221E+02-5.22955E+03-8.02260E-01 1.72511E+03 8.63916E+00
 -1      2987-1.61956E+03-6.99863E+02-5.16042E+03-3.38936E+01 1.69074E+03 3.49221E+01
 -1      2988-1.66200E+03-6.93024E+02-5.09639E+03-3.23091E+01 1.66883E+03 3.50259E+01
 -1      2989-1.68538E+03-6.93492E+02-5.06945E+03-2.53749E+01 1.66079E+03 3.57683E+01
 -1      2990-1.70009E+03-6.94973E+02-5.06284E+03-2.13970E+01 1.65913E+03 3.92202E+01
 -1      2991-1.70975E+03-6.95983E+02-5.06325E+03-1.99862E+01 1.65936E+03 4.28632E+01
 -1      2992-1.71551E+03-6.96453E+02-5.06492E+03-1.96728E+01 1.65987E+03 4.55792E+01
 -1      2993-1.71813E+03-6.96665E+02-5.06662E+03-1.96705E+01 1.66039E+03 4.73590E+01
 -1      2994-1.71781E+03-6.96918E+02-5.06818E+03-2.01367E+01 1.66095E+03 4.87184E+01
 -1      2995-1.71339E+03-6.97317E+02-5.06717E+03-2.21480E+01 1.66116E+03 5.11548E+01
 -1      2996-1.70278E+03-6.97275E+02-5.05485E+03-2.75291E+01 1.65831E+03 5.81840E+01
 -1      2997-1.68334E+03-6.92175E+02-5.01073E+03-3.53498E+01 1.64595E+03 7.48690E+01
 -1      2998-1.66740E+03-6.76457E+02-4.92130E+03-3.56218E+01 1.60829E+03 8.86315E+01
 -1      2999-1.66555E+03-6.38439E+02-4.82394E+03 7.09272E+00 1.56151E+03 5.15297E+01
 -1      3000-1.52187E+03-5.90368E+02-4.97838E+03 1.40349E+02 1.64006E+03-1.31274E+02
 -1      3001-1.69706E+03-1.05873E+03-6.41060E+03-4.86298E+01 2.19524E+03 3.96925E+01
 -1      3002-1.47405E+03-9.67511E+02-5.06840E+03-6.84189E+02 1.79961E+03 7.44640E+02
 -1      3003-3.34873E+02 2.70760E+02-2.85887E+02-6.11096E+02 2.12761E+01 6.22895E+02
 -1      3004-3.65778E+02 2.90763E+01 5.80992E+01-9.56253E+01-6.92919E+01 6.14534E+01
 -1      3005-1.14812E+02-1.61399E+01-2.56877E+00-7.84445E-01-1.78571E+01 1.26191E+01
 -1      3006-1.53872E+02-1.50065E+02-1.05527E+03 4.07592E+02 4.51487E+02-2.10565E+02
 -1      3007-3.38125E+02-4.70893E+02-1.85485E+03 3.48681E+02 1.01206E+03-2.14551E+02
 -1      3008-4.86203E+02-5.32251E+02-2.26731E+03 1.22087E+02 1.21443E+03-8.21941E+01
 -1      3009-6.10063E+02-5.17410E+02-2.33634E+03 1.67447E+00 1.22068E+03-7.52785E+00
 -1      3010-6.97515E+02-5.03198E+02-2.30424E+03-2.94018E+01 1.19193E+03 1.23283E+01
 -1      3011-7.49878E+02-4.98474E+02-2.27216E+03-2.82509E+01 1.17518E+03 1.69480E+01
 -1      3012-7.80559E+02-4.98822E+02-2.25899E+03-2.20160E+01 1.16957E+03 2.12775E+01
 -1      3013-7.98579E+02-4.99916E+02-2.25674E+03-1.83979E+01 1.16863E+03 2.62929E+01
 -1      3014-8.09124E+02-5.00680E+02-2.25785E+03-1.71141E+01 1.16892E+03 3.04655E+01
 -1      3015-8.14896E+02-5.01052E+02-2.25924E+03-1.68311E+01 1.16932E+03 3.33549E+01
 -1      3016-8.17297E+02-5.01226E+02-2.26041E+03-1.68365E+01 1.16970E+03 3.52331E+01
 -1      3017-8.16864E+02-5.01411E+02-2.26141E+03-1.72740E+01 1.17015E+03 3.66083E+01
 -1      3018-8.13390E+02-5.01669E+02-2.26095E+03-1.91447E+01 1.17049E+03 3.85629E+01
 -1      3019-8.06216E+02-5.01511E+02-2.25387E+03-2.40855E+01 1.16881E+03 4.37103E+01
 -1      3020-7.95018E+02-4.97976E+02-2.22975E+03-3.12746E+01 1.15991E+03 5.50204E+01
 -1      3021-7.84601E+02-4.85347E+02-2.18712E+03-3.10017E+01 1.13085E+03 6.51196E+01
 -1      3022-7.63871E+02-4.58371E+02-2.15540E+03 8.75297E+00 1.09211E+03 3.89539E+01
 -1      3023-6.65277E+02-4.49124E+02-2.31788E+03 1.21838E+02 1.15216E+03-4.26433E+01
 -1      3024-6.57850E+02-7.40127E+02-2.77269E+03-5.84765E+01 1.56755E+03 5.78634E+01
 -1      3025-5.93119E+02-6.67206E+02-2.09593E+03-6.08219E+02 1.25168E+03 3.65384E+02
 -1      3026-2.68880E+02 1.36129E+02-3.55417E+02-5.41922E+02-3.00851E-01 3.18448E+02
 -1      3027-2.55699E+02 2.92657E+01 6.60949E+01-9.60902E+01-6.93979E+01 6.71653E+01
 -1      3028-1.11238E+02-9.96585E+00 1.40483E+01-2.45834E+00-1.50751E+01 1.75121E+01
 -1      3029-1.62903E+00-1.35170E+02-4.09457E+02 2.41678E+02 1.68866E+02-8.37871E+01
 -1      3030-2.97498E+00-3.97925E+02-6.17205E+02 2.09942E+02 3.76734E+02-1.01573E+02
 -1      3031-4.26223E+01-4.57546E+02-7.65302E+02 8.07737E+01 4.52379E+02-5.13997E+01
 -1      3032-1.21172E+02-4.50661E+02-7.86378E+02 5.95240E+00 4.48830E+02-1.52758E+01
 -1      3033-2.04778E+02-4.37993E+02-7.62219E+02-1.55587E+01 4.34267E+02-2.00518E+00
 -1      3034-2.66124E+02-4.33698E+02-7.45031E+02-1.61231E+01 4.27071E+02 4.63704E+00
 -1      3035-3.02966E+02-4.33694E+02-7.40082E+02-1.27355E+01 4.25132E+02 1.13312E+01
 -1      3036-3.23436E+02-4.34477E+02-7.40900E+02-1.05435E+01 4.25020E+02 1.76100E+01
 -1      3037-3.34544E+02-4.35075E+02-7.42716E+02-9.71178E+00 4.25244E+02 2.23436E+01
 -1      3038-3.40276E+02-4.35379E+02-7.44022E+02-9.51434E+00 4.25425E+02 2.54811E+01
 -1      3039-3.42463E+02-4.35530E+02-7.44916E+02-9.53598E+00 4.25576E+02 2.74843E+01
 -1      3040-3.41831E+02-4.35685E+02-7.45776E+02-9.86463E+00 4.25802E+02 2.88593E+01
 -1      3041-3.38832E+02-4.35878E+02-7.46147E+02-1.11082E+01 4.26097E+02 3.04669E+01
 -1      3042-3.34253E+02-4.35620E+02-7.43017E+02-1.41068E+01 4.25826E+02 3.42859E+01
 -1      3043-3.29308E+02-4.32657E+02-7.30616E+02-1.81640E+01 4.22425E+02 4.26508E+01
 -1      3044-3.20458E+02-4.20309E+02-7.07800E+02-1.70282E+01 4.09746E+02 5.05705E+01
 -1      3045-2.81168E+02-3.99727E+02-7.04175E+02 8.66471E+00 3.89896E+02 3.74397E+01
 -1      3046-1.78595E+02-4.05213E+02-8.17285E+02 6.36676E+01 4.20818E+02 4.35782E+00
 -1      3047-1.35721E+02-6.15852E+02-9.47847E+02-5.32122E+01 5.94409E+02 3.95943E+01
 -1      3048-1.71989E+02-5.27999E+02-6.87225E+02-3.53368E+02 4.64039E+02 1.38232E+02
 -1      3049-1.59039E+02 6.84725E+01-1.46343E+02-3.20785E+02-1.44858E+01 1.25314E+02
 -1      3050-2.06684E+02 2.57020E+01 8.59909E+01-7.51880E+01-4.63160E+01 4.40937E+01
 -1      3051-1.20025E+02-6.81262E+00 3.03308E+01-6.32993E+00-8.35429E+00 2.10820E+01
 -1      3052 2.04232E+01-1.98957E+02-2.24189E+02-9.71397E+01-3.97351E+01 2.90775E+01
 -1      3053-3.75070E+01-5.46489E+02-3.79201E+02-6.97711E+01-1.02909E+02 6.04986E+00
 -1      3054-7.28969E+01-6.04416E+02-4.43983E+02-9.48784E+00-1.17479E+02-2.45751E+00
 -1      3055-1.15546E+02-5.95404E+02-4.50648E+02 1.52312E+01-9.93110E+01-1.87260E+00
 -1      3056-1.57117E+02-5.76285E+02-4.34468E+02 1.98731E+01-8.83156E+01-3.99162E-01
 -1      3057-1.99438E+02-5.67219E+02-4.22776E+02 1.82520E+01-8.49627E+01 2.48854E+00
 -1      3058-2.35057E+02-5.65049E+02-4.19043E+02 1.62437E+01-8.47755E+01 6.41891E+00
 -1      3059-2.59472E+02-5.65402E+02-4.19371E+02 1.53454E+01-8.51544E+01 1.00650E+01
 -1      3060-2.73715E+02-5.66081E+02-4.20494E+02 1.51731E+01-8.53953E+01 1.27160E+01
 -1      3061-2.80979E+02-5.66516E+02-4.21330E+02 1.52284E+01-8.54879E+01 1.44114E+01
 -1      3062-2.84035E+02-5.66811E+02-4.21925E+02 1.52761E+01-8.55419E+01 1.54452E+01
 -1      3063-2.84734E+02-5.67146E+02-4.22515E+02 1.53610E+01-8.56913E+01 1.60658E+01
 -1      3064-2.83921E+02-5.67493E+02-4.22779E+02 1.57750E+01-8.60927E+01 1.66203E+01
 -1      3065-2.79308E+02-5.66337E+02-4.20560E+02 1.69185E+01-8.67024E+01 1.79739E+01
 -1      3066-2.63948E+02-5.61797E+02-4.13103E+02 1.85443E+01-8.61653E+01 2.12050E+01
 -1      3067-2.30983E+02-5.45621E+02-4.01059E+02 1.87601E+01-8.08141E+01 2.46980E+01
 -1      3068-2.01545E+02-5.33350E+02-4.03201E+02 1.22289E+01-6.29788E+01 2.29149E+01
 -1      3069-1.85095E+02-5.16436E+02-4.50354E+02-2.49388E+01-7.50883E+01 2.29393E+01
 -1      3070-2.87285E+02-8.05316E+02-5.60578E+02 4.59925E+00-1.87739E+02 1.07826E+01
 -1      3071-2.67251E+02-6.94021E+02-4.22498E+02 1.44601E+02-1.41883E+02-2.68314E+01
 -1      3072 2.33893E+00 1.36729E+02-2.98837E+01 1.14658E+02 6.74032E+01-2.35149E+01
 -1      3073-3.75731E+01 1.42887E+01 4.47408E+01-5.56272E-01 5.03907E+01 3.74553E+00
 -1      3074-1.91619E+01 9.34544E+00 2.24140E+01-5.71104E+00 3.71722E+00 5.97398E+00
 -1      3075-5.46217E+01-2.57832E+02-5.45472E+02-2.29645E+02-3.06200E+02-3.83688E+01
 -1      3076-2.26547E+02-7.34254E+02-9.45242E+02-1.63788E+02-7.29035E+02-5.59415E+01
 -1      3077-3.46712E+02-8.17117E+02-1.15466E+03-1.68490E+01-8.50187E+02-2.51806E+01
 -1      3078-4.16808E+02-8.01692E+02-1.18943E+03 3.18216E+01-8.30356E+02 1.36250E+00
 -1      3079-4.52489E+02-7.75774E+02-1.17424E+03 4.03621E+01-8.03676E+02 9.00072E+00
 -1      3080-4.84073E+02-7.63516E+02-1.15558E+03 3.58826E+01-7.90762E+02 1.13844E+01
 -1      3081-5.14198E+02-7.60941E+02-1.14767E+03 3.15368E+01-7.87311E+02 1.40635E+01
 -1      3082-5.36821E+02-7.61503E+02-1.14629E+03 2.96696E+01-7.87022E+02 1.69220E+01
 -1      3083-5.50809E+02-7.62366E+02-1.14701E+03 2.92830E+01-7.87357E+02 1.91987E+01
 -1      3084-5.58201E+02-7.62883E+02-1.14789E+03 2.93502E+01-7.87644E+02 2.07256E+01
 -1      3085-5.61505E+02-7.63229E+02-1.14864E+03 2.94023E+01-7.87899E+02 2.16893E+01
 -1      3086-5.62571E+02-7.63685E+02-1.14930E+03 2.95064E+01-7.88298E+02 2.23394E+01
 -1      3087-5.61789E+02-7.64260E+02-1.14894E+03 3.03069E+01-7.88823E+02 2.31679E+01
 -1      3088-5.55821E+02-7.63197E+02-1.14480E+03 3.25186E+01-7.88488E+02 2.53692E+01
 -1      3089-5.35304E+02-7.56821E+02-1.13043E+03 3.71012E+01-7.82927E+02 3.02801E+01
 -1      3090-4.97407E+02-7.34997E+02-1.11294E+03 3.69761E+01-7.62505E+02 3.42653E+01
 -1      3091-4.81459E+02-7.16146E+02-1.09941E+03 3.31141E+01-7.21653E+02 2.07446E+01
 -1      3092-4.98738E+02-6.99572E+02-1.19637E+03-7.05427E+01-7.39133E+02 7.24613E+00
 -1      3093-6.28032E+02-1.09983E+03-1.40122E+03-2.46439E+01-1.14683E+03 4.45727E+01
 -1      3094-5.50549E+02-1.00281E+03-1.05654E+03 3.72197E+02-9.28605E+02 8.80880E+01
 -1      3095-6.26078E+01 2.13632E+02-2.09165E+02 2.79704E+02 1.27308E+02 8.07841E+01
 -1      3096-3.21185E+01 2.22573E+01 4.40675E+01-2.94109E+01 7.74955E+01 3.58659E+01
 -1      3097 6.61634E+00 1.74635E+01 8.95990E+00-5.37501E+00 5.74412E+00 5.66912E+00
 -1      3098-5.12409E+02-4.50921E+02-2.00886E+03-3.17345E+02-5.03013E+02-2.11816E+02
 -1      3099-1.33876E+03-1.23705E+03-4.42416E+03-2.29866E+02-1.21688E+03-1.88120E+02
 -1      3100-1.64246E+03-1.36186E+03-5.06915E+03-2.57259E+01-1.43353E+03-4.31294E+01
 -1      3101-1.77531E+03-1.34783E+03-5.15131E+03 3.69959E+01-1.42291E+03 2.93290E+01
 -1      3102-1.79169E+03-1.30661E+03-5.07089E+03 4.88001E+01-1.38897E+03 4.35597E+01
 -1      3103-1.80340E+03-1.28682E+03-5.00734E+03 4.36205E+01-1.36981E+03 4.25219E+01
 -1      3104-1.82331E+03-1.28243E+03-4.98124E+03 3.82891E+01-1.36369E+03 4.21575E+01
 -1      3105-1.84243E+03-1.28289E+03-4.97456E+03 3.58813E+01-1.36264E+03 4.36581E+01
 -1      3106-1.85581E+03-1.28394E+03-4.97469E+03 3.52867E+01-1.36294E+03 4.54828E+01
 -1      3107-1.86339E+03-1.28455E+03-4.97605E+03 3.53002E+01-1.36336E+03 4.68760E+01
 -1      3108-1.86712E+03-1.28496E+03-4.97754E+03 3.53465E+01-1.36379E+03 4.77802E+01
 -1      3109-1.86858E+03-1.28559E+03-4.97897E+03 3.54981E+01-1.36434E+03 4.84650E+01
 -1      3110-1.86758E+03-1.28642E+03-4.97844E+03 3.65671E+01-1.36476E+03 4.97667E+01
 -1      3111-1.85750E+03-1.28483E+03-4.96680E+03 3.92850E+01-1.36329E+03 5.37567E+01
 -1      3112-1.82788E+03-1.27457E+03-4.92950E+03 4.53605E+01-1.35366E+03 6.29520E+01
 -1      3113-1.75733E+03-1.23645E+03-4.82846E+03 4.46996E+01-1.32350E+03 7.03364E+01
 -1      3114-1.76855E+03-1.21564E+03-4.76947E+03 4.43206E+01-1.27107E+03 4.14470E+01
 -1      3115-1.73210E+03-1.15822E+03-4.67530E+03-9.83401E+01-1.29510E+03-4.73868E+01
 -1      3116-2.27234E+03-1.83765E+03-6.48368E+03-5.70565E+01-1.90133E+03 7.61112E+01
 -1      3117-1.95816E+03-1.67501E+03-5.31737E+03 5.28200E+02-1.60151E+03 4.09871E+02
 -1      3118 1.84421E+01 3.81131E+02 3.26072E+02 4.02326E+02 1.47634E+02 3.29165E+02
 -1      3119-1.37997E+02-2.11532E+00-9.79485E+01-5.02106E+01 7.78420E+01 5.15695E+01
 -1      3120 5.11926E+01 3.32498E+01 3.06459E+01 1.68543E+00 5.71665E+00-2.98181E-01
 -1      3121-9.44596E+02-6.54418E+02-3.34526E+03-2.27542E+02-3.45547E+02-3.89845E+02
 -1      3122-2.43351E+03-1.75323E+03-7.83499E+03-1.72191E+02-8.74439E+02-3.29870E+02
 -1      3123-2.93844E+03-1.93760E+03-8.98349E+03-2.27254E+01-1.05823E+03-6.52433E+01
 -1      3124-3.13238E+03-1.92322E+03-9.10358E+03 2.80818E+01-1.05611E+03 5.68556E+01
 -1      3125-3.13761E+03-1.86967E+03-8.96959E+03 3.84891E+01-1.03291E+03 7.80693E+01
 -1      3126-3.13242E+03-1.84208E+03-8.86353E+03 3.55961E+01-1.01935E+03 7.38484E+01
 -1      3127-3.14354E+03-1.83586E+03-8.82033E+03 3.17815E+01-1.01480E+03 7.04888E+01
 -1      3128-3.15935E+03-1.83618E+03-8.80853E+03 2.99126E+01-1.01398E+03 7.06448E+01
 -1      3129-3.17214E+03-1.83746E+03-8.80821E+03 2.94067E+01-1.01419E+03 7.20366E+01
 -1      3130-3.17993E+03-1.83823E+03-8.81023E+03 2.93917E+01-1.01453E+03 7.33159E+01
 -1      3131-3.18410E+03-1.83878E+03-8.81265E+03 2.94298E+01-1.01486E+03 7.41786E+01
 -1      3132-3.18593E+03-1.83964E+03-8.81507E+03 2.95937E+01-1.01526E+03 7.49208E+01
 -1      3133-3.18456E+03-1.84074E+03-8.81432E+03 3.04184E+01-1.01551E+03 7.67341E+01
 -1      3134-3.17081E+03-1.83856E+03-8.79584E+03 3.25764E+01-1.01424E+03 8.25701E+01
 -1      3135-3.13240E+03-1.82407E+03-8.73487E+03 3.58986E+01-1.00696E+03 9.59166E+01
 -1      3136-3.03454E+03-1.77072E+03-8.56125E+03 3.60707E+01-9.86084E+02 1.06769E+02
 -1      3137-3.06754E+03-1.74893E+03-8.44995E+03 2.89100E+01-9.45819E+02 6.02739E+01
 -1      3138-2.99219E+03-1.65780E+03-8.21544E+03-6.24731E+01-9.91959E+02-1.07273E+02
 -1      3139-3.90994E+03-2.59764E+03-1.15715E+04-4.10139E+01-1.41169E+03 9.39000E+01
 -1      3140-3.50240E+03-2.41608E+03-1.00307E+04 3.73739E+02-1.24884E+03 7.46081E+02
 -1      3141 1.27073E+02 5.53667E+02 9.76956E+02 3.07094E+02 7.17836E+01 6.00858E+02
 -1      3142-2.67758E+02-3.41389E+01-2.53856E+02-2.77369E+01 6.79762E+01 6.69198E+01
 -1      3143 9.20279E+01 5.07433E+01 5.80901E+01 1.27263E-03 3.99626E+00-7.32427E+00
 -1      3144-9.50786E+02-7.30486E+02-3.34553E+03-8.82964E+01-1.00117E+02-4.51384E+02
 -1      3145-2.53169E+03-1.94990E+03-8.10034E+03-7.17722E+01-2.85150E+02-3.93779E+02
 -1      3146-3.09321E+03-2.15528E+03-9.36668E+03-1.17925E+01-3.67642E+02-8.62821E+01
 -1      3147-3.31948E+03-2.14122E+03-9.51576E+03 1.28720E+01-3.69008E+02 6.11515E+01
 -1      3148-3.32853E+03-2.07967E+03-9.38344E+03 1.87855E+01-3.60491E+02 8.70543E+01
 -1      3149-3.32108E+03-2.04863E+03-9.27577E+03 1.80175E+01-3.55773E+02 8.18808E+01
 -1      3150-3.32970E+03-2.04161E+03-9.23042E+03 1.64267E+01-3.54185E+02 7.73793E+01
 -1      3151-3.34433E+03-2.04210E+03-9.21774E+03 1.55470E+01-3.53933E+02 7.69634E+01
 -1      3152-3.35670E+03-2.04352E+03-9.21699E+03 1.52948E+01-3.54038E+02 7.81576E+01
 -1      3153-3.36448E+03-2.04434E+03-9.21896E+03 1.52849E+01-3.54180E+02 7.93776E+01
 -1      3154-3.36870E+03-2.04491E+03-9.22137E+03 1.53095E+01-3.54314E+02 8.02199E+01
 -1      3155-3.37057E+03-2.04585E+03-9.22376E+03 1.54074E+01-3.54462E+02 8.09919E+01
 -1      3156-3.36880E+03-2.04713E+03-9.22245E+03 1.58055E+01-3.54565E+02 8.30430E+01
 -1      3157-3.35449E+03-2.04485E+03-9.20330E+03 1.68023E+01-3.54060E+02 8.96617E+01
 -1      3158-3.31298E+03-2.02783E+03-9.13691E+03 1.74935E+01-3.51480E+02 1.04564E+02
 -1      3159-3.21861E+03-1.96911E+03-8.97073E+03 1.78309E+01-3.44302E+02 1.16669E+02
 -1      3160-3.25250E+03-1.93853E+03-8.82556E+03 9.28571E+00-3.26553E+02 5.59814E+01
 -1      3161-3.22206E+03-1.86304E+03-8.71596E+03-1.86032E+01-3.69050E+02-1.34363E+02
 -1      3162-4.10432E+03-2.87539E+03-1.20777E+04-1.08710E+01-5.04742E+02 9.52780E+01
 -1      3163-3.79074E+03-2.69214E+03-1.08424E+04 1.37514E+02-4.79353E+02 8.62653E+02
 -1      3164 8.26288E+01 6.00953E+02 9.56231E+02 1.28045E+02-1.79425E+00 7.20956E+02
 -1      3165-2.98319E+02-2.81338E+01-2.37912E+02-1.87856E+00 4.24191E+01 8.68669E+01
 -1      3166 1.00487E+02 5.83349E+01 4.88333E+01-2.65684E+00 2.02375E+00-1.27426E+01
 -1      3167-9.89462E+02-8.63380E+02-3.35762E+03 3.95361E-05-3.14139E-05-4.57755E+02
 -1      3168-2.65539E+03-2.26765E+03-8.23516E+03 2.03018E-05-4.70020E-06-4.05874E+02
 -1      3169-3.24493E+03-2.51006E+03-9.54362E+03 6.06078E-06-2.29198E-06-9.22450E+01
 -1      3170-3.48169E+03-2.49665E+03-9.70370E+03 2.53179E-06-1.51586E-06 6.14560E+01
 -1      3171-3.49009E+03-2.42729E+03-9.57075E+03 1.32979E-06-2.60353E-06 8.89364E+01
 -1      3172-3.48069E+03-2.39163E+03-9.46156E+03 1.69616E-06-4.13026E-06 8.36674E+01
 -1      3173-3.48815E+03-2.38318E+03-9.41548E+03 1.54752E-06-1.45292E-06 7.89695E+01
 -1      3174-3.50220E+03-2.38334E+03-9.40222E+03 6.73345E-07-1.87757E-06 7.84382E+01
 -1      3175-3.51447E+03-2.38485E+03-9.40143E+03 5.55289E-07-2.60330E-06 7.95859E+01
 -1      3176-3.52225E+03-2.38575E+03-9.40336E+03 2.70724E-07-1.60147E-06 8.07913E+01
 -1      3177-3.52654E+03-2.38641E+03-9.40581E+03 4.62752E-08-3.02268E-06 8.16285E+01
 -1      3178-3.52841E+03-2.38745E+03-9.40816E+03 4.30190E-07-2.51967E-06 8.24068E+01
 -1      3179-3.52664E+03-2.38892E+03-9.40687E+03-2.14780E-08-2.36435E-06 8.45165E+01
 -1      3180-3.51169E+03-2.38586E+03-9.38680E+03 8.23921E-08-3.45072E-06 9.12619E+01
 -1      3181-3.46956E+03-2.36725E+03-9.32027E+03 1.41122E-07-2.69093E-06 1.06474E+02
 -1      3182-3.37197E+03-2.29821E+03-9.15006E+03 2.38596E-07-3.18143E-06 1.18500E+02
 -1      3183-3.40854E+03-2.26588E+03-9.00368E+03-1.48831E-07-6.05615E-07 5.30095E+01
 -1      3184-3.37814E+03-2.17103E+03-8.91039E+03-3.99746E-07-6.81237E-06-1.38885E+02
 -1      3185-4.31314E+03-3.33962E+03-1.23450E+04 5.69167E-07-4.28244E-06 9.64198E+01
 -1      3186-3.98519E+03-3.07476E+03-1.11446E+04 8.94208E-07-2.70906E-06 8.78855E+02
 -1      3187 8.99121E+01 6.64218E+02 9.63584E+02 1.02575E-07-3.06413E-07 7.44884E+02
 -1      3188-3.12232E+02-3.75303E+01-2.38384E+02-4.85939E-07 7.05347E-07 9.55055E+01
 -1      3189 1.04435E+02 6.52538E+01 4.87265E+01-1.05984E-07 6.62977E-08-1.45400E+01
 -1      3190-9.50786E+02-7.30486E+02-3.34553E+03 8.82965E+01 1.00117E+02-4.51384E+02
 -1      3191-2.53169E+03-1.94990E+03-8.10034E+03 7.17722E+01 2.85150E+02-3.93779E+02
 -1      3192-3.09321E+03-2.15528E+03-9.36668E+03 1.17925E+01 3.67642E+02-8.62821E+01
 -1      3193-3.31948E+03-2.14122E+03-9.51576E+03-1.28720E+01 3.69008E+02 6.11515E+01
 -1      3194-3.32853E+03-2.07967E+03-9.38344E+03-1.87855E+01 3.60491E+02 8.70543E+01
 -1      3195-3.32108E+03-2.04863E+03-9.27577E+03-1.80175E+01 3.55773E+02 8.18808E+01
 -1      3196-3.32970E+03-2.04161E+03-9.23042E+03-1.64267E+01 3.54185E+02 7.73793E+01
 -1      3197-3.34433E+03-2.04210E+03-9.21774E+03-1.55470E+01 3.53933E+02 7.69634E+01
 -1      3198-3.35670E+03-2.04352E+03-9.21699E+03-1.52948E+01 3.54038E+02 7.81576E+01
 -1      3199-3.36448E+03-2.04434E+03-9.21896E+03-1.52849E+01 3.54180E+02 7.93776E+01
 -1      3200-3.36870E+03-2.04491E+03-9.22137E+03-1.53095E+01 3.54314E+02 8.02199E+01
 -1      3201-3.37057E+03-2.04585E+03-9.22376E+03-1.54074E+01 3.54462E+02 8.09919E+01
 -1      3202-3.36880E+03-2.04713E+03-9.22245E+03-1.58055E+01 3.54565E+02 8.30430E+01
 -1      3203-3.35449E+03-2.04485E+03-9.20330E+03-1.68023E+01 3.54060E+02 8.96617E+01
 -1      3204-3.31298E+03-2.02783E+03-9.13691E+03-1.74935E+01 3.51480E+02 1.04564E+02
 -1      3205-3.21861E+03-1.96911E+03-8.97073E+03-1.78309E+01 3.44302E+02 1.16669E+02
 -1      3206-3.25250E+03-1.93853E+03-8.82556E+03-9.28571E+00 3.26553E+02 5.59814E+01
 -1      3207-3.22206E+03-1.86304E+03-8.71596E+03 1.86032E+01 3.69050E+02-1.34363E+02
 -1      3208-4.10432E+03-2.87539E+03-1.20777E+04 1.08710E+01 5.04742E+02 9.52780E+01
 -1      3209-3.79074E+03-2.69214E+03-1.08424E+04-1.37514E+02 4.79353E+02 8.62653E+02
 -1      3210 8.26288E+01 6.00953E+02 9.56231E+02-1.28045E+02 1.79425E+00 7.20956E+02
 -1      3211-2.98319E+02-2.81338E+01-2.37912E+02 1.87856E+00-4.24191E+01 8.68669E+01
 -1      3212 1.00487E+02 5.83349E+01 4.88333E+01 2.65684E+00-2.02375E+00-1.27426E+01
 -1      3213-9.44596E+02-6.54418E+02-3.34526E+03 2.27542E+02 3.45547E+02-3.89845E+02
 -1      3214-2.43351E+03-1.75323E+03-7.83499E+03 1.72191E+02 8.74439E+02-3.29870E+02
 -1      3215-2.93844E+03-1.93760E+03-8.98349E+03 2.27254E+01 1.05823E+03-6.52433E+01
 -1      3216-3.13238E+03-1.92322E+03-9.10358E+03-2.80818E+01 1.05611E+03 5.68556E+01
 -1      3217-3.13761E+03-1.86967E+03-8.96959E+03-3.84891E+01 1.03291E+03 7.80693E+01
 -1      3218-3.13242E+03-1.84208E+03-8.86353E+03-3.55961E+01 1.01935E+03 7.38484E+01
 -1      3219-3.14354E+03-1.83586E+03-8.82033E+03-3.17815E+01 1.01480E+03 7.04888E+01
 -1      3220-3.15935E+03-1.83618E+03-8.80853E+03-2.99126E+01 1.01398E+03 7.06448E+01
 -1      3221-3.17214E+03-1.83746E+03-8.80821E+03-2.94067E+01 1.01419E+03 7.20366E+01
 -1      3222-3.17993E+03-1.83823E+03-8.81023E+03-2.93917E+01 1.01453E+03 7.33159E+01
 -1      3223-3.18410E+03-1.83878E+03-8.81265E+03-2.94298E+01 1.01486E+03 7.41786E+01
 -1      3224-3.18593E+03-1.83964E+03-8.81507E+03-2.95937E+01 1.01526E+03 7.49208E+01
 -1      3225-3.18456E+03-1.84074E+03-8.81432E+03-3.04184E+01 1.01551E+03 7.67341E+01
 -1      3226-3.17081E+03-1.83856E+03-8.79584E+03-3.25764E+01 1.01424E+03 8.25701E+01
 -1      3227-3.13240E+03-1.82407E+03-8.73487E+03-3.58986E+01 1.00696E+03 9.59166E+01
 -1      3228-3.03454E+03-1.77072E+03-8.56125E+03-3.60707E+01 9.86084E+02 1.06769E+02
 -1      3229-3.06754E+03-1.74893E+03-8.44995E+03-2.89100E+01 9.45819E+02 6.02739E+01
 -1      3230-2.99219E+03-1.65780E+03-8.21544E+03 6.24731E+01 9.91959E+02-1.07273E+02
 -1      3231-3.90994E+03-2.59764E+03-1.15715E+04 4.10139E+01 1.41169E+03 9.39000E+01
 -1      3232-3.50240E+03-2.41608E+03-1.00307E+04-3.73739E+02 1.24884E+03 7.46081E+02
 -1      3233 1.27073E+02 5.53667E+02 9.76956E+02-3.07094E+02-7.17836E+01 6.00858E+02
 -1      3234-2.67758E+02-3.41389E+01-2.53856E+02 2.77369E+01-6.79762E+01 6.69198E+01
 -1      3235 9.20279E+01 5.07433E+01 5.80901E+01-1.27252E-03-3.99626E+00-7.32427E+00
 -1      3236-5.12409E+02-4.50921E+02-2.00886E+03 3.17345E+02 5.03013E+02-2.11816E+02
 -1      3237-1.33876E+03-1.23705E+03-4.42416E+03 2.29866E+02 1.21688E+03-1.88120E+02
 -1      3238-1.64246E+03-1.36186E+03-5.06915E+03 2.57259E+01 1.43353E+03-4.31294E+01
 -1      3239-1.77531E+03-1.34783E+03-5.15131E+03-3.69959E+01 1.42291E+03 2.93290E+01
 -1      3240-1.79169E+03-1.30661E+03-5.07089E+03-4.88001E+01 1.38897E+03 4.35597E+01
 -1      3241-1.80340E+03-1.28682E+03-5.00734E+03-4.36205E+01 1.36981E+03 4.25219E+01
 -1      3242-1.82331E+03-1.28243E+03-4.98124E+03-3.82891E+01 1.36369E+03 4.21575E+01
 -1      3243-1.84243E+03-1.28289E+03-4.97456E+03-3.58813E+01 1.36264E+03 4.36581E+01
 -1      3244-1.85581E+03-1.28394E+03-4.97469E+03-3.52867E+01 1.36294E+03 4.54828E+01
 -1      3245-1.86339E+03-1.28455E+03-4.97605E+03-3.53002E+01 1.36336E+03 4.68760E+01
 -1      3246-1.86712E+03-1.28496E+03-4.97754E+03-3.53465E+01 1.36379E+03 4.77802E+01
 -1      3247-1.86858E+03-1.28559E+03-4.97897E+03-3.54981E+01 1.36434E+03 4.84650E+01
 -1      3248-1.86758E+03-1.28642E+03-4.97844E+03-3.65671E+01 1.36476E+03 4.97667E+01
 -1      3249-1.85750E+03-1.28483E+03-4.96680E+03-3.92850E+01 1.36329E+03 5.37567E+01
 -1      3250-1.82788E+03-1.27457E+03-4.92950E+03-4.53605E+01 1.35366E+03 6.29520E+01
 -1      3251-1.75733E+03-1.23645E+03-4.82846E+03-4.46996E+01 1.32350E+03 7.03364E+01
 -1      3252-1.76855E+03-1.21564E+03-4.76947E+03-4.43206E+01 1.27107E+03 4.14470E+01
 -1      3253-1.73210E+03-1.15822E+03-4.67530E+03 9.83401E+01 1.29510E+03-4.73868E+01
 -1      3254-2.27234E+03-1.83765E+03-6.48368E+03 5.70565E+01 1.90133E+03 7.61112E+01
 -1      3255-1.95816E+03-1.67502E+03-5.31737E+03-5.28200E+02 1.60151E+03 4.09872E+02
 -1      3256 1.84421E+01 3.81131E+02 3.26072E+02-4.02326E+02-1.47634E+02 3.29165E+02
 -1      3257-1.37997E+02-2.11533E+00-9.79485E+01 5.02106E+01-7.78420E+01 5.15695E+01
 -1      3258 5.11926E+01 3.32498E+01 3.06459E+01-1.68543E+00-5.71665E+00-2.98181E-01
 -1      3259-5.46218E+01-2.57832E+02-5.45472E+02 2.29645E+02 3.06200E+02-3.83688E+01
 -1      3260-2.26547E+02-7.34254E+02-9.45242E+02 1.63788E+02 7.29035E+02-5.59415E+01
 -1      3261-3.46712E+02-8.17117E+02-1.15466E+03 1.68490E+01 8.50187E+02-2.51806E+01
 -1      3262-4.16808E+02-8.01692E+02-1.18943E+03-3.18216E+01 8.30356E+02 1.36250E+00
 -1      3263-4.52489E+02-7.75774E+02-1.17424E+03-4.03621E+01 8.03676E+02 9.00072E+00
 -1      3264-4.84073E+02-7.63516E+02-1.15558E+03-3.58826E+01 7.90762E+02 1.13844E+01
 -1      3265-5.14198E+02-7.60941E+02-1.14767E+03-3.15368E+01 7.87311E+02 1.40635E+01
 -1      3266-5.36821E+02-7.61503E+02-1.14629E+03-2.96696E+01 7.87022E+02 1.69220E+01
 -1      3267-5.50809E+02-7.62366E+02-1.14701E+03-2.92830E+01 7.87357E+02 1.91987E+01
 -1      3268-5.58201E+02-7.62883E+02-1.14789E+03-2.93502E+01 7.87644E+02 2.07256E+01
 -1      3269-5.61505E+02-7.63229E+02-1.14864E+03-2.94023E+01 7.87899E+02 2.16893E+01
 -1      3270-5.62571E+02-7.63685E+02-1.14930E+03-2.95064E+01 7.88298E+02 2.23394E+01
 -1      3271-5.61789E+02-7.64260E+02-1.14894E+03-3.03069E+01 7.88823E+02 2.31679E+01
 -1      3272-5.55821E+02-7.63197E+02-1.14480E+03-3.25186E+01 7.88488E+02 2.53692E+01
 -1      3273-5.35304E+02-7.56821E+02-1.13043E+03-3.71012E+01 7.82927E+02 3.02801E+01
 -1      3274-4.97407E+02-7.34997E+02-1.11294E+03-3.69761E+01 7.62505E+02 3.42653E+01
 -1      3275-4.81459E+02-7.16146E+02-1.09941E+03-3.31141E+01 7.21653E+02 2.07446E+01
 -1      3276-4.98738E+02-6.99572E+02-1.19637E+03 7.05427E+01 7.39133E+02 7.24613E+00
 -1      3277-6.28032E+02-1.09983E+03-1.40122E+03 2.46439E+01 1.14683E+03 4.45727E+01
 -1      3278-5.50549E+02-1.00281E+03-1.05654E+03-3.72197E+02 9.28605E+02 8.80881E+01
 -1      3279-6.26078E+01 2.13632E+02-2.09165E+02-2.79704E+02-1.27308E+02 8.07841E+01
 -1      3280-3.21185E+01 2.22573E+01 4.40675E+01 2.94109E+01-7.74955E+01 3.58659E+01
 -1      3281 6.61634E+00 1.74635E+01 8.95990E+00 5.37501E+00-5.74412E+00 5.66912E+00
 -1      3282 2.04231E+01-1.98957E+02-2.24189E+02 9.71397E+01 3.97351E+01 2.90775E+01
 -1      3283-3.75070E+01-5.46489E+02-3.79201E+02 6.97711E+01 1.02909E+02 6.04987E+00
 -1      3284-7.28969E+01-6.04416E+02-4.43983E+02 9.48785E+00 1.17479E+02-2.45751E+00
 -1      3285-1.15546E+02-5.95404E+02-4.50648E+02-1.52312E+01 9.93110E+01-1.87260E+00
 -1      3286-1.57117E+02-5.76285E+02-4.34468E+02-1.98731E+01 8.83156E+01-3.99162E-01
 -1      3287-1.99438E+02-5.67219E+02-4.22776E+02-1.82520E+01 8.49627E+01 2.48854E+00
 -1      3288-2.35057E+02-5.65049E+02-4.19043E+02-1.62437E+01 8.47755E+01 6.41891E+00
 -1      3289-2.59472E+02-5.65402E+02-4.19371E+02-1.53454E+01 8.51544E+01 1.00650E+01
 -1      3290-2.73715E+02-5.66081E+02-4.20494E+02-1.51731E+01 8.53953E+01 1.27160E+01
 -1      3291-2.80979E+02-5.66516E+02-4.21330E+02-1.52284E+01 8.54879E+01 1.44114E+01
 -1      3292-2.84035E+02-5.66811E+02-4.21925E+02-1.52761E+01 8.55419E+01 1.54452E+01
 -1      3293-2.84734E+02-5.67146E+02-4.22515E+02-1.53610E+01 8.56913E+01 1.60658E+01
 -1      3294-2.83921E+02-5.67494E+02-4.22779E+02-1.57750E+01 8.60927E+01 1.66203E+01
 -1      3295-2.79308E+02-5.66337E+02-4.20560E+02-1.69185E+01 8.67024E+01 1.79739E+01
 -1      3296-2.63948E+02-5.61797E+02-4.13103E+02-1.85443E+01 8.61653E+01 2.12050E+01
 -1      3297-2.30983E+02-5.45621E+02-4.01059E+02-1.87601E+01 8.08141E+01 2.46980E+01
 -1      3298-2.01545E+02-5.33350E+02-4.03201E+02-1.22289E+01 6.29788E+01 2.29149E+01
 -1      3299-1.85095E+02-5.16436E+02-4.50354E+02 2.49388E+01 7.50883E+01 2.29393E+01
 -1      3300-2.87285E+02-8.05316E+02-5.60578E+02-4.59925E+00 1.87739E+02 1.07826E+01
 -1      3301-2.67251E+02-6.94021E+02-4.22498E+02-1.44601E+02 1.41883E+02-2.68314E+01
 -1      3302 2.33893E+00 1.36729E+02-2.98837E+01-1.14658E+02-6.74032E+01-2.35149E+01
 -1      3303-3.75731E+01 1.42887E+01 4.47408E+01 5.56271E-01-5.03907E+01 3.74553E+00
 -1      3304-1.91619E+01 9.34544E+00 2.24140E+01 5.71104E+00-3.71722E+00 5.97398E+00
 -3
    1PSTEP                         9           3           1          
  100CL  103 3.50000E-01        3304                     0    3           1
 -4  ERROR       1    1
 -5  STR(%)      1    1    0    0
 -1         1 1.62418E+01
 -1         2 2.16464E+01
 -1         3 1.62418E+01
 -1         4 2.16464E+01
 -1         5 1.45465E+01
 -1         6 1.38330E+01
 -1         7 1.38683E+01
 -1         8 1.32966E+01
 -1         9 1.45465E+01
 -1        10 1.38330E+01
 -1        11 1.62418E+01
 -1        12 2.16464E+01
 -1        13 1.62418E+01
 -1        14 2.16464E+01
 -1        15 1.75246E+01
 -1        16 2.16464E+01
 -1        17 1.75246E+01
 -1        18 2.16464E+01
 -1        19 1.57597E+01
 -1        20 1.90386E+01
 -1        21 1.51198E+01
 -1        22 1.90386E+01
 -1        23 1.57597E+01
 -1        24 1.90386E+01
 -1        25 1.75246E+01
 -1        26 2.16464E+01
 -1        27 1.75246E+01
 -1        28 2.16464E+01
 -1        29 1.93473E+01
 -1        30 1.47559E+01
 -1        31 1.93473E+01
 -1        32 2.49577E+01
 -1        33 1.77749E+01
 -1        34 2.49850E+01
 -1        35 1.69282E+01
 -1        36 2.49850E+01
 -1        37 1.77749E+01
 -1        38 2.49850E+01
 -1        39 1.93473E+01
 -1        40 2.49577E+01
 -1        41 1.93473E+01
 -1        42 1.47559E+01
 -1        43 2.20993E+01
 -1        44 2.98092E+01
 -1        45 2.20993E+01
 -1        46 3.22752E+01
 -1        47 2.06191E+01
 -1        48 3.22752E+01
 -1        49 1.93301E+01
 -1        50 3.04987E+01
 -1        51 2.06191E+01
 -1        52 3.22752E+01
 -1        53 2.20993E+01
 -1        54 3.22752E+01
 -1        55 2.20993E+01
 -1        56 2.98092E+01
 -1        57 2.80234E+01
 -1        58 4.11510E+01
 -1        59 2.80234E+01
 -1        60 4.11510E+01
 -1        61 2.40607E+01
 -1        62 3.83365E+01
 -1        63 2.28482E+01
 -1        64 3.69935E+01
 -1        65 2.40607E+01
 -1        66 3.83365E+01
 -1        67 2.80234E+01
 -1        68 4.11510E+01
 -1        69 2.80234E+01
 -1        70 4.11510E+01
 -1        71 3.73254E+01
 -1        72 5.72063E+01
 -1        73 3.73254E+01
 -1        74 5.72063E+01
 -1        75 2.89650E+01
 -1        76 3.83365E+01
 -1        77 2.74365E+01
 -1        78 3.69935E+01
 -1        79 2.89650E+01
 -1        80 3.83365E+01
 -1        81 3.73254E+01
 -1        82 5.72063E+01
 -1        83 3.73254E+01
 -1        84 5.72063E+01
 -1        85 3.73254E+01
 -1        86 5.72063E+01
 -1        87 3.73254E+01
 -1        88 5.72063E+01
 -1        89 2.89650E+01
 -1        90 2.93377E+01
 -1        91 2.74365E+01
 -1        92 2.70540E+01
 -1        93 2.89650E+01
 -1        94 2.93377E+01
 -1        95 3.73254E+01
 -1        96 5.72063E+01
 -1        97 3.73254E+01
 -1        98 5.72063E+01
 -1        99 1.62418E+01
 -1       100 1.62418E+01
 -1       101 3.17541E+00
 -1       102 3.17541E+00
 -1       103 8.73985E-01
 -1       104 8.73985E-01
 -1       105 3.39856E-01
 -1       106 3.39856E-01
 -1       107 2.26907E-01
 -1       108 2.26907E-01
 -1       109 8.21975E-02
 -1       110 8.21975E-02
 -1       111 3.16535E-02
 -1       112 3.16535E-02
 -1       113 3.67979E-02
 -1       114 3.67979E-02
 -1       115 3.67979E-02
 -1       116 3.67979E-02
 -1       117 3.66447E-02
 -1       118 3.66447E-02
 -1       119 3.67017E-02
 -1       120 3.67017E-02
 -1       121 3.67017E-02
 -1       122 3.67017E-02
 -1       123 3.56290E-02
 -1       124 3.56290E-02
 -1       125 4.73880E-02
 -1       126 4.73880E-02
 -1       127 1.79441E-01
 -1       128 1.79441E-01
 -1       129 4.43349E-01
 -1       130 4.43349E-01
 -1       131 5.10352E-01
 -1       132 5.10352E-01
 -1       133 3.47538E+00
 -1       134 3.47538E+00
 -1       135 2.16464E+01
 -1       136 2.16464E+01
 -1       137 1.75246E+01
 -1       138 1.75246E+01
 -1       139 3.41168E+00
 -1       140 3.41168E+00
 -1       141 8.73985E-01
 -1       142 8.73985E-01
 -1       143 4.24379E-01
 -1       144 4.24379E-01
 -1       145 2.82010E-01
 -1       146 2.82010E-01
 -1       147 1.21585E-01
 -1       148 1.21585E-01
 -1       149 1.22489E-01
 -1       150 1.22489E-01
 -1       151 1.25608E-01
 -1       152 1.25608E-01
 -1       153 1.25608E-01
 -1       154 1.25608E-01
 -1       155 1.23829E-01
 -1       156 1.23829E-01
 -1       157 1.22268E-01
 -1       158 1.22268E-01
 -1       159 1.20899E-01
 -1       160 1.20899E-01
 -1       161 1.17835E-01
 -1       162 1.17835E-01
 -1       163 1.25687E-01
 -1       164 1.25686E-01
 -1       165 2.70774E-01
 -1       166 2.70774E-01
 -1       167 6.70681E-01
 -1       168 6.70681E-01
 -1       169 1.02774E+00
 -1       170 1.02774E+00
 -1       171 3.47538E+00
 -1       172 3.47538E+00
 -1       173 2.16464E+01
 -1       174 2.16464E+01
 -1       175 1.93473E+01
 -1       176 1.93473E+01
 -1       177 3.57624E+00
 -1       178 3.57624E+00
 -1       179 7.69637E-01
 -1       180 7.69637E-01
 -1       181 7.69637E-01
 -1       182 7.69637E-01
 -1       183 4.71669E-01
 -1       184 4.71669E-01
 -1       185 3.94019E-01
 -1       186 3.94019E-01
 -1       187 4.11666E-01
 -1       188 4.11666E-01
 -1       189 4.11666E-01
 -1       190 4.11666E-01
 -1       191 4.11060E-01
 -1       192 4.11060E-01
 -1       193 4.07765E-01
 -1       194 4.07765E-01
 -1       195 4.04817E-01
 -1       196 4.04817E-01
 -1       197 4.01694E-01
 -1       198 4.01694E-01
 -1       199 3.96822E-01
 -1       200 3.96822E-01
 -1       201 3.94508E-01
 -1       202 3.94508E-01
 -1       203 5.06396E-01
 -1       204 5.06396E-01
 -1       205 9.54138E-01
 -1       206 9.54138E-01
 -1       207 1.56737E+00
 -1       208 1.56737E+00
 -1       209 1.99672E+00
 -1       210 1.99672E+00
 -1       211 1.47559E+01
 -1       212 1.47559E+01
 -1       213 2.20993E+01
 -1       214 2.20993E+01
 -1       215 3.57865E+00
 -1       216 3.57865E+00
 -1       217 1.38398E+00
 -1       218 1.38398E+00
 -1       219 1.34777E+00
 -1       220 1.34777E+00
 -1       221 1.03623E+00
 -1       222 1.03623E+00
 -1       223 1.08862E+00
 -1       224 1.08862E+00
 -1       225 1.08986E+00
 -1       226 1.08986E+00
 -1       227 1.08986E+00
 -1       228 1.08986E+00
 -1       229 1.08502E+00
 -1       230 1.08502E+00
 -1       231 1.07914E+00
 -1       232 1.07914E+00
 -1       233 1.07420E+00
 -1       234 1.07420E+00
 -1       235 1.06868E+00
 -1       236 1.06868E+00
 -1       237 1.06050E+00
 -1       238 1.06050E+00
 -1       239 1.05135E+00
 -1       240 1.05135E+00
 -1       241 1.10470E+00
 -1       242 1.10470E+00
 -1       243 1.38794E+00
 -1       244 1.38794E+00
 -1       245 2.57820E+00
 -1       246 2.57820E+00
 -1       247 2.57820E+00
 -1       248 2.57820E+00
 -1       249 2.98092E+01
 -1       250 2.98092E+01
 -1       251 2.80234E+01
 -1       252 2.80234E+01
 -1       253 3.94817E+00
 -1       254 3.94817E+00
 -1       255 3.94817E+00
 -1       256 3.94817E+00
 -1       257 3.01069E+00
 -1       258 3.01069E+00
 -1       259 2.71259E+00
 -1       260 2.71259E+00
 -1       261 2.71259E+00
 -1       262 2.71259E+00
 -1       263 2.69717E+00
 -1       264 2.69717E+00
 -1       265 2.68363E+00
 -1       266 2.68363E+00
 -1       267 2.67081E+00
 -1       268 2.67081E+00
 -1       269 2.66099E+00
 -1       270 2.66099E+00
 -1       271 2.65207E+00
 -1       272 2.65207E+00
 -1       273 2.64207E+00
 -1       274 2.64207E+00
 -1       275 2.62943E+00
 -1       276 2.62943E+00
 -1       277 2.61328E+00
 -1       278 2.61328E+00
 -1       279 2.65122E+00
 -1       280 2.65122E+00
 -1       281 2.84385E+00
 -1       282 2.84385E+00
 -1       283 3.61619E+00
 -1       284 3.61619E+00
 -1       285 7.81773E+00
 -1       286 7.81773E+00
 -1       287 4.11510E+01
 -1       288 4.11510E+01
 -1       289 3.78670E+01
 -1       290 3.78670E+01
 -1       291 3.78670E+01
 -1       292 3.78670E+01
 -1       293 3.19702E+01
 -1       294 3.19702E+01
 -1       295 1.07037E+01
 -1       296 1.07037E+01
 -1       297 1.07037E+01
 -1       298 1.07037E+01
 -1       299 1.03239E+01
 -1       300 1.03239E+01
 -1       301 1.01543E+01
 -1       302 1.01543E+01
 -1       303 1.00554E+01
 -1       304 1.00554E+01
 -1       305 9.99697E+00
 -1       306 9.99697E+00
 -1       307 9.94709E+00
 -1       308 9.94709E+00
 -1       309 9.89804E+00
 -1       310 9.89804E+00
 -1       311 9.84662E+00
 -1       312 9.84662E+00
 -1       313 9.78875E+00
 -1       314 9.78875E+00
 -1       315 9.72317E+00
 -1       316 9.72317E+00
 -1       317 9.63648E+00
 -1       318 9.63648E+00
 -1       319 9.61994E+00
 -1       320 9.61994E+00
 -1       321 1.10758E+01
 -1       322 1.10758E+01
 -1       323 1.70002E+01
 -1       324 1.70002E+01
 -1       325 5.72063E+01
 -1       326 5.72063E+01
 -1       327 3.78670E+01
 -1       328 3.78670E+01
 -1       329 3.78670E+01
 -1       330 3.78670E+01
 -1       331 3.19702E+01
 -1       332 3.19702E+01
 -1       333 1.07037E+01
 -1       334 1.07037E+01
 -1       335 1.07037E+01
 -1       336 1.07037E+01
 -1       337 1.03239E+01
 -1       338 1.03239E+01
 -1       339 1.01543E+01
 -1       340 1.01543E+01
 -1       341 1.00554E+01
 -1       342 1.00554E+01
 -1       343 9.99697E+00
 -1       344 9.99697E+00
 -1       345 9.94709E+00
 -1       346 9.94709E+00
 -1       347 9.89804E+00
 -1       348 9.89804E+00
 -1       349 9.84662E+00
 -1       350 9.84662E+00
 -1       351 9.78875E+00
 -1       352 9.78875E+00
 -1       353 9.72317E+00
 -1       354 9.72317E+00
 -1       355 9.63648E+00
 -1       356 9.63648E+00
 -1       357 9.61994E+00
 -1       358 9.61994E+00
 -1       359 1.10758E+01
 -1       360 1.10758E+01
 -1       361 1.70002E+01
 -1       362 1.70002E+01
 -1       363 5.72063E+01
 -1       364 5.72063E+01
 -1       365 1.62418E+01
 -1       366 3.78670E+01
 -1       367 3.17541E+00
 -1       368 3.78670E+01
 -1       369 8.73985E-01
 -1       370 3.19702E+01
 -1       371 3.39856E-01
 -1       372 1.07037E+01
 -1       373 3.09710E-01
 -1       374 1.07037E+01
 -1       375 1.91681E-01
 -1       376 1.03239E+01
 -1       377 1.34391E-01
 -1       378 1.01543E+01
 -1       379 1.38612E-01
 -1       380 1.00554E+01
 -1       381 1.38836E-01
 -1       382 9.99697E+00
 -1       383 1.38836E-01
 -1       384 9.94709E+00
 -1       385 1.39597E-01
 -1       386 9.89804E+00
 -1       387 1.39597E-01
 -1       388 9.84662E+00
 -1       389 1.39238E-01
 -1       390 9.78875E+00
 -1       391 1.42269E-01
 -1       392 9.72317E+00
 -1       393 2.09323E-01
 -1       394 9.63648E+00
 -1       395 4.75413E-01
 -1       396 9.61994E+00
 -1       397 5.30798E-01
 -1       398 1.10758E+01
 -1       399 3.47538E+00
 -1       400 1.70002E+01
 -1       401 2.16464E+01
 -1       402 5.72063E+01
 -1       403 1.45465E+01
 -1       404 2.89650E+01
 -1       405 2.74908E+00
 -1       406 8.38510E+00
 -1       407 7.17227E-01
 -1       408 2.42022E+00
 -1       409 3.09710E-01
 -1       410 2.38344E+00
 -1       411 3.09710E-01
 -1       412 2.38344E+00
 -1       413 1.91681E-01
 -1       414 2.32724E+00
 -1       415 1.34391E-01
 -1       416 2.29303E+00
 -1       417 1.38612E-01
 -1       418 2.27579E+00
 -1       419 1.38836E-01
 -1       420 2.26644E+00
 -1       421 1.38836E-01
 -1       422 2.26006E+00
 -1       423 1.39597E-01
 -1       424 2.25390E+00
 -1       425 1.39597E-01
 -1       426 2.24644E+00
 -1       427 1.39238E-01
 -1       428 2.23563E+00
 -1       429 1.42269E-01
 -1       430 2.22220E+00
 -1       431 2.09323E-01
 -1       432 2.27118E+00
 -1       433 4.75413E-01
 -1       434 2.37002E+00
 -1       435 5.30798E-01
 -1       436 2.78913E+00
 -1       437 2.38388E+00
 -1       438 1.00016E+01
 -1       439 1.38330E+01
 -1       440 2.93377E+01
 -1       441 1.38683E+01
 -1       442 2.74365E+01
 -1       443 2.70046E+00
 -1       444 8.38510E+00
 -1       445 5.67809E-01
 -1       446 1.37725E+00
 -1       447 3.01708E-01
 -1       448 1.51063E+00
 -1       449 2.73280E-01
 -1       450 1.51063E+00
 -1       451 1.77547E-01
 -1       452 1.44602E+00
 -1       453 1.18621E-01
 -1       454 1.41468E+00
 -1       455 1.23195E-01
 -1       456 1.39565E+00
 -1       457 1.23583E-01
 -1       458 1.38758E+00
 -1       459 1.23658E-01
 -1       460 1.38310E+00
 -1       461 1.24476E-01
 -1       462 1.37917E+00
 -1       463 1.24476E-01
 -1       464 1.37368E+00
 -1       465 1.24134E-01
 -1       466 1.36448E+00
 -1       467 1.29570E-01
 -1       468 1.34884E+00
 -1       469 1.94906E-01
 -1       470 1.37485E+00
 -1       471 3.43623E-01
 -1       472 1.64212E+00
 -1       473 3.83358E-01
 -1       474 2.23177E+00
 -1       475 1.85449E+00
 -1       476 7.40381E+00
 -1       477 1.32966E+01
 -1       478 2.70540E+01
 -1       479 1.45465E+01
 -1       480 2.89650E+01
 -1       481 2.74908E+00
 -1       482 8.38510E+00
 -1       483 7.17227E-01
 -1       484 2.42022E+00
 -1       485 3.09710E-01
 -1       486 2.38344E+00
 -1       487 3.09710E-01
 -1       488 2.38344E+00
 -1       489 1.91681E-01
 -1       490 2.32724E+00
 -1       491 1.34391E-01
 -1       492 2.29303E+00
 -1       493 1.38612E-01
 -1       494 2.27579E+00
 -1       495 1.38836E-01
 -1       496 2.26644E+00
 -1       497 1.38836E-01
 -1       498 2.26006E+00
 -1       499 1.39597E-01
 -1       500 2.25390E+00
 -1       501 1.39597E-01
 -1       502 2.24644E+00
 -1       503 1.39238E-01
 -1       504 2.23563E+00
 -1       505 1.42269E-01
 -1       506 2.22220E+00
 -1       507 2.09323E-01
 -1       508 2.27118E+00
 -1       509 4.75413E-01
 -1       510 2.37002E+00
 -1       511 5.30798E-01
 -1       512 2.78913E+00
 -1       513 2.38388E+00
 -1       514 1.00016E+01
 -1       515 1.38330E+01
 -1       516 2.93377E+01
 -1       517 1.62418E+01
 -1       518 3.78670E+01
 -1       519 3.17541E+00
 -1       520 3.78670E+01
 -1       521 8.73985E-01
 -1       522 3.19702E+01
 -1       523 3.39856E-01
 -1       524 1.07037E+01
 -1       525 3.09710E-01
 -1       526 1.07037E+01
 -1       527 1.91681E-01
 -1       528 1.03239E+01
 -1       529 1.34391E-01
 -1       530 1.01543E+01
 -1       531 1.38612E-01
 -1       532 1.00554E+01
 -1       533 1.38836E-01
 -1       534 9.99697E+00
 -1       535 1.38836E-01
 -1       536 9.94709E+00
 -1       537 1.39597E-01
 -1       538 9.89804E+00
 -1       539 1.39597E-01
 -1       540 9.84662E+00
 -1       541 1.39238E-01
 -1       542 9.78875E+00
 -1       543 1.42269E-01
 -1       544 9.72317E+00
 -1       545 2.09323E-01
 -1       546 9.63648E+00
 -1       547 4.75413E-01
 -1       548 9.61994E+00
 -1       549 5.30798E-01
 -1       550 1.10758E+01
 -1       551 3.47538E+00
 -1       552 1.70002E+01
 -1       553 2.16464E+01
 -1       554 5.72063E+01
 -1       555 1.75246E+01
 -1       556 3.41168E+00
 -1       557 8.73985E-01
 -1       558 5.54132E-01
 -1       559 5.12631E-01
 -1       560 3.54201E-01
 -1       561 2.88349E-01
 -1       562 2.91277E-01
 -1       563 2.91798E-01
 -1       564 2.92071E-01
 -1       565 2.93234E-01
 -1       566 2.93741E-01
 -1       567 2.93741E-01
 -1       568 2.83909E-01
 -1       569 2.82694E-01
 -1       570 6.81561E-01
 -1       571 1.02774E+00
 -1       572 3.47538E+00
 -1       573 2.16464E+01
 -1       574 1.57597E+01
 -1       575 2.91112E+00
 -1       576 8.17485E-01
 -1       577 5.97629E-01
 -1       578 5.12631E-01
 -1       579 3.54201E-01
 -1       580 2.88349E-01
 -1       581 2.91277E-01
 -1       582 2.91798E-01
 -1       583 2.92071E-01
 -1       584 2.93234E-01
 -1       585 2.93741E-01
 -1       586 2.93741E-01
 -1       587 2.83909E-01
 -1       588 2.82694E-01
 -1       589 6.81561E-01
 -1       590 8.32820E-01
 -1       591 2.38388E+00
 -1       592 1.90386E+01
 -1       593 1.51198E+01
 -1       594 2.75032E+00
 -1       595 6.64655E-01
 -1       596 5.97629E-01
 -1       597 4.63572E-01
 -1       598 3.29155E-01
 -1       599 2.62604E-01
 -1       600 2.65904E-01
 -1       601 2.66636E-01
 -1       602 2.66988E-01
 -1       603 2.68213E-01
 -1       604 2.68730E-01
 -1       605 2.68730E-01
 -1       606 2.59823E-01
 -1       607 2.59823E-01
 -1       608 4.11986E-01
 -1       609 6.11195E-01
 -1       610 1.85449E+00
 -1       611 1.90386E+01
 -1       612 1.57597E+01
 -1       613 2.91112E+00
 -1       614 8.17485E-01
 -1       615 5.97629E-01
 -1       616 5.12631E-01
 -1       617 3.54201E-01
 -1       618 2.88349E-01
 -1       619 2.91277E-01
 -1       620 2.91798E-01
 -1       621 2.92071E-01
 -1       622 2.93234E-01
 -1       623 2.93741E-01
 -1       624 2.93741E-01
 -1       625 2.83909E-01
 -1       626 2.82694E-01
 -1       627 6.81561E-01
 -1       628 8.32820E-01
 -1       629 2.38388E+00
 -1       630 1.90386E+01
 -1       631 1.75246E+01
 -1       632 3.41168E+00
 -1       633 8.73985E-01
 -1       634 5.54132E-01
 -1       635 5.12631E-01
 -1       636 3.54201E-01
 -1       637 2.88349E-01
 -1       638 2.91277E-01
 -1       639 2.91798E-01
 -1       640 2.92071E-01
 -1       641 2.93234E-01
 -1       642 2.93741E-01
 -1       643 2.93741E-01
 -1       644 2.83909E-01
 -1       645 2.82694E-01
 -1       646 6.81561E-01
 -1       647 1.02774E+00
 -1       648 3.47538E+00
 -1       649 2.16464E+01
 -1       650 1.93473E+01
 -1       651 3.57624E+00
 -1       652 1.07190E+00
 -1       653 9.60227E-01
 -1       654 7.77168E-01
 -1       655 6.19799E-01
 -1       656 5.62497E-01
 -1       657 5.63735E-01
 -1       658 5.64045E-01
 -1       659 5.64045E-01
 -1       660 5.64797E-01
 -1       661 5.65978E-01
 -1       662 5.65978E-01
 -1       663 5.58837E-01
 -1       664 5.32234E-01
 -1       665 9.54138E-01
 -1       666 1.56737E+00
 -1       667 1.99672E+00
 -1       668 2.49577E+01
 -1       669 1.77749E+01
 -1       670 2.93675E+00
 -1       671 1.07190E+00
 -1       672 9.60227E-01
 -1       673 7.77168E-01
 -1       674 6.19799E-01
 -1       675 5.62497E-01
 -1       676 5.63735E-01
 -1       677 5.64045E-01
 -1       678 5.64045E-01
 -1       679 5.64797E-01
 -1       680 5.65978E-01
 -1       681 5.65978E-01
 -1       682 5.58837E-01
 -1       683 5.32234E-01
 -1       684 8.46752E-01
 -1       685 1.34711E+00
 -1       686 1.82391E+00
 -1       687 2.49850E+01
 -1       688 1.69282E+01
 -1       689 2.75032E+00
 -1       690 8.68383E-01
 -1       691 8.68383E-01
 -1       692 5.96280E-01
 -1       693 4.64557E-01
 -1       694 4.08179E-01
 -1       695 4.10603E-01
 -1       696 4.11504E-01
 -1       697 4.11940E-01
 -1       698 4.13089E-01
 -1       699 4.14746E-01
 -1       700 4.14746E-01
 -1       701 4.07807E-01
 -1       702 3.87436E-01
 -1       703 4.13770E-01
 -1       704 9.44507E-01
 -1       705 1.30424E+00
 -1       706 2.49850E+01
 -1       707 1.77749E+01
 -1       708 2.93675E+00
 -1       709 1.07190E+00
 -1       710 9.60227E-01
 -1       711 7.77168E-01
 -1       712 6.19799E-01
 -1       713 5.62497E-01
 -1       714 5.63735E-01
 -1       715 5.64045E-01
 -1       716 5.64045E-01
 -1       717 5.64797E-01
 -1       718 5.65978E-01
 -1       719 5.65978E-01
 -1       720 5.58837E-01
 -1       721 5.32234E-01
 -1       722 8.46752E-01
 -1       723 1.34711E+00
 -1       724 1.82391E+00
 -1       725 2.49850E+01
 -1       726 1.93473E+01
 -1       727 3.57624E+00
 -1       728 1.07190E+00
 -1       729 9.60227E-01
 -1       730 7.77168E-01
 -1       731 6.19799E-01
 -1       732 5.62497E-01
 -1       733 5.63735E-01
 -1       734 5.64045E-01
 -1       735 5.64045E-01
 -1       736 5.64797E-01
 -1       737 5.65978E-01
 -1       738 5.65978E-01
 -1       739 5.58837E-01
 -1       740 5.32234E-01
 -1       741 9.54138E-01
 -1       742 1.56737E+00
 -1       743 1.99672E+00
 -1       744 2.49577E+01
 -1       745 2.20993E+01
 -1       746 3.57865E+00
 -1       747 1.97079E+00
 -1       748 1.40262E+00
 -1       749 1.08221E+00
 -1       750 1.08862E+00
 -1       751 1.08986E+00
 -1       752 1.08986E+00
 -1       753 1.08502E+00
 -1       754 1.07914E+00
 -1       755 1.07420E+00
 -1       756 1.06868E+00
 -1       757 1.06050E+00
 -1       758 1.05135E+00
 -1       759 1.10470E+00
 -1       760 1.38794E+00
 -1       761 2.57820E+00
 -1       762 2.57820E+00
 -1       763 3.22752E+01
 -1       764 2.06191E+01
 -1       765 2.93675E+00
 -1       766 1.97079E+00
 -1       767 1.40262E+00
 -1       768 1.08221E+00
 -1       769 9.58889E-01
 -1       770 9.16731E-01
 -1       771 9.10857E-01
 -1       772 9.10857E-01
 -1       773 9.10729E-01
 -1       774 9.09891E-01
 -1       775 9.10395E-01
 -1       776 9.10395E-01
 -1       777 9.09095E-01
 -1       778 8.75293E-01
 -1       779 9.64830E-01
 -1       780 1.93845E+00
 -1       781 2.12240E+00
 -1       782 3.22752E+01
 -1       783 1.93301E+01
 -1       784 2.60834E+00
 -1       785 1.35217E+00
 -1       786 8.68383E-01
 -1       787 5.96280E-01
 -1       788 4.64557E-01
 -1       789 4.08179E-01
 -1       790 4.10603E-01
 -1       791 4.11504E-01
 -1       792 4.11940E-01
 -1       793 4.13089E-01
 -1       794 4.14746E-01
 -1       795 4.14746E-01
 -1       796 4.07807E-01
 -1       797 3.87436E-01
 -1       798 5.34459E-01
 -1       799 1.39793E+00
 -1       800 2.12240E+00
 -1       801 3.04987E+01
 -1       802 2.06191E+01
 -1       803 2.93675E+00
 -1       804 1.97079E+00
 -1       805 1.40262E+00
 -1       806 1.08221E+00
 -1       807 9.58889E-01
 -1       808 9.16731E-01
 -1       809 9.10857E-01
 -1       810 9.10857E-01
 -1       811 9.10729E-01
 -1       812 9.09891E-01
 -1       813 9.10395E-01
 -1       814 9.10395E-01
 -1       815 9.09095E-01
 -1       816 8.75293E-01
 -1       817 9.64830E-01
 -1       818 1.93845E+00
 -1       819 2.12240E+00
 -1       820 3.22752E+01
 -1       821 2.20993E+01
 -1       822 3.57865E+00
 -1       823 1.97079E+00
 -1       824 1.40262E+00
 -1       825 1.08221E+00
 -1       826 1.08862E+00
 -1       827 1.08986E+00
 -1       828 1.08986E+00
 -1       829 1.08502E+00
 -1       830 1.07914E+00
 -1       831 1.07420E+00
 -1       832 1.06868E+00
 -1       833 1.06050E+00
 -1       834 1.05135E+00
 -1       835 1.10470E+00
 -1       836 1.38794E+00
 -1       837 2.57820E+00
 -1       838 2.57820E+00
 -1       839 3.22752E+01
 -1       840 2.80234E+01
 -1       841 3.94817E+00
 -1       842 3.94817E+00
 -1       843 3.01069E+00
 -1       844 2.71259E+00
 -1       845 2.71259E+00
 -1       846 2.69717E+00
 -1       847 2.68363E+00
 -1       848 2.67081E+00
 -1       849 2.66099E+00
 -1       850 2.65207E+00
 -1       851 2.64207E+00
 -1       852 2.62943E+00
 -1       853 2.61328E+00
 -1       854 2.65122E+00
 -1       855 2.84385E+00
 -1       856 3.61619E+00
 -1       857 7.81773E+00
 -1       858 4.11510E+01
 -1       859 2.40607E+01
 -1       860 2.63302E+00
 -1       861 2.63302E+00
 -1       862 1.40262E+00
 -1       863 1.08221E+00
 -1       864 9.58889E-01
 -1       865 9.16731E-01
 -1       866 9.10857E-01
 -1       867 9.10857E-01
 -1       868 9.10729E-01
 -1       869 9.09891E-01
 -1       870 9.10395E-01
 -1       871 9.10395E-01
 -1       872 9.09095E-01
 -1       873 8.75293E-01
 -1       874 1.02543E+00
 -1       875 1.93845E+00
 -1       876 5.07444E+00
 -1       877 3.83365E+01
 -1       878 2.28482E+01
 -1       879 2.04389E+00
 -1       880 1.35217E+00
 -1       881 8.41394E-01
 -1       882 6.63914E-01
 -1       883 6.68667E-01
 -1       884 6.68667E-01
 -1       885 6.65566E-01
 -1       886 6.60279E-01
 -1       887 6.56724E-01
 -1       888 6.53679E-01
 -1       889 6.49446E-01
 -1       890 6.42229E-01
 -1       891 6.34868E-01
 -1       892 7.19698E-01
 -1       893 9.38187E-01
 -1       894 1.50772E+00
 -1       895 5.07444E+00
 -1       896 3.69935E+01
 -1       897 2.40607E+01
 -1       898 2.63302E+00
 -1       899 2.63302E+00
 -1       900 1.40262E+00
 -1       901 1.08221E+00
 -1       902 9.58889E-01
 -1       903 9.16731E-01
 -1       904 9.10857E-01
 -1       905 9.10857E-01
 -1       906 9.10729E-01
 -1       907 9.09891E-01
 -1       908 9.10395E-01
 -1       909 9.10395E-01
 -1       910 9.09095E-01
 -1       911 8.75293E-01
 -1       912 1.02543E+00
 -1       913 1.93845E+00
 -1       914 5.07444E+00
 -1       915 3.83365E+01
 -1       916 2.80234E+01
 -1       917 3.94817E+00
 -1       918 3.94817E+00
 -1       919 3.01069E+00
 -1       920 2.71259E+00
 -1       921 2.71259E+00
 -1       922 2.69717E+00
 -1       923 2.68363E+00
 -1       924 2.67081E+00
 -1       925 2.66099E+00
 -1       926 2.65207E+00
 -1       927 2.64207E+00
 -1       928 2.62943E+00
 -1       929 2.61328E+00
 -1       930 2.65122E+00
 -1       931 2.84385E+00
 -1       932 3.61619E+00
 -1       933 7.81773E+00
 -1       934 4.11510E+01
 -1       935 3.78670E+01
 -1       936 3.78670E+01
 -1       937 3.19702E+01
 -1       938 1.07037E+01
 -1       939 1.07037E+01
 -1       940 1.03239E+01
 -1       941 1.01543E+01
 -1       942 1.00554E+01
 -1       943 9.99697E+00
 -1       944 9.94709E+00
 -1       945 9.89804E+00
 -1       946 9.84662E+00
 -1       947 9.78875E+00
 -1       948 9.72317E+00
 -1       949 9.63648E+00
 -1       950 9.61994E+00
 -1       951 1.10758E+01
 -1       952 1.70002E+01
 -1       953 5.72063E+01
 -1       954 2.89650E+01
 -1       955 8.38510E+00
 -1       956 2.63302E+00
 -1       957 2.38344E+00
 -1       958 2.38344E+00
 -1       959 2.32724E+00
 -1       960 2.29303E+00
 -1       961 2.27579E+00
 -1       962 2.26644E+00
 -1       963 2.26006E+00
 -1       964 2.25390E+00
 -1       965 2.24644E+00
 -1       966 2.23563E+00
 -1       967 2.22220E+00
 -1       968 2.27118E+00
 -1       969 2.37002E+00
 -1       970 2.78913E+00
 -1       971 1.00016E+01
 -1       972 3.83365E+01
 -1       973 2.74365E+01
 -1       974 8.38510E+00
 -1       975 1.37725E+00
 -1       976 1.51063E+00
 -1       977 1.51063E+00
 -1       978 1.44602E+00
 -1       979 1.41468E+00
 -1       980 1.39565E+00
 -1       981 1.38758E+00
 -1       982 1.38310E+00
 -1       983 1.37917E+00
 -1       984 1.37368E+00
 -1       985 1.36448E+00
 -1       986 1.34884E+00
 -1       987 1.37485E+00
 -1       988 1.64212E+00
 -1       989 2.23177E+00
 -1       990 7.40381E+00
 -1       991 3.69935E+01
 -1       992 2.89650E+01
 -1       993 8.38510E+00
 -1       994 2.63302E+00
 -1       995 2.38344E+00
 -1       996 2.38344E+00
 -1       997 2.32724E+00
 -1       998 2.29303E+00
 -1       999 2.27579E+00
 -1      1000 2.26644E+00
 -1      1001 2.26006E+00
 -1      1002 2.25390E+00
 -1      1003 2.24644E+00
 -1      1004 2.23563E+00
 -1      1005 2.22220E+00
 -1      1006 2.27118E+00
 -1      1007 2.37002E+00
 -1      1008 2.78913E+00
 -1      1009 1.00016E+01
 -1      1010 3.83365E+01
 -1      1011 3.78670E+01
 -1      1012 3.78670E+01
 -1      1013 3.19702E+01
 -1      1014 1.07037E+01
 -1      1015 1.07037E+01
 -1      1016 1.03239E+01
 -1      1017 1.01543E+01
 -1      1018 1.00554E+01
 -1      1019 9.99697E+00
 -1      1020 9.94709E+00
 -1      1021 9.89804E+00
 -1      1022 9.84662E+00
 -1      1023 9.78875E+00
 -1      1024 9.72317E+00
 -1      1025 9.63648E+00
 -1      1026 9.61994E+00
 -1      1027 1.10758E+01
 -1      1028 1.70002E+01
 -1      1029 5.72063E+01
 -1      1030 1.91740E+01
 -1      1031 1.98919E+01
 -1      1032 1.91740E+01
 -1      1033 2.29591E+01
 -1      1034 5.59130E+00
 -1      1035 2.49271E+01
 -1      1036 5.59130E+00
 -1      1037 2.59630E+01
 -1      1038 4.81226E+00
 -1      1039 2.63659E+01
 -1      1040 4.06838E+00
 -1      1041 2.63659E+01
 -1      1042 3.30111E+00
 -1      1043 2.62082E+01
 -1      1044 4.06838E+00
 -1      1045 2.63659E+01
 -1      1046 4.81226E+00
 -1      1047 2.63659E+01
 -1      1048 5.59130E+00
 -1      1049 2.59630E+01
 -1      1050 5.59130E+00
 -1      1051 2.49271E+01
 -1      1052 1.91740E+01
 -1      1053 2.29591E+01
 -1      1054 1.91740E+01
 -1      1055 1.98919E+01
 -1      1056 2.98610E+01
 -1      1057 2.29800E+01
 -1      1058 2.98610E+01
 -1      1059 2.56429E+01
 -1      1060 2.03586E+01
 -1      1061 2.83206E+01
 -1      1062 2.08687E+01
 -1      1063 3.14542E+01
 -1      1064 2.08687E+01
 -1      1065 3.36756E+01
 -1      1066 2.02240E+01
 -1      1067 3.45306E+01
 -1      1068 1.86792E+01
 -1      1069 3.45306E+01
 -1      1070 2.02240E+01
 -1      1071 3.45306E+01
 -1      1072 2.08687E+01
 -1      1073 3.36756E+01
 -1      1074 2.08687E+01
 -1      1075 3.14542E+01
 -1      1076 2.03586E+01
 -1      1077 2.83206E+01
 -1      1078 2.98610E+01
 -1      1079 2.56429E+01
 -1      1080 2.98610E+01
 -1      1081 2.29800E+01
 -1      1082 6.42765E+01
 -1      1083 3.10210E+01
 -1      1084 6.42765E+01
 -1      1085 3.41540E+01
 -1      1086 4.48815E+01
 -1      1087 4.32876E+01
 -1      1088 4.00607E+01
 -1      1089 5.18120E+01
 -1      1090 3.92565E+01
 -1      1091 5.76379E+01
 -1      1092 3.74327E+01
 -1      1093 6.00871E+01
 -1      1094 3.52500E+01
 -1      1095 6.00871E+01
 -1      1096 3.74327E+01
 -1      1097 6.00871E+01
 -1      1098 3.92565E+01
 -1      1099 5.76379E+01
 -1      1100 4.00607E+01
 -1      1101 5.18120E+01
 -1      1102 4.48815E+01
 -1      1103 4.32876E+01
 -1      1104 6.42765E+01
 -1      1105 3.41540E+01
 -1      1106 6.42765E+01
 -1      1107 3.10210E+01
 -1      1108 7.79619E+01
 -1      1109 4.82712E+01
 -1      1110 7.79619E+01
 -1      1111 5.16090E+01
 -1      1112 6.15034E+01
 -1      1113 6.03602E+01
 -1      1114 5.59558E+01
 -1      1115 7.46135E+01
 -1      1116 5.23710E+01
 -1      1117 8.11628E+01
 -1      1118 4.93019E+01
 -1      1119 8.48136E+01
 -1      1120 4.73771E+01
 -1      1121 8.48136E+01
 -1      1122 4.93019E+01
 -1      1123 8.48136E+01
 -1      1124 5.23710E+01
 -1      1125 8.11628E+01
 -1      1126 5.59558E+01
 -1      1127 7.46135E+01
 -1      1128 6.15034E+01
 -1      1129 6.03602E+01
 -1      1130 7.79619E+01
 -1      1131 5.16090E+01
 -1      1132 7.79619E+01
 -1      1133 4.82712E+01
 -1      1134 7.79619E+01
 -1      1135 7.22608E+01
 -1      1136 7.79619E+01
 -1      1137 7.22608E+01
 -1      1138 6.73229E+01
 -1      1139 6.08431E+01
 -1      1140 6.73229E+01
 -1      1141 7.46135E+01
 -1      1142 6.16759E+01
 -1      1143 8.11628E+01
 -1      1144 5.64601E+01
 -1      1145 8.48136E+01
 -1      1146 5.56787E+01
 -1      1147 8.48136E+01
 -1      1148 5.64601E+01
 -1      1149 8.48136E+01
 -1      1150 6.16759E+01
 -1      1151 8.11628E+01
 -1      1152 6.73229E+01
 -1      1153 7.46135E+01
 -1      1154 6.73229E+01
 -1      1155 6.08431E+01
 -1      1156 7.79619E+01
 -1      1157 7.22608E+01
 -1      1158 7.79619E+01
 -1      1159 7.22608E+01
 -1      1160 6.85185E+01
 -1      1161 7.22608E+01
 -1      1162 6.85185E+01
 -1      1163 7.22608E+01
 -1      1164 7.21979E+01
 -1      1165 6.08431E+01
 -1      1166 7.21979E+01
 -1      1167 7.36375E+01
 -1      1168 6.46300E+01
 -1      1169 8.08242E+01
 -1      1170 5.90946E+01
 -1      1171 8.08784E+01
 -1      1172 5.78851E+01
 -1      1173 8.08784E+01
 -1      1174 5.90946E+01
 -1      1175 8.08784E+01
 -1      1176 6.46300E+01
 -1      1177 8.08242E+01
 -1      1178 7.21979E+01
 -1      1179 7.36375E+01
 -1      1180 7.21979E+01
 -1      1181 6.08431E+01
 -1      1182 6.85185E+01
 -1      1183 7.22608E+01
 -1      1184 6.85185E+01
 -1      1185 7.22608E+01
 -1      1186 4.53581E+01
 -1      1187 6.84762E+01
 -1      1188 6.67260E+01
 -1      1189 6.84762E+01
 -1      1190 7.21979E+01
 -1      1191 5.84067E+01
 -1      1192 7.21979E+01
 -1      1193 7.36375E+01
 -1      1194 6.46300E+01
 -1      1195 8.08242E+01
 -1      1196 5.90946E+01
 -1      1197 8.08784E+01
 -1      1198 5.78851E+01
 -1      1199 8.08784E+01
 -1      1200 5.90946E+01
 -1      1201 8.08784E+01
 -1      1202 6.46300E+01
 -1      1203 8.08242E+01
 -1      1204 7.21979E+01
 -1      1205 7.36375E+01
 -1      1206 7.21979E+01
 -1      1207 5.84067E+01
 -1      1208 6.67260E+01
 -1      1209 6.84762E+01
 -1      1210 4.53581E+01
 -1      1211 6.84762E+01
 -1      1212 3.10134E+01
 -1      1213 3.10134E+01
 -1      1214 3.10134E+01
 -1      1215 3.10134E+01
 -1      1216 2.65078E+01
 -1      1217 2.65078E+01
 -1      1218 2.33444E+01
 -1      1219 2.33444E+01
 -1      1220 2.17418E+01
 -1      1221 2.17418E+01
 -1      1222 2.17418E+01
 -1      1223 2.17418E+01
 -1      1224 2.16739E+01
 -1      1225 2.16739E+01
 -1      1226 2.15621E+01
 -1      1227 2.15621E+01
 -1      1228 2.15686E+01
 -1      1229 2.15686E+01
 -1      1230 2.15686E+01
 -1      1231 2.15686E+01
 -1      1232 2.15610E+01
 -1      1233 2.15610E+01
 -1      1234 2.15704E+01
 -1      1235 2.15704E+01
 -1      1236 2.16870E+01
 -1      1237 2.16870E+01
 -1      1238 2.18914E+01
 -1      1239 2.18914E+01
 -1      1240 2.19360E+01
 -1      1241 2.19360E+01
 -1      1242 2.19360E+01
 -1      1243 2.19360E+01
 -1      1244 2.34305E+01
 -1      1245 2.34305E+01
 -1      1246 2.34305E+01
 -1      1247 2.34305E+01
 -1      1248 2.79116E+01
 -1      1249 2.79116E+01
 -1      1250 3.56995E+01
 -1      1251 3.56995E+01
 -1      1252 3.88759E+01
 -1      1253 3.88759E+01
 -1      1254 4.27885E+01
 -1      1255 4.27886E+01
 -1      1256 4.27885E+01
 -1      1257 4.27886E+01
 -1      1258 3.10134E+01
 -1      1259 3.10134E+01
 -1      1260 3.10134E+01
 -1      1261 3.10134E+01
 -1      1262 2.98264E+01
 -1      1263 2.98264E+01
 -1      1264 2.70141E+01
 -1      1265 2.70141E+01
 -1      1266 2.72970E+01
 -1      1267 2.72970E+01
 -1      1268 2.72970E+01
 -1      1269 2.72970E+01
 -1      1270 2.69629E+01
 -1      1271 2.69629E+01
 -1      1272 2.66874E+01
 -1      1273 2.66874E+01
 -1      1274 2.66223E+01
 -1      1275 2.66223E+01
 -1      1276 2.65782E+01
 -1      1277 2.65782E+01
 -1      1278 2.65436E+01
 -1      1279 2.65436E+01
 -1      1280 2.65236E+01
 -1      1281 2.65236E+01
 -1      1282 2.65847E+01
 -1      1283 2.65847E+01
 -1      1284 2.70261E+01
 -1      1285 2.70261E+01
 -1      1286 2.74895E+01
 -1      1287 2.74895E+01
 -1      1288 2.74895E+01
 -1      1289 2.74895E+01
 -1      1290 2.97270E+01
 -1      1291 2.97270E+01
 -1      1292 2.97270E+01
 -1      1293 2.97270E+01
 -1      1294 3.08998E+01
 -1      1295 3.08998E+01
 -1      1296 3.77715E+01
 -1      1297 3.77715E+01
 -1      1298 3.88759E+01
 -1      1299 3.88759E+01
 -1      1300 4.27885E+01
 -1      1301 4.27886E+01
 -1      1302 4.27885E+01
 -1      1303 4.27886E+01
 -1      1304 6.42765E+01
 -1      1305 6.42765E+01
 -1      1306 6.26269E+01
 -1      1307 6.26269E+01
 -1      1308 6.61496E+01
 -1      1309 6.61496E+01
 -1      1310 6.82399E+01
 -1      1311 6.82399E+01
 -1      1312 6.86145E+01
 -1      1313 6.86145E+01
 -1      1314 6.86145E+01
 -1      1315 6.86145E+01
 -1      1316 6.84240E+01
 -1      1317 6.84240E+01
 -1      1318 6.81720E+01
 -1      1319 6.81720E+01
 -1      1320 6.80248E+01
 -1      1321 6.80248E+01
 -1      1322 6.79033E+01
 -1      1323 6.79033E+01
 -1      1324 6.78227E+01
 -1      1325 6.78227E+01
 -1      1326 6.77735E+01
 -1      1327 6.77735E+01
 -1      1328 6.77171E+01
 -1      1329 6.77171E+01
 -1      1330 6.79283E+01
 -1      1331 6.79283E+01
 -1      1332 6.84117E+01
 -1      1333 6.84117E+01
 -1      1334 6.84117E+01
 -1      1335 6.84117E+01
 -1      1336 6.96590E+01
 -1      1337 6.96590E+01
 -1      1338 6.96590E+01
 -1      1339 6.96590E+01
 -1      1340 6.83812E+01
 -1      1341 6.83812E+01
 -1      1342 6.48069E+01
 -1      1343 6.48069E+01
 -1      1344 5.60602E+01
 -1      1345 5.60602E+01
 -1      1346 2.83830E+01
 -1      1347 2.83830E+01
 -1      1348 3.10210E+01
 -1      1349 3.10210E+01
 -1      1350 7.87592E+01
 -1      1351 7.87592E+01
 -1      1352 9.25071E+01
 -1      1353 9.25071E+01
 -1      1354 9.83076E+01
 -1      1355 9.83076E+01
 -1      1356 9.83076E+01
 -1      1357 9.83076E+01
 -1      1358 9.82690E+01
 -1      1359 9.82690E+01
 -1      1360 9.79500E+01
 -1      1361 9.79500E+01
 -1      1362 9.77688E+01
 -1      1363 9.77688E+01
 -1      1364 9.76945E+01
 -1      1365 9.76945E+01
 -1      1366 9.76484E+01
 -1      1367 9.76484E+01
 -1      1368 9.76047E+01
 -1      1369 9.76047E+01
 -1      1370 9.75604E+01
 -1      1371 9.75604E+01
 -1      1372 9.75501E+01
 -1      1373 9.75501E+01
 -1      1374 9.75501E+01
 -1      1375 9.75501E+01
 -1      1376 9.75206E+01
 -1      1377 9.75206E+01
 -1      1378 9.73317E+01
 -1      1379 9.73317E+01
 -1      1380 9.74949E+01
 -1      1381 9.74949E+01
 -1      1382 9.74949E+01
 -1      1383 9.74949E+01
 -1      1384 9.85427E+01
 -1      1385 9.85427E+01
 -1      1386 9.85427E+01
 -1      1387 9.85427E+01
 -1      1388 9.35957E+01
 -1      1389 9.35956E+01
 -1      1390 6.80281E+01
 -1      1391 6.80281E+01
 -1      1392 3.16919E+01
 -1      1393 3.16919E+01
 -1      1394 4.82712E+01
 -1      1395 4.82712E+01
 -1      1396 7.87592E+01
 -1      1397 7.87592E+01
 -1      1398 9.25071E+01
 -1      1399 9.25071E+01
 -1      1400 9.83076E+01
 -1      1401 9.83076E+01
 -1      1402 9.83076E+01
 -1      1403 9.83076E+01
 -1      1404 9.82690E+01
 -1      1405 9.82690E+01
 -1      1406 9.79500E+01
 -1      1407 9.79500E+01
 -1      1408 9.77688E+01
 -1      1409 9.77688E+01
 -1      1410 9.76945E+01
 -1      1411 9.76945E+01
 -1      1412 9.76484E+01
 -1      1413 9.76484E+01
 -1      1414 9.76047E+01
 -1      1415 9.76047E+01
 -1      1416 9.75604E+01
 -1      1417 9.75604E+01
 -1      1418 9.75501E+01
 -1      1419 9.75501E+01
 -1      1420 9.75501E+01
 -1      1421 9.75501E+01
 -1      1422 9.75206E+01
 -1      1423 9.75206E+01
 -1      1424 9.73317E+01
 -1      1425 9.73317E+01
 -1      1426 9.74949E+01
 -1      1427 9.74949E+01
 -1      1428 9.74949E+01
 -1      1429 9.74949E+01
 -1      1430 9.85427E+01
 -1      1431 9.85427E+01
 -1      1432 9.85427E+01
 -1      1433 9.85427E+01
 -1      1434 9.35957E+01
 -1      1435 9.35956E+01
 -1      1436 7.05023E+01
 -1      1437 7.05023E+01
 -1      1438 5.13734E+01
 -1      1439 5.13734E+01
 -1      1440 7.22608E+01
 -1      1441 7.22608E+01
 -1      1442 6.85185E+01
 -1      1443 6.85185E+01
 -1      1444 5.52820E+01
 -1      1445 5.52820E+01
 -1      1446 6.25901E+01
 -1      1447 6.25901E+01
 -1      1448 7.01010E+01
 -1      1449 7.01010E+01
 -1      1450 7.59829E+01
 -1      1451 7.59829E+01
 -1      1452 8.02827E+01
 -1      1453 8.02827E+01
 -1      1454 8.24874E+01
 -1      1455 8.24874E+01
 -1      1456 8.24874E+01
 -1      1457 8.24874E+01
 -1      1458 8.23320E+01
 -1      1459 8.23320E+01
 -1      1460 8.21546E+01
 -1      1461 8.21546E+01
 -1      1462 8.20401E+01
 -1      1463 8.20401E+01
 -1      1464 8.21143E+01
 -1      1465 8.21143E+01
 -1      1466 8.21143E+01
 -1      1467 8.21143E+01
 -1      1468 8.20609E+01
 -1      1469 8.20609E+01
 -1      1470 8.08800E+01
 -1      1471 8.08800E+01
 -1      1472 7.86317E+01
 -1      1473 7.86317E+01
 -1      1474 8.08020E+01
 -1      1475 8.08020E+01
 -1      1476 8.08020E+01
 -1      1477 8.08020E+01
 -1      1478 7.21909E+01
 -1      1479 7.21909E+01
 -1      1480 7.05023E+01
 -1      1481 7.05023E+01
 -1      1482 7.05023E+01
 -1      1483 7.05023E+01
 -1      1484 7.73026E+01
 -1      1485 7.73026E+01
 -1      1486 7.73026E+01
 -1      1487 7.73026E+01
 -1      1488 5.23034E+01
 -1      1489 5.23034E+01
 -1      1490 5.23034E+01
 -1      1491 5.23034E+01
 -1      1492 4.43307E+01
 -1      1493 4.43307E+01
 -1      1494 4.39729E+01
 -1      1495 4.39729E+01
 -1      1496 4.52007E+01
 -1      1497 4.52007E+01
 -1      1498 4.52007E+01
 -1      1499 4.52007E+01
 -1      1500 4.49653E+01
 -1      1501 4.49653E+01
 -1      1502 4.43761E+01
 -1      1503 4.43761E+01
 -1      1504 4.38814E+01
 -1      1505 4.38814E+01
 -1      1506 4.35779E+01
 -1      1507 4.35779E+01
 -1      1508 4.34110E+01
 -1      1509 4.34110E+01
 -1      1510 4.33181E+01
 -1      1511 4.33181E+01
 -1      1512 4.33738E+01
 -1      1513 4.33738E+01
 -1      1514 4.38347E+01
 -1      1515 4.38347E+01
 -1      1516 4.50119E+01
 -1      1517 4.50119E+01
 -1      1518 4.50119E+01
 -1      1519 4.50119E+01
 -1      1520 4.48704E+01
 -1      1521 4.48704E+01
 -1      1522 4.67896E+01
 -1      1523 4.67896E+01
 -1      1524 4.67896E+01
 -1      1525 4.67896E+01
 -1      1526 6.17244E+01
 -1      1527 6.17244E+01
 -1      1528 6.96896E+01
 -1      1529 6.96896E+01
 -1      1530 7.73026E+01
 -1      1531 7.73026E+01
 -1      1532 7.73026E+01
 -1      1533 7.73026E+01
 -1      1534 3.10134E+01
 -1      1535 7.02055E+01
 -1      1536 3.10134E+01
 -1      1537 7.27019E+01
 -1      1538 2.65078E+01
 -1      1539 7.62821E+01
 -1      1540 2.33444E+01
 -1      1541 7.89829E+01
 -1      1542 2.17418E+01
 -1      1543 8.24541E+01
 -1      1544 2.17418E+01
 -1      1545 8.58145E+01
 -1      1546 2.16739E+01
 -1      1547 8.82428E+01
 -1      1548 2.15621E+01
 -1      1549 8.96329E+01
 -1      1550 2.15686E+01
 -1      1551 9.03180E+01
 -1      1552 2.15686E+01
 -1      1553 9.06088E+01
 -1      1554 2.15610E+01
 -1      1555 9.06999E+01
 -1      1556 2.15704E+01
 -1      1557 9.07484E+01
 -1      1558 2.16870E+01
 -1      1559 9.07484E+01
 -1      1560 2.18914E+01
 -1      1561 9.07388E+01
 -1      1562 2.19360E+01
 -1      1563 9.03048E+01
 -1      1564 2.19360E+01
 -1      1565 8.80215E+01
 -1      1566 2.34305E+01
 -1      1567 8.41224E+01
 -1      1568 2.34305E+01
 -1      1569 8.50242E+01
 -1      1570 2.79116E+01
 -1      1571 8.63835E+01
 -1      1572 3.56995E+01
 -1      1573 8.63835E+01
 -1      1574 3.88759E+01
 -1      1575 8.31825E+01
 -1      1576 4.27885E+01
 -1      1577 7.73026E+01
 -1      1578 4.27885E+01
 -1      1579 7.73026E+01
 -1      1580 1.96256E+01
 -1      1581 7.21979E+01
 -1      1582 1.96256E+01
 -1      1583 7.27019E+01
 -1      1584 1.05699E+01
 -1      1585 7.62821E+01
 -1      1586 4.94607E+00
 -1      1587 7.89829E+01
 -1      1588 3.89030E+00
 -1      1589 8.24541E+01
 -1      1590 3.89030E+00
 -1      1591 8.58145E+01
 -1      1592 3.76590E+00
 -1      1593 8.82428E+01
 -1      1594 3.67934E+00
 -1      1595 8.96329E+01
 -1      1596 3.65360E+00
 -1      1597 9.03180E+01
 -1      1598 3.65360E+00
 -1      1599 9.06088E+01
 -1      1600 3.65067E+00
 -1      1601 9.06999E+01
 -1      1602 3.66053E+00
 -1      1603 9.07484E+01
 -1      1604 3.72309E+00
 -1      1605 9.07484E+01
 -1      1606 3.83157E+00
 -1      1607 9.07388E+01
 -1      1608 3.85847E+00
 -1      1609 9.03048E+01
 -1      1610 3.85847E+00
 -1      1611 8.80215E+01
 -1      1612 4.77756E+00
 -1      1613 8.41224E+01
 -1      1614 5.30269E+00
 -1      1615 8.50242E+01
 -1      1616 1.26687E+01
 -1      1617 8.63835E+01
 -1      1618 2.95828E+01
 -1      1619 8.63835E+01
 -1      1620 3.84502E+01
 -1      1621 8.31825E+01
 -1      1622 4.03399E+01
 -1      1623 7.29376E+01
 -1      1624 4.03399E+01
 -1      1625 6.88838E+01
 -1      1626 2.02648E+01
 -1      1627 7.21979E+01
 -1      1628 2.02648E+01
 -1      1629 5.60006E+01
 -1      1630 1.11121E+01
 -1      1631 4.47349E+01
 -1      1632 5.36499E+00
 -1      1633 4.28276E+01
 -1      1634 4.19530E+00
 -1      1635 4.28276E+01
 -1      1636 4.19530E+00
 -1      1637 4.26895E+01
 -1      1638 4.07197E+00
 -1      1639 4.25222E+01
 -1      1640 3.98902E+00
 -1      1641 4.24077E+01
 -1      1642 3.96235E+00
 -1      1643 4.23399E+01
 -1      1644 3.96235E+00
 -1      1645 4.23047E+01
 -1      1646 3.96034E+00
 -1      1647 4.22854E+01
 -1      1648 3.96851E+00
 -1      1649 4.22788E+01
 -1      1650 4.02781E+00
 -1      1651 4.22981E+01
 -1      1652 4.13874E+00
 -1      1653 4.23570E+01
 -1      1654 4.18580E+00
 -1      1655 4.25103E+01
 -1      1656 4.18580E+00
 -1      1657 4.26182E+01
 -1      1658 5.24482E+00
 -1      1659 4.26182E+01
 -1      1660 6.51808E+00
 -1      1661 4.88288E+01
 -1      1662 1.32427E+01
 -1      1663 4.88288E+01
 -1      1664 2.95828E+01
 -1      1665 6.42199E+01
 -1      1666 3.89307E+01
 -1      1667 7.54742E+01
 -1      1668 4.22627E+01
 -1      1669 9.01658E+01
 -1      1670 4.22627E+01
 -1      1671 9.01658E+01
 -1      1672 2.02648E+01
 -1      1673 6.46300E+01
 -1      1674 2.02648E+01
 -1      1675 4.65513E+01
 -1      1676 1.11121E+01
 -1      1677 3.07733E+01
 -1      1678 5.36499E+00
 -1      1679 2.76757E+01
 -1      1680 4.19530E+00
 -1      1681 2.76757E+01
 -1      1682 4.19530E+00
 -1      1683 2.74666E+01
 -1      1684 4.07197E+00
 -1      1685 2.72699E+01
 -1      1686 3.98902E+00
 -1      1687 2.71739E+01
 -1      1688 3.96235E+00
 -1      1689 2.71289E+01
 -1      1690 3.96235E+00
 -1      1691 2.71108E+01
 -1      1692 3.96034E+00
 -1      1693 2.71076E+01
 -1      1694 3.96851E+00
 -1      1695 2.71121E+01
 -1      1696 4.02781E+00
 -1      1697 2.71774E+01
 -1      1698 4.13874E+00
 -1      1699 2.72839E+01
 -1      1700 4.18580E+00
 -1      1701 2.76546E+01
 -1      1702 4.18580E+00
 -1      1703 2.76546E+01
 -1      1704 5.24482E+00
 -1      1705 2.81767E+01
 -1      1706 6.51808E+00
 -1      1707 3.72917E+01
 -1      1708 1.32427E+01
 -1      1709 3.72917E+01
 -1      1710 2.87807E+01
 -1      1711 6.26651E+01
 -1      1712 3.89307E+01
 -1      1713 7.61183E+01
 -1      1714 4.30045E+01
 -1      1715 9.01658E+01
 -1      1716 4.30045E+01
 -1      1717 9.01658E+01
 -1      1718 1.97120E+01
 -1      1719 5.90946E+01
 -1      1720 1.97120E+01
 -1      1721 3.36992E+01
 -1      1722 1.02497E+01
 -1      1723 8.04865E+00
 -1      1724 4.77719E+00
 -1      1725 4.17134E+00
 -1      1726 3.90193E+00
 -1      1727 4.09852E+00
 -1      1728 3.90193E+00
 -1      1729 3.96450E+00
 -1      1730 3.77683E+00
 -1      1731 3.85437E+00
 -1      1732 3.69500E+00
 -1      1733 3.80464E+00
 -1      1734 3.66853E+00
 -1      1735 3.78355E+00
 -1      1736 3.66853E+00
 -1      1737 3.77550E+00
 -1      1738 3.66718E+00
 -1      1739 3.77526E+00
 -1      1740 3.67426E+00
 -1      1741 3.77899E+00
 -1      1742 3.73223E+00
 -1      1743 3.81545E+00
 -1      1744 3.84672E+00
 -1      1745 3.88243E+00
 -1      1746 3.90939E+00
 -1      1747 4.04824E+00
 -1      1748 3.90939E+00
 -1      1749 4.04824E+00
 -1      1750 4.82986E+00
 -1      1751 4.08748E+00
 -1      1752 6.07347E+00
 -1      1753 1.65180E+01
 -1      1754 1.24190E+01
 -1      1755 1.65180E+01
 -1      1756 2.76643E+01
 -1      1757 5.73396E+01
 -1      1758 3.82142E+01
 -1      1759 7.61183E+01
 -1      1760 4.30045E+01
 -1      1761 9.02743E+01
 -1      1762 4.30045E+01
 -1      1763 9.02743E+01
 -1      1764 1.82248E+01
 -1      1765 5.78851E+01
 -1      1766 1.82248E+01
 -1      1767 3.21195E+01
 -1      1768 8.39769E+00
 -1      1769 5.38884E+00
 -1      1770 4.02950E+00
 -1      1771 3.18099E+00
 -1      1772 3.18284E+00
 -1      1773 3.09396E+00
 -1      1774 3.18284E+00
 -1      1775 2.97137E+00
 -1      1776 3.05539E+00
 -1      1777 2.86628E+00
 -1      1778 2.97290E+00
 -1      1779 2.81531E+00
 -1      1780 2.94678E+00
 -1      1781 2.79234E+00
 -1      1782 2.94678E+00
 -1      1783 2.78340E+00
 -1      1784 2.94589E+00
 -1      1785 2.78216E+00
 -1      1786 2.95242E+00
 -1      1787 2.78617E+00
 -1      1788 3.01039E+00
 -1      1789 2.82324E+00
 -1      1790 3.12863E+00
 -1      1791 2.89255E+00
 -1      1792 3.20202E+00
 -1      1793 3.06729E+00
 -1      1794 3.20202E+00
 -1      1795 3.06729E+00
 -1      1796 4.15124E+00
 -1      1797 3.06025E+00
 -1      1798 4.76300E+00
 -1      1799 1.45268E+01
 -1      1800 1.05788E+01
 -1      1801 1.45268E+01
 -1      1802 2.64515E+01
 -1      1803 5.55535E+01
 -1      1804 3.70448E+01
 -1      1805 7.60994E+01
 -1      1806 4.29735E+01
 -1      1807 9.02743E+01
 -1      1808 4.29735E+01
 -1      1809 9.02743E+01
 -1      1810 1.97120E+01
 -1      1811 5.90946E+01
 -1      1812 1.97120E+01
 -1      1813 3.36992E+01
 -1      1814 1.02497E+01
 -1      1815 8.04865E+00
 -1      1816 4.77719E+00
 -1      1817 4.17134E+00
 -1      1818 3.90193E+00
 -1      1819 4.09852E+00
 -1      1820 3.90193E+00
 -1      1821 3.96450E+00
 -1      1822 3.77683E+00
 -1      1823 3.85437E+00
 -1      1824 3.69500E+00
 -1      1825 3.80464E+00
 -1      1826 3.66853E+00
 -1      1827 3.78355E+00
 -1      1828 3.66853E+00
 -1      1829 3.77550E+00
 -1      1830 3.66718E+00
 -1      1831 3.77526E+00
 -1      1832 3.67426E+00
 -1      1833 3.77899E+00
 -1      1834 3.73223E+00
 -1      1835 3.81545E+00
 -1      1836 3.84672E+00
 -1      1837 3.88243E+00
 -1      1838 3.90939E+00
 -1      1839 4.04824E+00
 -1      1840 3.90939E+00
 -1      1841 4.04824E+00
 -1      1842 4.82986E+00
 -1      1843 4.08748E+00
 -1      1844 6.07347E+00
 -1      1845 1.65180E+01
 -1      1846 1.24190E+01
 -1      1847 1.65180E+01
 -1      1848 2.76643E+01
 -1      1849 5.73396E+01
 -1      1850 3.82142E+01
 -1      1851 7.61183E+01
 -1      1852 4.30045E+01
 -1      1853 9.02743E+01
 -1      1854 4.30045E+01
 -1      1855 9.02743E+01
 -1      1856 2.02648E+01
 -1      1857 6.46300E+01
 -1      1858 2.02648E+01
 -1      1859 4.65513E+01
 -1      1860 1.11121E+01
 -1      1861 3.07733E+01
 -1      1862 5.36499E+00
 -1      1863 2.76757E+01
 -1      1864 4.19530E+00
 -1      1865 2.76757E+01
 -1      1866 4.19530E+00
 -1      1867 2.74666E+01
 -1      1868 4.07197E+00
 -1      1869 2.72699E+01
 -1      1870 3.98902E+00
 -1      1871 2.71739E+01
 -1      1872 3.96235E+00
 -1      1873 2.71289E+01
 -1      1874 3.96235E+00
 -1      1875 2.71108E+01
 -1      1876 3.96034E+00
 -1      1877 2.71076E+01
 -1      1878 3.96851E+00
 -1      1879 2.71121E+01
 -1      1880 4.02781E+00
 -1      1881 2.71774E+01
 -1      1882 4.13874E+00
 -1      1883 2.72839E+01
 -1      1884 4.18580E+00
 -1      1885 2.76546E+01
 -1      1886 4.18580E+00
 -1      1887 2.76546E+01
 -1      1888 5.24482E+00
 -1      1889 2.81767E+01
 -1      1890 6.51808E+00
 -1      1891 3.72917E+01
 -1      1892 1.32427E+01
 -1      1893 3.72917E+01
 -1      1894 2.87807E+01
 -1      1895 6.26651E+01
 -1      1896 3.89307E+01
 -1      1897 7.61183E+01
 -1      1898 4.30045E+01
 -1      1899 9.01658E+01
 -1      1900 4.30045E+01
 -1      1901 9.01658E+01
 -1      1902 2.02648E+01
 -1      1903 7.21979E+01
 -1      1904 2.02648E+01
 -1      1905 5.60006E+01
 -1      1906 1.11121E+01
 -1      1907 4.47349E+01
 -1      1908 5.36499E+00
 -1      1909 4.28276E+01
 -1      1910 4.19530E+00
 -1      1911 4.28276E+01
 -1      1912 4.19530E+00
 -1      1913 4.26895E+01
 -1      1914 4.07197E+00
 -1      1915 4.25222E+01
 -1      1916 3.98902E+00
 -1      1917 4.24077E+01
 -1      1918 3.96235E+00
 -1      1919 4.23399E+01
 -1      1920 3.96235E+00
 -1      1921 4.23047E+01
 -1      1922 3.96034E+00
 -1      1923 4.22854E+01
 -1      1924 3.96851E+00
 -1      1925 4.22788E+01
 -1      1926 4.02781E+00
 -1      1927 4.22981E+01
 -1      1928 4.13874E+00
 -1      1929 4.23570E+01
 -1      1930 4.18580E+00
 -1      1931 4.25103E+01
 -1      1932 4.18580E+00
 -1      1933 4.26182E+01
 -1      1934 5.24482E+00
 -1      1935 4.26182E+01
 -1      1936 6.51808E+00
 -1      1937 4.88288E+01
 -1      1938 1.32427E+01
 -1      1939 4.88288E+01
 -1      1940 2.95828E+01
 -1      1941 6.42199E+01
 -1      1942 3.89307E+01
 -1      1943 7.54742E+01
 -1      1944 4.22627E+01
 -1      1945 9.01658E+01
 -1      1946 4.22627E+01
 -1      1947 9.01658E+01
 -1      1948 1.96256E+01
 -1      1949 7.21979E+01
 -1      1950 1.96256E+01
 -1      1951 7.27019E+01
 -1      1952 1.05699E+01
 -1      1953 7.62821E+01
 -1      1954 4.94607E+00
 -1      1955 7.89829E+01
 -1      1956 3.89030E+00
 -1      1957 8.24541E+01
 -1      1958 3.89030E+00
 -1      1959 8.58145E+01
 -1      1960 3.76590E+00
 -1      1961 8.82428E+01
 -1      1962 3.67934E+00
 -1      1963 8.96329E+01
 -1      1964 3.65360E+00
 -1      1965 9.03180E+01
 -1      1966 3.65360E+00
 -1      1967 9.06088E+01
 -1      1968 3.65067E+00
 -1      1969 9.06999E+01
 -1      1970 3.66053E+00
 -1      1971 9.07484E+01
 -1      1972 3.72309E+00
 -1      1973 9.07484E+01
 -1      1974 3.83157E+00
 -1      1975 9.07388E+01
 -1      1976 3.85847E+00
 -1      1977 9.03048E+01
 -1      1978 3.85847E+00
 -1      1979 8.80215E+01
 -1      1980 4.77756E+00
 -1      1981 8.41224E+01
 -1      1982 5.30269E+00
 -1      1983 8.50242E+01
 -1      1984 1.26687E+01
 -1      1985 8.63835E+01
 -1      1986 2.95828E+01
 -1      1987 8.63835E+01
 -1      1988 3.84502E+01
 -1      1989 8.31825E+01
 -1      1990 4.03399E+01
 -1      1991 7.29376E+01
 -1      1992 4.03399E+01
 -1      1993 6.88838E+01
 -1      1994 3.10134E+01
 -1      1995 7.02055E+01
 -1      1996 3.10134E+01
 -1      1997 7.27019E+01
 -1      1998 2.65078E+01
 -1      1999 7.62821E+01
 -1      2000 2.33444E+01
 -1      2001 7.89829E+01
 -1      2002 2.17418E+01
 -1      2003 8.24541E+01
 -1      2004 2.17418E+01
 -1      2005 8.58145E+01
 -1      2006 2.16739E+01
 -1      2007 8.82428E+01
 -1      2008 2.15621E+01
 -1      2009 8.96329E+01
 -1      2010 2.15686E+01
 -1      2011 9.03180E+01
 -1      2012 2.15686E+01
 -1      2013 9.06088E+01
 -1      2014 2.15610E+01
 -1      2015 9.06999E+01
 -1      2016 2.15704E+01
 -1      2017 9.07484E+01
 -1      2018 2.16870E+01
 -1      2019 9.07484E+01
 -1      2020 2.18914E+01
 -1      2021 9.07388E+01
 -1      2022 2.19360E+01
 -1      2023 9.03048E+01
 -1      2024 2.19360E+01
 -1      2025 8.80215E+01
 -1      2026 2.34305E+01
 -1      2027 8.41224E+01
 -1      2028 2.34305E+01
 -1      2029 8.50242E+01
 -1      2030 2.79116E+01
 -1      2031 8.63835E+01
 -1      2032 3.56995E+01
 -1      2033 8.63835E+01
 -1      2034 3.88759E+01
 -1      2035 8.31825E+01
 -1      2036 4.27886E+01
 -1      2037 7.73026E+01
 -1      2038 4.27886E+01
 -1      2039 7.73026E+01
 -1      2040 3.10134E+01
 -1      2041 3.10134E+01
 -1      2042 2.98264E+01
 -1      2043 2.70141E+01
 -1      2044 2.72970E+01
 -1      2045 2.72970E+01
 -1      2046 2.69629E+01
 -1      2047 2.66874E+01
 -1      2048 2.66223E+01
 -1      2049 2.65782E+01
 -1      2050 2.65436E+01
 -1      2051 2.65236E+01
 -1      2052 2.65847E+01
 -1      2053 2.70261E+01
 -1      2054 2.74895E+01
 -1      2055 2.74895E+01
 -1      2056 2.97270E+01
 -1      2057 2.97270E+01
 -1      2058 3.08998E+01
 -1      2059 3.77715E+01
 -1      2060 3.88759E+01
 -1      2061 4.27885E+01
 -1      2062 4.27885E+01
 -1      2063 2.05893E+01
 -1      2064 2.05893E+01
 -1      2065 1.33860E+01
 -1      2066 6.66487E+00
 -1      2067 5.31324E+00
 -1      2068 5.25350E+00
 -1      2069 4.92334E+00
 -1      2070 4.81832E+00
 -1      2071 4.77973E+00
 -1      2072 4.77973E+00
 -1      2073 4.77741E+00
 -1      2074 4.77689E+00
 -1      2075 4.83026E+00
 -1      2076 4.96355E+00
 -1      2077 5.21809E+00
 -1      2078 5.21809E+00
 -1      2079 8.16356E+00
 -1      2080 9.50093E+00
 -1      2081 1.54162E+01
 -1      2082 3.55398E+01
 -1      2083 3.84502E+01
 -1      2084 4.03399E+01
 -1      2085 4.03399E+01
 -1      2086 2.08687E+01
 -1      2087 2.05893E+01
 -1      2088 1.33860E+01
 -1      2089 6.66487E+00
 -1      2090 5.31324E+00
 -1      2091 5.25350E+00
 -1      2092 4.92334E+00
 -1      2093 4.81832E+00
 -1      2094 4.77973E+00
 -1      2095 4.77973E+00
 -1      2096 4.77741E+00
 -1      2097 4.77689E+00
 -1      2098 4.83026E+00
 -1      2099 4.96355E+00
 -1      2100 5.21809E+00
 -1      2101 5.21809E+00
 -1      2102 8.16356E+00
 -1      2103 9.50093E+00
 -1      2104 1.54162E+01
 -1      2105 3.55398E+01
 -1      2106 3.89307E+01
 -1      2107 4.22627E+01
 -1      2108 4.22627E+01
 -1      2109 2.08687E+01
 -1      2110 2.05722E+01
 -1      2111 1.27199E+01
 -1      2112 5.75608E+00
 -1      2113 4.86883E+00
 -1      2114 4.83915E+00
 -1      2115 4.67509E+00
 -1      2116 4.57743E+00
 -1      2117 4.54144E+00
 -1      2118 4.54144E+00
 -1      2119 4.54012E+00
 -1      2120 4.54012E+00
 -1      2121 4.58844E+00
 -1      2122 4.72135E+00
 -1      2123 4.86444E+00
 -1      2124 4.86444E+00
 -1      2125 7.51971E+00
 -1      2126 9.35970E+00
 -1      2127 1.49101E+01
 -1      2128 3.54414E+01
 -1      2129 3.89307E+01
 -1      2130 4.30045E+01
 -1      2131 4.30045E+01
 -1      2132 2.02240E+01
 -1      2133 1.97120E+01
 -1      2134 1.05878E+01
 -1      2135 4.77719E+00
 -1      2136 3.98159E+00
 -1      2137 3.94550E+00
 -1      2138 3.78095E+00
 -1      2139 3.69500E+00
 -1      2140 3.66853E+00
 -1      2141 3.66853E+00
 -1      2142 3.66718E+00
 -1      2143 3.67426E+00
 -1      2144 3.73223E+00
 -1      2145 3.84672E+00
 -1      2146 3.99590E+00
 -1      2147 3.99590E+00
 -1      2148 5.26131E+00
 -1      2149 7.44541E+00
 -1      2150 1.29081E+01
 -1      2151 3.38489E+01
 -1      2152 3.82142E+01
 -1      2153 4.30045E+01
 -1      2154 4.30045E+01
 -1      2155 1.86792E+01
 -1      2156 1.82248E+01
 -1      2157 8.39769E+00
 -1      2158 4.02950E+00
 -1      2159 3.18284E+00
 -1      2160 3.18284E+00
 -1      2161 3.05539E+00
 -1      2162 2.97290E+00
 -1      2163 2.94678E+00
 -1      2164 2.94678E+00
 -1      2165 2.94589E+00
 -1      2166 2.95242E+00
 -1      2167 3.01039E+00
 -1      2168 3.12863E+00
 -1      2169 3.20202E+00
 -1      2170 3.20202E+00
 -1      2171 4.15124E+00
 -1      2172 4.76300E+00
 -1      2173 1.05788E+01
 -1      2174 3.19117E+01
 -1      2175 3.70448E+01
 -1      2176 4.29735E+01
 -1      2177 4.29735E+01
 -1      2178 2.02240E+01
 -1      2179 1.97120E+01
 -1      2180 1.05878E+01
 -1      2181 4.77719E+00
 -1      2182 3.98159E+00
 -1      2183 3.94550E+00
 -1      2184 3.78095E+00
 -1      2185 3.69500E+00
 -1      2186 3.66853E+00
 -1      2187 3.66853E+00
 -1      2188 3.66718E+00
 -1      2189 3.67426E+00
 -1      2190 3.73223E+00
 -1      2191 3.84672E+00
 -1      2192 3.99590E+00
 -1      2193 3.99590E+00
 -1      2194 5.26131E+00
 -1      2195 7.44541E+00
 -1      2196 1.29081E+01
 -1      2197 3.38489E+01
 -1      2198 3.82142E+01
 -1      2199 4.30045E+01
 -1      2200 4.30045E+01
 -1      2201 2.08687E+01
 -1      2202 2.05722E+01
 -1      2203 1.27199E+01
 -1      2204 5.75608E+00
 -1      2205 4.86883E+00
 -1      2206 4.83915E+00
 -1      2207 4.67509E+00
 -1      2208 4.57743E+00
 -1      2209 4.54144E+00
 -1      2210 4.54144E+00
 -1      2211 4.54012E+00
 -1      2212 4.54012E+00
 -1      2213 4.58844E+00
 -1      2214 4.72135E+00
 -1      2215 4.86444E+00
 -1      2216 4.86444E+00
 -1      2217 7.51971E+00
 -1      2218 9.35970E+00
 -1      2219 1.49101E+01
 -1      2220 3.54414E+01
 -1      2221 3.89307E+01
 -1      2222 4.30045E+01
 -1      2223 4.30045E+01
 -1      2224 2.08687E+01
 -1      2225 2.05893E+01
 -1      2226 1.33860E+01
 -1      2227 6.66487E+00
 -1      2228 5.31324E+00
 -1      2229 5.25350E+00
 -1      2230 4.92334E+00
 -1      2231 4.81832E+00
 -1      2232 4.77973E+00
 -1      2233 4.77973E+00
 -1      2234 4.77741E+00
 -1      2235 4.77689E+00
 -1      2236 4.83026E+00
 -1      2237 4.96355E+00
 -1      2238 5.21809E+00
 -1      2239 5.21809E+00
 -1      2240 8.16356E+00
 -1      2241 9.50093E+00
 -1      2242 1.54162E+01
 -1      2243 3.55398E+01
 -1      2244 3.89307E+01
 -1      2245 4.22627E+01
 -1      2246 4.22627E+01
 -1      2247 2.05893E+01
 -1      2248 2.05893E+01
 -1      2249 1.33860E+01
 -1      2250 6.66487E+00
 -1      2251 5.31324E+00
 -1      2252 5.25350E+00
 -1      2253 4.92334E+00
 -1      2254 4.81832E+00
 -1      2255 4.77973E+00
 -1      2256 4.77973E+00
 -1      2257 4.77741E+00
 -1      2258 4.77689E+00
 -1      2259 4.83026E+00
 -1      2260 4.96355E+00
 -1      2261 5.21809E+00
 -1      2262 5.21809E+00
 -1      2263 8.16356E+00
 -1      2264 9.50093E+00
 -1      2265 1.54162E+01
 -1      2266 3.55398E+01
 -1      2267 3.84502E+01
 -1      2268 4.03399E+01
 -1      2269 4.03399E+01
 -1      2270 3.10134E+01
 -1      2271 3.10134E+01
 -1      2272 2.98264E+01
 -1      2273 2.70141E+01
 -1      2274 2.72970E+01
 -1      2275 2.72970E+01
 -1      2276 2.69629E+01
 -1      2277 2.66874E+01
 -1      2278 2.66223E+01
 -1      2279 2.65782E+01
 -1      2280 2.65436E+01
 -1      2281 2.65236E+01
 -1      2282 2.65847E+01
 -1      2283 2.70261E+01
 -1      2284 2.74895E+01
 -1      2285 2.74895E+01
 -1      2286 2.97270E+01
 -1      2287 2.97270E+01
 -1      2288 3.08998E+01
 -1      2289 3.77715E+01
 -1      2290 3.88759E+01
 -1      2291 4.27886E+01
 -1      2292 4.27886E+01
 -1      2293 6.42765E+01
 -1      2294 6.26269E+01
 -1      2295 6.61496E+01
 -1      2296 6.82399E+01
 -1      2297 6.86145E+01
 -1      2298 6.86145E+01
 -1      2299 6.84240E+01
 -1      2300 6.81720E+01
 -1      2301 6.80248E+01
 -1      2302 6.79033E+01
 -1      2303 6.78227E+01
 -1      2304 6.77735E+01
 -1      2305 6.77171E+01
 -1      2306 6.79283E+01
 -1      2307 6.84117E+01
 -1      2308 6.84117E+01
 -1      2309 6.96590E+01
 -1      2310 6.96590E+01
 -1      2311 6.83812E+01
 -1      2312 6.48069E+01
 -1      2313 5.60602E+01
 -1      2314 3.01647E+01
 -1      2315 3.41540E+01
 -1      2316 4.48815E+01
 -1      2317 3.15163E+01
 -1      2318 2.60927E+01
 -1      2319 2.06657E+01
 -1      2320 2.06657E+01
 -1      2321 2.05656E+01
 -1      2322 2.01318E+01
 -1      2323 1.98645E+01
 -1      2324 1.97594E+01
 -1      2325 1.97450E+01
 -1      2326 1.97419E+01
 -1      2327 1.97419E+01
 -1      2328 1.98179E+01
 -1      2329 2.01884E+01
 -1      2330 2.06014E+01
 -1      2331 2.06014E+01
 -1      2332 2.32359E+01
 -1      2333 2.46869E+01
 -1      2334 2.86172E+01
 -1      2335 4.40847E+01
 -1      2336 4.40847E+01
 -1      2337 3.49306E+01
 -1      2338 4.32876E+01
 -1      2339 4.00607E+01
 -1      2340 2.75625E+01
 -1      2341 1.86923E+01
 -1      2342 1.21731E+01
 -1      2343 1.19675E+01
 -1      2344 1.18183E+01
 -1      2345 1.13952E+01
 -1      2346 1.11510E+01
 -1      2347 1.10614E+01
 -1      2348 1.10533E+01
 -1      2349 1.10574E+01
 -1      2350 1.10574E+01
 -1      2351 1.11493E+01
 -1      2352 1.14912E+01
 -1      2353 1.19199E+01
 -1      2354 1.19199E+01
 -1      2355 1.46390E+01
 -1      2356 1.73178E+01
 -1      2357 2.13927E+01
 -1      2358 4.24721E+01
 -1      2359 4.24721E+01
 -1      2360 3.55741E+01
 -1      2361 5.18120E+01
 -1      2362 3.92565E+01
 -1      2363 2.47454E+01
 -1      2364 1.37614E+01
 -1      2365 6.71735E+00
 -1      2366 6.69818E+00
 -1      2367 6.53392E+00
 -1      2368 6.11018E+00
 -1      2369 5.87394E+00
 -1      2370 5.79191E+00
 -1      2371 5.79080E+00
 -1      2372 5.79645E+00
 -1      2373 5.79645E+00
 -1      2374 5.88212E+00
 -1      2375 6.21459E+00
 -1      2376 6.70773E+00
 -1      2377 6.70773E+00
 -1      2378 9.67864E+00
 -1      2379 1.29911E+01
 -1      2380 1.63911E+01
 -1      2381 4.17589E+01
 -1      2382 4.17589E+01
 -1      2383 3.55741E+01
 -1      2384 5.76379E+01
 -1      2385 3.74327E+01
 -1      2386 2.09655E+01
 -1      2387 1.05878E+01
 -1      2388 4.35109E+00
 -1      2389 3.98159E+00
 -1      2390 3.94550E+00
 -1      2391 3.78095E+00
 -1      2392 3.68554E+00
 -1      2393 3.65138E+00
 -1      2394 3.65138E+00
 -1      2395 3.65134E+00
 -1      2396 3.65134E+00
 -1      2397 3.69751E+00
 -1      2398 3.83311E+00
 -1      2399 3.99590E+00
 -1      2400 3.99590E+00
 -1      2401 5.26131E+00
 -1      2402 8.83234E+00
 -1      2403 1.29081E+01
 -1      2404 3.97540E+01
 -1      2405 3.97540E+01
 -1      2406 3.47919E+01
 -1      2407 6.00871E+01
 -1      2408 3.52500E+01
 -1      2409 1.75523E+01
 -1      2410 7.30550E+00
 -1      2411 2.95761E+00
 -1      2412 2.59433E+00
 -1      2413 2.55339E+00
 -1      2414 2.38268E+00
 -1      2415 2.28547E+00
 -1      2416 2.25213E+00
 -1      2417 2.25225E+00
 -1      2418 2.25318E+00
 -1      2419 2.25318E+00
 -1      2420 2.29962E+00
 -1      2421 2.44004E+00
 -1      2422 2.61692E+00
 -1      2423 2.61692E+00
 -1      2424 3.77447E+00
 -1      2425 4.85393E+00
 -1      2426 9.68225E+00
 -1      2427 3.73235E+01
 -1      2428 3.73235E+01
 -1      2429 3.32626E+01
 -1      2430 6.00871E+01
 -1      2431 3.74327E+01
 -1      2432 2.09655E+01
 -1      2433 1.05878E+01
 -1      2434 4.35109E+00
 -1      2435 3.98159E+00
 -1      2436 3.94550E+00
 -1      2437 3.78095E+00
 -1      2438 3.68554E+00
 -1      2439 3.65138E+00
 -1      2440 3.65138E+00
 -1      2441 3.65134E+00
 -1      2442 3.65134E+00
 -1      2443 3.69751E+00
 -1      2444 3.83311E+00
 -1      2445 3.99590E+00
 -1      2446 3.99590E+00
 -1      2447 5.26131E+00
 -1      2448 8.83234E+00
 -1      2449 1.29081E+01
 -1      2450 3.97540E+01
 -1      2451 3.97540E+01
 -1      2452 3.47919E+01
 -1      2453 6.00871E+01
 -1      2454 3.92565E+01
 -1      2455 2.47454E+01
 -1      2456 1.37614E+01
 -1      2457 6.71735E+00
 -1      2458 6.69818E+00
 -1      2459 6.53392E+00
 -1      2460 6.11018E+00
 -1      2461 5.87394E+00
 -1      2462 5.79191E+00
 -1      2463 5.79080E+00
 -1      2464 5.79645E+00
 -1      2465 5.79645E+00
 -1      2466 5.88212E+00
 -1      2467 6.21459E+00
 -1      2468 6.70773E+00
 -1      2469 6.70773E+00
 -1      2470 9.67864E+00
 -1      2471 1.29911E+01
 -1      2472 1.63911E+01
 -1      2473 4.17589E+01
 -1      2474 4.17589E+01
 -1      2475 3.55741E+01
 -1      2476 5.76379E+01
 -1      2477 4.00607E+01
 -1      2478 2.75625E+01
 -1      2479 1.86923E+01
 -1      2480 1.21731E+01
 -1      2481 1.19675E+01
 -1      2482 1.18183E+01
 -1      2483 1.13952E+01
 -1      2484 1.11510E+01
 -1      2485 1.10614E+01
 -1      2486 1.10533E+01
 -1      2487 1.10574E+01
 -1      2488 1.10574E+01
 -1      2489 1.11493E+01
 -1      2490 1.14912E+01
 -1      2491 1.19199E+01
 -1      2492 1.19199E+01
 -1      2493 1.46390E+01
 -1      2494 1.73178E+01
 -1      2495 2.13927E+01
 -1      2496 4.24721E+01
 -1      2497 4.24721E+01
 -1      2498 3.55741E+01
 -1      2499 5.18120E+01
 -1      2500 4.48815E+01
 -1      2501 3.15163E+01
 -1      2502 2.60927E+01
 -1      2503 2.06657E+01
 -1      2504 2.06657E+01
 -1      2505 2.05656E+01
 -1      2506 2.01318E+01
 -1      2507 1.98645E+01
 -1      2508 1.97594E+01
 -1      2509 1.97450E+01
 -1      2510 1.97419E+01
 -1      2511 1.97419E+01
 -1      2512 1.98179E+01
 -1      2513 2.01884E+01
 -1      2514 2.06014E+01
 -1      2515 2.06014E+01
 -1      2516 2.32359E+01
 -1      2517 2.46869E+01
 -1      2518 2.86172E+01
 -1      2519 4.40847E+01
 -1      2520 4.40847E+01
 -1      2521 3.49306E+01
 -1      2522 4.32876E+01
 -1      2523 6.42765E+01
 -1      2524 6.26269E+01
 -1      2525 6.61496E+01
 -1      2526 6.82399E+01
 -1      2527 6.86145E+01
 -1      2528 6.86145E+01
 -1      2529 6.84240E+01
 -1      2530 6.81720E+01
 -1      2531 6.80248E+01
 -1      2532 6.79033E+01
 -1      2533 6.78227E+01
 -1      2534 6.77735E+01
 -1      2535 6.77171E+01
 -1      2536 6.79283E+01
 -1      2537 6.84117E+01
 -1      2538 6.84117E+01
 -1      2539 6.96590E+01
 -1      2540 6.96590E+01
 -1      2541 6.83812E+01
 -1      2542 6.48069E+01
 -1      2543 5.60602E+01
 -1      2544 3.01647E+01
 -1      2545 3.41540E+01
 -1      2546 7.87592E+01
 -1      2547 9.25071E+01
 -1      2548 9.83076E+01
 -1      2549 9.83076E+01
 -1      2550 9.82690E+01
 -1      2551 9.79500E+01
 -1      2552 9.77688E+01
 -1      2553 9.76945E+01
 -1      2554 9.76484E+01
 -1      2555 9.76047E+01
 -1      2556 9.75604E+01
 -1      2557 9.75501E+01
 -1      2558 9.75501E+01
 -1      2559 9.75206E+01
 -1      2560 9.73317E+01
 -1      2561 9.74949E+01
 -1      2562 9.74949E+01
 -1      2563 9.85427E+01
 -1      2564 9.85427E+01
 -1      2565 9.35957E+01
 -1      2566 6.80281E+01
 -1      2567 3.16919E+01
 -1      2568 5.16090E+01
 -1      2569 6.15034E+01
 -1      2570 4.37954E+01
 -1      2571 3.80421E+01
 -1      2572 3.52468E+01
 -1      2573 3.52468E+01
 -1      2574 3.50413E+01
 -1      2575 3.46515E+01
 -1      2576 3.44183E+01
 -1      2577 3.43175E+01
 -1      2578 3.42763E+01
 -1      2579 3.42694E+01
 -1      2580 3.42694E+01
 -1      2581 3.42791E+01
 -1      2582 3.45554E+01
 -1      2583 3.49932E+01
 -1      2584 3.49932E+01
 -1      2585 3.70102E+01
 -1      2586 3.98286E+01
 -1      2587 4.03739E+01
 -1      2588 5.18649E+01
 -1      2589 5.18649E+01
 -1      2590 3.52856E+01
 -1      2591 6.03602E+01
 -1      2592 5.59558E+01
 -1      2593 3.73998E+01
 -1      2594 2.74938E+01
 -1      2595 2.26227E+01
 -1      2596 2.26227E+01
 -1      2597 2.23410E+01
 -1      2598 2.19652E+01
 -1      2599 2.17649E+01
 -1      2600 2.16901E+01
 -1      2601 2.16650E+01
 -1      2602 2.16727E+01
 -1      2603 2.16727E+01
 -1      2604 2.17239E+01
 -1      2605 2.19817E+01
 -1      2606 2.23997E+01
 -1      2607 2.23997E+01
 -1      2608 2.42062E+01
 -1      2609 2.92935E+01
 -1      2610 3.00926E+01
 -1      2611 5.01619E+01
 -1      2612 5.01619E+01
 -1      2613 3.97462E+01
 -1      2614 7.46135E+01
 -1      2615 5.23710E+01
 -1      2616 3.15097E+01
 -1      2617 1.82245E+01
 -1      2618 1.25024E+01
 -1      2619 1.25024E+01
 -1      2620 1.21813E+01
 -1      2621 1.17844E+01
 -1      2622 1.15810E+01
 -1      2623 1.15115E+01
 -1      2624 1.14977E+01
 -1      2625 1.15060E+01
 -1      2626 1.15060E+01
 -1      2627 1.15672E+01
 -1      2628 1.18307E+01
 -1      2629 1.22895E+01
 -1      2630 1.22895E+01
 -1      2631 1.43856E+01
 -1      2632 2.10169E+01
 -1      2633 2.10169E+01
 -1      2634 4.82824E+01
 -1      2635 4.82824E+01
 -1      2636 4.18109E+01
 -1      2637 8.11628E+01
 -1      2638 4.93019E+01
 -1      2639 2.53817E+01
 -1      2640 9.54506E+00
 -1      2641 4.02392E+00
 -1      2642 4.02392E+00
 -1      2643 3.88481E+00
 -1      2644 3.71964E+00
 -1      2645 3.63691E+00
 -1      2646 3.61023E+00
 -1      2647 3.60720E+00
 -1      2648 3.61083E+00
 -1      2649 3.61083E+00
 -1      2650 3.63600E+00
 -1      2651 3.74082E+00
 -1      2652 3.93106E+00
 -1      2653 3.99246E+00
 -1      2654 4.88580E+00
 -1      2655 1.25507E+01
 -1      2656 1.25507E+01
 -1      2657 4.54560E+01
 -1      2658 4.54560E+01
 -1      2659 4.18109E+01
 -1      2660 8.48136E+01
 -1      2661 4.73771E+01
 -1      2662 2.16278E+01
 -1      2663 5.28893E+00
 -1      2664 2.04282E+00
 -1      2665 2.03605E+00
 -1      2666 1.94782E+00
 -1      2667 1.77179E+00
 -1      2668 1.67313E+00
 -1      2669 1.63774E+00
 -1      2670 1.63485E+00
 -1      2671 1.63699E+00
 -1      2672 1.63699E+00
 -1      2673 1.66991E+00
 -1      2674 1.80767E+00
 -1      2675 2.05087E+00
 -1      2676 2.05087E+00
 -1      2677 3.12725E+00
 -1      2678 6.98787E+00
 -1      2679 7.96736E+00
 -1      2680 4.30134E+01
 -1      2681 4.30134E+01
 -1      2682 4.16329E+01
 -1      2683 8.48136E+01
 -1      2684 4.93019E+01
 -1      2685 2.53817E+01
 -1      2686 9.54506E+00
 -1      2687 4.02392E+00
 -1      2688 4.02392E+00
 -1      2689 3.88481E+00
 -1      2690 3.71964E+00
 -1      2691 3.63691E+00
 -1      2692 3.61023E+00
 -1      2693 3.60720E+00
 -1      2694 3.61083E+00
 -1      2695 3.61083E+00
 -1      2696 3.63600E+00
 -1      2697 3.74082E+00
 -1      2698 3.93106E+00
 -1      2699 3.99246E+00
 -1      2700 4.88580E+00
 -1      2701 1.25507E+01
 -1      2702 1.25507E+01
 -1      2703 4.54560E+01
 -1      2704 4.54560E+01
 -1      2705 4.18109E+01
 -1      2706 8.48136E+01
 -1      2707 5.23710E+01
 -1      2708 3.15097E+01
 -1      2709 1.82245E+01
 -1      2710 1.25024E+01
 -1      2711 1.25024E+01
 -1      2712 1.21813E+01
 -1      2713 1.17844E+01
 -1      2714 1.15810E+01
 -1      2715 1.15115E+01
 -1      2716 1.14977E+01
 -1      2717 1.15060E+01
 -1      2718 1.15060E+01
 -1      2719 1.15672E+01
 -1      2720 1.18307E+01
 -1      2721 1.22895E+01
 -1      2722 1.22895E+01
 -1      2723 1.43856E+01
 -1      2724 2.10169E+01
 -1      2725 2.10169E+01
 -1      2726 4.82824E+01
 -1      2727 4.82824E+01
 -1      2728 4.18109E+01
 -1      2729 8.11628E+01
 -1      2730 5.59558E+01
 -1      2731 3.73998E+01
 -1      2732 2.74938E+01
 -1      2733 2.26227E+01
 -1      2734 2.26227E+01
 -1      2735 2.23410E+01
 -1      2736 2.19652E+01
 -1      2737 2.17649E+01
 -1      2738 2.16901E+01
 -1      2739 2.16650E+01
 -1      2740 2.16727E+01
 -1      2741 2.16727E+01
 -1      2742 2.17239E+01
 -1      2743 2.19817E+01
 -1      2744 2.23997E+01
 -1      2745 2.23997E+01
 -1      2746 2.42062E+01
 -1      2747 2.92935E+01
 -1      2748 3.00926E+01
 -1      2749 5.01619E+01
 -1      2750 5.01619E+01
 -1      2751 3.97462E+01
 -1      2752 7.46135E+01
 -1      2753 6.15034E+01
 -1      2754 4.37954E+01
 -1      2755 3.80421E+01
 -1      2756 3.52468E+01
 -1      2757 3.52468E+01
 -1      2758 3.50413E+01
 -1      2759 3.46515E+01
 -1      2760 3.44183E+01
 -1      2761 3.43175E+01
 -1      2762 3.42763E+01
 -1      2763 3.42694E+01
 -1      2764 3.42694E+01
 -1      2765 3.42791E+01
 -1      2766 3.45554E+01
 -1      2767 3.49932E+01
 -1      2768 3.49932E+01
 -1      2769 3.70102E+01
 -1      2770 3.98286E+01
 -1      2771 4.03739E+01
 -1      2772 5.18649E+01
 -1      2773 5.18649E+01
 -1      2774 3.52856E+01
 -1      2775 6.03602E+01
 -1      2776 7.87592E+01
 -1      2777 9.25071E+01
 -1      2778 9.83076E+01
 -1      2779 9.83076E+01
 -1      2780 9.82690E+01
 -1      2781 9.79500E+01
 -1      2782 9.77688E+01
 -1      2783 9.76945E+01
 -1      2784 9.76484E+01
 -1      2785 9.76047E+01
 -1      2786 9.75604E+01
 -1      2787 9.75501E+01
 -1      2788 9.75501E+01
 -1      2789 9.75206E+01
 -1      2790 9.73317E+01
 -1      2791 9.74949E+01
 -1      2792 9.74949E+01
 -1      2793 9.85427E+01
 -1      2794 9.85427E+01
 -1      2795 9.35956E+01
 -1      2796 6.80281E+01
 -1      2797 3.16919E+01
 -1      2798 5.16090E+01
 -1      2799 7.87592E+01
 -1      2800 9.25071E+01
 -1      2801 9.83076E+01
 -1      2802 9.83076E+01
 -1      2803 9.82690E+01
 -1      2804 9.79500E+01
 -1      2805 9.77688E+01
 -1      2806 9.76945E+01
 -1      2807 9.76484E+01
 -1      2808 9.76047E+01
 -1      2809 9.75604E+01
 -1      2810 9.75501E+01
 -1      2811 9.75501E+01
 -1      2812 9.75206E+01
 -1      2813 9.73317E+01
 -1      2814 9.74949E+01
 -1      2815 9.74949E+01
 -1      2816 9.85427E+01
 -1      2817 9.85427E+01
 -1      2818 9.35957E+01
 -1      2819 7.05023E+01
 -1      2820 7.23895E+01
 -1      2821 7.23895E+01
 -1      2822 6.73229E+01
 -1      2823 5.23836E+01
 -1      2824 4.61742E+01
 -1      2825 4.61883E+01
 -1      2826 4.61883E+01
 -1      2827 4.59609E+01
 -1      2828 4.56020E+01
 -1      2829 4.53646E+01
 -1      2830 4.52414E+01
 -1      2831 4.51785E+01
 -1      2832 4.51386E+01
 -1      2833 4.51376E+01
 -1      2834 4.51376E+01
 -1      2835 4.51727E+01
 -1      2836 4.54685E+01
 -1      2837 4.57477E+01
 -1      2838 4.72338E+01
 -1      2839 5.10839E+01
 -1      2840 5.10839E+01
 -1      2841 5.76035E+01
 -1      2842 5.76035E+01
 -1      2843 7.40543E+01
 -1      2844 7.40543E+01
 -1      2845 6.73229E+01
 -1      2846 4.87749E+01
 -1      2847 3.89532E+01
 -1      2848 3.58968E+01
 -1      2849 3.58968E+01
 -1      2850 3.56552E+01
 -1      2851 3.53879E+01
 -1      2852 3.52505E+01
 -1      2853 3.51913E+01
 -1      2854 3.51665E+01
 -1      2855 3.51598E+01
 -1      2856 3.51604E+01
 -1      2857 3.51796E+01
 -1      2858 3.53296E+01
 -1      2859 3.56331E+01
 -1      2860 3.58537E+01
 -1      2861 3.58537E+01
 -1      2862 4.27573E+01
 -1      2863 4.27573E+01
 -1      2864 5.76035E+01
 -1      2865 5.76035E+01
 -1      2866 7.56895E+01
 -1      2867 7.56895E+01
 -1      2868 6.16759E+01
 -1      2869 3.86729E+01
 -1      2870 2.33700E+01
 -1      2871 1.90269E+01
 -1      2872 1.90269E+01
 -1      2873 1.87431E+01
 -1      2874 1.84194E+01
 -1      2875 1.82701E+01
 -1      2876 1.82132E+01
 -1      2877 1.81937E+01
 -1      2878 1.81980E+01
 -1      2879 1.81980E+01
 -1      2880 1.82428E+01
 -1      2881 1.84404E+01
 -1      2882 1.88003E+01
 -1      2883 1.90557E+01
 -1      2884 1.90557E+01
 -1      2885 2.94553E+01
 -1      2886 2.94553E+01
 -1      2887 5.52061E+01
 -1      2888 5.52061E+01
 -1      2889 7.66753E+01
 -1      2890 8.11628E+01
 -1      2891 5.64601E+01
 -1      2892 2.82977E+01
 -1      2893 8.92468E+00
 -1      2894 4.02392E+00
 -1      2895 4.02392E+00
 -1      2896 3.88481E+00
 -1      2897 3.71964E+00
 -1      2898 3.63691E+00
 -1      2899 3.61023E+00
 -1      2900 3.60720E+00
 -1      2901 3.61083E+00
 -1      2902 3.61083E+00
 -1      2903 3.63600E+00
 -1      2904 3.74082E+00
 -1      2905 3.93106E+00
 -1      2906 3.99246E+00
 -1      2907 4.88580E+00
 -1      2908 1.55852E+01
 -1      2909 1.55852E+01
 -1      2910 5.10573E+01
 -1      2911 5.10573E+01
 -1      2912 7.76001E+01
 -1      2913 8.48136E+01
 -1      2914 5.56787E+01
 -1      2915 2.63776E+01
 -1      2916 4.47809E+00
 -1      2917 2.09181E+00
 -1      2918 2.09181E+00
 -1      2919 1.94417E+00
 -1      2920 1.78530E+00
 -1      2921 1.71614E+00
 -1      2922 1.69200E+00
 -1      2923 1.68490E+00
 -1      2924 1.68893E+00
 -1      2925 1.68893E+00
 -1      2926 1.71468E+00
 -1      2927 1.81115E+00
 -1      2928 1.96396E+00
 -1      2929 2.13025E+00
 -1      2930 2.53206E+00
 -1      2931 1.17638E+01
 -1      2932 1.17638E+01
 -1      2933 4.89500E+01
 -1      2934 4.89500E+01
 -1      2935 7.76001E+01
 -1      2936 8.48136E+01
 -1      2937 5.64601E+01
 -1      2938 2.82977E+01
 -1      2939 8.92468E+00
 -1      2940 4.02392E+00
 -1      2941 4.02392E+00
 -1      2942 3.88481E+00
 -1      2943 3.71964E+00
 -1      2944 3.63691E+00
 -1      2945 3.61023E+00
 -1      2946 3.60720E+00
 -1      2947 3.61083E+00
 -1      2948 3.61083E+00
 -1      2949 3.63600E+00
 -1      2950 3.74082E+00
 -1      2951 3.93106E+00
 -1      2952 3.99246E+00
 -1      2953 4.88580E+00
 -1      2954 1.55852E+01
 -1      2955 1.55852E+01
 -1      2956 5.10573E+01
 -1      2957 5.10573E+01
 -1      2958 7.76001E+01
 -1      2959 8.48136E+01
 -1      2960 6.16759E+01
 -1      2961 3.86729E+01
 -1      2962 2.33700E+01
 -1      2963 1.90269E+01
 -1      2964 1.90269E+01
 -1      2965 1.87431E+01
 -1      2966 1.84194E+01
 -1      2967 1.82701E+01
 -1      2968 1.82132E+01
 -1      2969 1.81937E+01
 -1      2970 1.81980E+01
 -1      2971 1.81980E+01
 -1      2972 1.82428E+01
 -1      2973 1.84404E+01
 -1      2974 1.88003E+01
 -1      2975 1.90557E+01
 -1      2976 1.90557E+01
 -1      2977 2.94553E+01
 -1      2978 2.94553E+01
 -1      2979 5.52061E+01
 -1      2980 5.52061E+01
 -1      2981 7.66753E+01
 -1      2982 8.11628E+01
 -1      2983 6.73229E+01
 -1      2984 4.87749E+01
 -1      2985 3.89532E+01
 -1      2986 3.58968E+01
 -1      2987 3.58968E+01
 -1      2988 3.56552E+01
 -1      2989 3.53879E+01
 -1      2990 3.52505E+01
 -1      2991 3.51913E+01
 -1      2992 3.51665E+01
 -1      2993 3.51598E+01
 -1      2994 3.51604E+01
 -1      2995 3.51796E+01
 -1      2996 3.53296E+01
 -1      2997 3.56331E+01
 -1      2998 3.58537E+01
 -1      2999 3.58537E+01
 -1      3000 4.27573E+01
 -1      3001 4.27573E+01
 -1      3002 5.76035E+01
 -1      3003 5.76035E+01
 -1      3004 7.56895E+01
 -1      3005 7.56895E+01
 -1      3006 6.73229E+01
 -1      3007 5.23836E+01
 -1      3008 4.61742E+01
 -1      3009 4.61883E+01
 -1      3010 4.61883E+01
 -1      3011 4.59609E+01
 -1      3012 4.56020E+01
 -1      3013 4.53646E+01
 -1      3014 4.52414E+01
 -1      3015 4.51785E+01
 -1      3016 4.51386E+01
 -1      3017 4.51376E+01
 -1      3018 4.51376E+01
 -1      3019 4.51727E+01
 -1      3020 4.54685E+01
 -1      3021 4.57477E+01
 -1      3022 4.72338E+01
 -1      3023 5.10839E+01
 -1      3024 5.10839E+01
 -1      3025 5.76035E+01
 -1      3026 5.76035E+01
 -1      3027 7.40543E+01
 -1      3028 7.40543E+01
 -1      3029 7.87592E+01
 -1      3030 9.25071E+01
 -1      3031 9.83076E+01
 -1      3032 9.83076E+01
 -1      3033 9.82690E+01
 -1      3034 9.79500E+01
 -1      3035 9.77688E+01
 -1      3036 9.76945E+01
 -1      3037 9.76484E+01
 -1      3038 9.76047E+01
 -1      3039 9.75604E+01
 -1      3040 9.75501E+01
 -1      3041 9.75501E+01
 -1      3042 9.75206E+01
 -1      3043 9.73317E+01
 -1      3044 9.74949E+01
 -1      3045 9.74949E+01
 -1      3046 9.85427E+01
 -1      3047 9.85427E+01
 -1      3048 9.35956E+01
 -1      3049 7.05023E+01
 -1      3050 7.23895E+01
 -1      3051 7.23895E+01
 -1      3052 7.02055E+01
 -1      3053 7.27019E+01
 -1      3054 7.62821E+01
 -1      3055 7.89829E+01
 -1      3056 8.24541E+01
 -1      3057 8.58145E+01
 -1      3058 8.82428E+01
 -1      3059 8.96329E+01
 -1      3060 9.03180E+01
 -1      3061 9.06088E+01
 -1      3062 9.06999E+01
 -1      3063 9.07484E+01
 -1      3064 9.07484E+01
 -1      3065 9.07388E+01
 -1      3066 9.03048E+01
 -1      3067 8.80215E+01
 -1      3068 8.41224E+01
 -1      3069 8.50242E+01
 -1      3070 8.63835E+01
 -1      3071 8.63835E+01
 -1      3072 8.31825E+01
 -1      3073 7.73026E+01
 -1      3074 7.73026E+01
 -1      3075 7.21979E+01
 -1      3076 7.27019E+01
 -1      3077 7.62821E+01
 -1      3078 7.89829E+01
 -1      3079 8.24541E+01
 -1      3080 8.58145E+01
 -1      3081 8.82428E+01
 -1      3082 8.96329E+01
 -1      3083 9.03180E+01
 -1      3084 9.06088E+01
 -1      3085 9.06999E+01
 -1      3086 9.07484E+01
 -1      3087 9.07484E+01
 -1      3088 9.07388E+01
 -1      3089 9.03048E+01
 -1      3090 8.80215E+01
 -1      3091 8.41224E+01
 -1      3092 8.50242E+01
 -1      3093 8.63835E+01
 -1      3094 8.63835E+01
 -1      3095 8.31825E+01
 -1      3096 7.40543E+01
 -1      3097 7.40543E+01
 -1      3098 7.21979E+01
 -1      3099 5.60006E+01
 -1      3100 4.47349E+01
 -1      3101 4.28276E+01
 -1      3102 4.28276E+01
 -1      3103 4.26895E+01
 -1      3104 4.25222E+01
 -1      3105 4.24077E+01
 -1      3106 4.23399E+01
 -1      3107 4.23047E+01
 -1      3108 4.22854E+01
 -1      3109 4.22788E+01
 -1      3110 4.22981E+01
 -1      3111 4.23570E+01
 -1      3112 4.25103E+01
 -1      3113 4.26182E+01
 -1      3114 4.26182E+01
 -1      3115 4.88288E+01
 -1      3116 4.88288E+01
 -1      3117 6.42199E+01
 -1      3118 7.54742E+01
 -1      3119 9.01658E+01
 -1      3120 9.01658E+01
 -1      3121 6.46300E+01
 -1      3122 4.65513E+01
 -1      3123 3.07733E+01
 -1      3124 2.76757E+01
 -1      3125 2.76757E+01
 -1      3126 2.74666E+01
 -1      3127 2.72699E+01
 -1      3128 2.71739E+01
 -1      3129 2.71289E+01
 -1      3130 2.71108E+01
 -1      3131 2.71076E+01
 -1      3132 2.71121E+01
 -1      3133 2.71774E+01
 -1      3134 2.72839E+01
 -1      3135 2.76546E+01
 -1      3136 2.76546E+01
 -1      3137 2.81767E+01
 -1      3138 3.72917E+01
 -1      3139 3.72917E+01
 -1      3140 6.26651E+01
 -1      3141 7.61183E+01
 -1      3142 9.01658E+01
 -1      3143 9.01658E+01
 -1      3144 5.90946E+01
 -1      3145 3.36992E+01
 -1      3146 8.04865E+00
 -1      3147 4.17134E+00
 -1      3148 4.09852E+00
 -1      3149 3.96450E+00
 -1      3150 3.85437E+00
 -1      3151 3.80464E+00
 -1      3152 3.78355E+00
 -1      3153 3.77550E+00
 -1      3154 3.77526E+00
 -1      3155 3.77899E+00
 -1      3156 3.81545E+00
 -1      3157 3.88243E+00
 -1      3158 4.04824E+00
 -1      3159 4.04824E+00
 -1      3160 4.08748E+00
 -1      3161 1.65180E+01
 -1      3162 1.65180E+01
 -1      3163 5.73396E+01
 -1      3164 7.61183E+01
 -1      3165 9.02743E+01
 -1      3166 9.02743E+01
 -1      3167 5.78851E+01
 -1      3168 3.21195E+01
 -1      3169 5.38884E+00
 -1      3170 3.18099E+00
 -1      3171 3.09396E+00
 -1      3172 2.97137E+00
 -1      3173 2.86628E+00
 -1      3174 2.81531E+00
 -1      3175 2.79234E+00
 -1      3176 2.78340E+00
 -1      3177 2.78216E+00
 -1      3178 2.78617E+00
 -1      3179 2.82324E+00
 -1      3180 2.89255E+00
 -1      3181 3.06729E+00
 -1      3182 3.06729E+00
 -1      3183 3.06025E+00
 -1      3184 1.45268E+01
 -1      3185 1.45268E+01
 -1      3186 5.55535E+01
 -1      3187 7.60994E+01
 -1      3188 9.02743E+01
 -1      3189 9.02743E+01
 -1      3190 5.90946E+01
 -1      3191 3.36992E+01
 -1      3192 8.04865E+00
 -1      3193 4.17134E+00
 -1      3194 4.09852E+00
 -1      3195 3.96450E+00
 -1      3196 3.85437E+00
 -1      3197 3.80464E+00
 -1      3198 3.78355E+00
 -1      3199 3.77550E+00
 -1      3200 3.77526E+00
 -1      3201 3.77899E+00
 -1      3202 3.81545E+00
 -1      3203 3.88243E+00
 -1      3204 4.04824E+00
 -1      3205 4.04824E+00
 -1      3206 4.08748E+00
 -1      3207 1.65180E+01
 -1      3208 1.65180E+01
 -1      3209 5.73396E+01
 -1      3210 7.61183E+01
 -1      3211 9.02743E+01
 -1      3212 9.02743E+01
 -1      3213 6.46300E+01
 -1      3214 4.65513E+01
 -1      3215 3.07733E+01
 -1      3216 2.76757E+01
 -1      3217 2.76757E+01
 -1      3218 2.74666E+01
 -1      3219 2.72699E+01
 -1      3220 2.71739E+01
 -1      3221 2.71289E+01
 -1      3222 2.71108E+01
 -1      3223 2.71076E+01
 -1      3224 2.71121E+01
 -1      3225 2.71774E+01
 -1      3226 2.72839E+01
 -1      3227 2.76546E+01
 -1      3228 2.76546E+01
 -1      3229 2.81767E+01
 -1      3230 3.72917E+01
 -1      3231 3.72917E+01
 -1      3232 6.26651E+01
 -1      3233 7.61183E+01
 -1      3234 9.01658E+01
 -1      3235 9.01658E+01
 -1      3236 7.21979E+01
 -1      3237 5.60006E+01
 -1      3238 4.47349E+01
 -1      3239 4.28276E+01
 -1      3240 4.28276E+01
 -1      3241 4.26895E+01
 -1      3242 4.25222E+01
 -1      3243 4.24077E+01
 -1      3244 4.23399E+01
 -1      3245 4.23047E+01
 -1      3246 4.22854E+01
 -1      3247 4.22788E+01
 -1      3248 4.22981E+01
 -1      3249 4.23570E+01
 -1      3250 4.25103E+01
 -1      3251 4.26182E+01
 -1      3252 4.26182E+01
 -1      3253 4.88288E+01
 -1      3254 4.88288E+01
 -1      3255 6.42199E+01
 -1      3256 7.54742E+01
 -1      3257 9.01658E+01
 -1      3258 9.01658E+01
 -1      3259 7.21979E+01
 -1      3260 7.27019E+01
 -1      3261 7.62821E+01
 -1      3262 7.89829E+01
 -1      3263 8.24541E+01
 -1      3264 8.58145E+01
 -1      3265 8.82428E+01
 -1      3266 8.96329E+01
 -1      3267 9.03180E+01
 -1      3268 9.06088E+01
 -1      3269 9.06999E+01
 -1      3270 9.07484E+01
 -1      3271 9.07484E+01
 -1      3272 9.07388E+01
 -1      3273 9.03048E+01
 -1      3274 8.80215E+01
 -1      3275 8.41224E+01
 -1      3276 8.50242E+01
 -1      3277 8.63835E+01
 -1      3278 8.63835E+01
 -1      3279 8.31825E+01
 -1      3280 7.40543E+01
 -1      3281 7.40543E+01
 -1      3282 7.02055E+01
 -1      3283 7.27019E+01
 -1      3284 7.62821E+01
 -1      3285 7.89829E+01
 -1      3286 8.24541E+01
 -1      3287 8.58145E+01
 -1      3288 8.82428E+01
 -1      3289 8.96329E+01
 -1      3290 9.03180E+01
 -1      3291 9.06088E+01
 -1      3292 9.06999E+01
 -1      3293 9.07484E+01
 -1      3294 9.07484E+01
 -1      3295 9.07388E+01
 -1      3296 9.03048E+01
 -1      3297 8.80215E+01
 -1      3298 8.41224E+01
 -1      3299 8.50242E+01
 -1      3300 8.63835E+01
 -1      3301 8.63835E+01
 -1      3302 8.31825E+01
 -1      3303 7.73026E+01
 -1      3304 7.73026E+01
 -3
    1PSTEP                        10           4           1          
  100CL  104 5.75000E-01        3304                     0    4           1
 -4  DISP        4    1
 -5  D1          1    2    1    0
 -5  D2          1    2    2    0
 -5  D3          1    2    3    0
 -5  ALL         1    2    0    0    1ALL
 -1         1 0.00000E+00 0.00000E+00 0.00000E+00
 -1         2 3.13855E-02 2.39919E-04-3.61026E-05
 -1         3 0.00000E+00 0.00000E+00 0.00000E+00
 -1         4 3.07930E-02 1.25115E-04-4.16488E-05
 -1         5 0.00000E+00 0.00000E+00 0.00000E+00
 -1         6 3.06737E-02 5.76053E-05-4.48383E-05
 -1         7 0.00000E+00 0.00000E+00 0.00000E+00
 -1         8 3.06407E-02 2.58559E-10-4.50804E-05
 -1         9 0.00000E+00 0.00000E+00 0.00000E+00
 -1        10 3.06737E-02-5.76047E-05-4.48383E-05
 -1        11 0.00000E+00 0.00000E+00 0.00000E+00
 -1        12 3.07930E-02-1.25115E-04-4.16488E-05
 -1        13 0.00000E+00 0.00000E+00 0.00000E+00
 -1        14 3.13855E-02-2.39918E-04-3.61026E-05
 -1        15 0.00000E+00 0.00000E+00 0.00000E+00
 -1        16 3.08263E-02 1.31077E-04-6.92116E-04
 -1        17 0.00000E+00 0.00000E+00 0.00000E+00
 -1        18 3.05336E-02 9.39671E-05-6.58517E-04
 -1        19 0.00000E+00 0.00000E+00 0.00000E+00
 -1        20 3.04087E-02 5.02019E-05-6.62825E-04
 -1        21 0.00000E+00 0.00000E+00 0.00000E+00
 -1        22 3.03790E-02 2.58522E-10-6.63255E-04
 -1        23 0.00000E+00 0.00000E+00 0.00000E+00
 -1        24 3.04087E-02-5.02014E-05-6.62825E-04
 -1        25 0.00000E+00 0.00000E+00 0.00000E+00
 -1        26 3.05336E-02-9.39666E-05-6.58517E-04
 -1        27 0.00000E+00 0.00000E+00 0.00000E+00
 -1        28 3.08263E-02-1.31077E-04-6.92116E-04
 -1        29 0.00000E+00 0.00000E+00 0.00000E+00
 -1        30 3.07340E-02 5.94451E-05-1.35060E-03
 -1        31 0.00000E+00 0.00000E+00 0.00000E+00
 -1        32 3.04528E-02 5.75932E-05-1.32119E-03
 -1        33 0.00000E+00 0.00000E+00 0.00000E+00
 -1        34 3.03593E-02 4.14675E-05-1.30343E-03
 -1        35 0.00000E+00 0.00000E+00 0.00000E+00
 -1        36 3.03316E-02 2.58535E-10-1.29619E-03
 -1        37 0.00000E+00 0.00000E+00 0.00000E+00
 -1        38 3.03593E-02-4.14670E-05-1.30343E-03
 -1        39 0.00000E+00 0.00000E+00 0.00000E+00
 -1        40 3.04528E-02-5.75927E-05-1.32119E-03
 -1        41 0.00000E+00 0.00000E+00 0.00000E+00
 -1        42 3.07340E-02-5.94446E-05-1.35060E-03
 -1        43 0.00000E+00 0.00000E+00 0.00000E+00
 -1        44 3.07726E-02 4.10376E-05-2.06864E-03
 -1        45 0.00000E+00 0.00000E+00 0.00000E+00
 -1        46 3.05058E-02 6.28499E-05-2.03691E-03
 -1        47 0.00000E+00 0.00000E+00 0.00000E+00
 -1        48 3.04141E-02 5.11442E-05-1.97820E-03
 -1        49 0.00000E+00 0.00000E+00 0.00000E+00
 -1        50 3.03887E-02 2.58550E-10-1.95118E-03
 -1        51 0.00000E+00 0.00000E+00 0.00000E+00
 -1        52 3.04141E-02-5.11437E-05-1.97820E-03
 -1        53 0.00000E+00 0.00000E+00 0.00000E+00
 -1        54 3.05058E-02-6.28494E-05-2.03691E-03
 -1        55 0.00000E+00 0.00000E+00 0.00000E+00
 -1        56 3.07726E-02-4.10370E-05-2.06864E-03
 -1        57 0.00000E+00 0.00000E+00 0.00000E+00
 -1        58 3.09579E-02 5.69038E-05-2.90773E-03
 -1        59 0.00000E+00 0.00000E+00 0.00000E+00
 -1        60 3.06832E-02 1.06380E-04-2.81380E-03
 -1        61 0.00000E+00 0.00000E+00 0.00000E+00
 -1        62 3.05860E-02 7.64359E-05-2.66939E-03
 -1        63 0.00000E+00 0.00000E+00 0.00000E+00
 -1        64 3.05559E-02 2.58569E-10-2.61317E-03
 -1        65 0.00000E+00 0.00000E+00 0.00000E+00
 -1        66 3.05860E-02-7.64354E-05-2.66939E-03
 -1        67 0.00000E+00 0.00000E+00 0.00000E+00
 -1        68 3.06832E-02-1.06379E-04-2.81380E-03
 -1        69 0.00000E+00 0.00000E+00 0.00000E+00
 -1        70 3.09579E-02-5.69033E-05-2.90773E-03
 -1        71 0.00000E+00 0.00000E+00 0.00000E+00
 -1        72 3.13373E-02 7.19172E-05-4.00497E-03
 -1        73 0.00000E+00 0.00000E+00 0.00000E+00
 -1        74 3.10794E-02 1.27199E-04-3.62679E-03
 -1        75 0.00000E+00 0.00000E+00 0.00000E+00
 -1        76 3.09340E-02 4.69214E-05-3.36420E-03
 -1        77 0.00000E+00 0.00000E+00 0.00000E+00
 -1        78 3.08906E-02 2.58598E-10-3.30461E-03
 -1        79 0.00000E+00 0.00000E+00 0.00000E+00
 -1        80 3.09340E-02-4.69209E-05-3.36420E-03
 -1        81 0.00000E+00 0.00000E+00 0.00000E+00
 -1        82 3.10794E-02-1.27198E-04-3.62679E-03
 -1        83 0.00000E+00 0.00000E+00 0.00000E+00
 -1        84 3.13373E-02-7.19167E-05-4.00497E-03
 -1        85 0.00000E+00 0.00000E+00 0.00000E+00
 -1        86 3.25678E-02-3.70315E-04-5.65070E-03
 -1        87 0.00000E+00 0.00000E+00 0.00000E+00
 -1        88 3.19042E-02-2.28378E-04-4.43837E-03
 -1        89 0.00000E+00 0.00000E+00 0.00000E+00
 -1        90 3.16895E-02-9.54848E-05-4.18086E-03
 -1        91 0.00000E+00 0.00000E+00 0.00000E+00
 -1        92 3.16324E-02 2.58650E-10-4.10191E-03
 -1        93 0.00000E+00 0.00000E+00 0.00000E+00
 -1        94 3.16895E-02 9.54853E-05-4.18086E-03
 -1        95 0.00000E+00 0.00000E+00 0.00000E+00
 -1        96 3.19042E-02 2.28378E-04-4.43837E-03
 -1        97 0.00000E+00 0.00000E+00 0.00000E+00
 -1        98 3.25678E-02 3.70316E-04-5.65070E-03
 -1        99 1.09113E-03 2.94594E-04-1.03491E-05
 -1       100 1.09113E-03-2.94594E-04-1.03491E-05
 -1       101 2.51816E-03 2.05854E-04-2.58549E-05
 -1       102 2.51816E-03-2.05854E-04-2.58549E-05
 -1       103 4.11325E-03 1.64078E-04-2.77486E-05
 -1       104 4.11325E-03-1.64078E-04-2.77486E-05
 -1       105 5.69872E-03 1.52485E-04-2.81043E-05
 -1       106 5.69872E-03-1.52485E-04-2.81043E-05
 -1       107 7.25206E-03 1.52085E-04-2.74679E-05
 -1       108 7.25206E-03-1.52085E-04-2.74679E-05
 -1       109 8.79092E-03 1.53782E-04-2.71740E-05
 -1       110 8.79092E-03-1.53782E-04-2.71740E-05
 -1       111 1.03276E-02 1.55542E-04-2.70495E-05
 -1       112 1.03276E-02-1.55542E-04-2.70495E-05
 -1       113 1.18669E-02 1.57004E-04-2.70231E-05
 -1       114 1.18669E-02-1.57003E-04-2.70231E-05
 -1       115 1.34100E-02 1.58259E-04-2.70231E-05
 -1       116 1.34100E-02-1.58259E-04-2.70231E-05
 -1       117 1.49571E-02 1.59422E-04-2.70289E-05
 -1       118 1.49571E-02-1.59421E-04-2.70289E-05
 -1       119 1.65082E-02 1.60564E-04-2.70360E-05
 -1       120 1.65082E-02-1.60564E-04-2.70360E-05
 -1       121 1.80633E-02 1.61754E-04-2.70437E-05
 -1       122 1.80633E-02-1.61753E-04-2.70437E-05
 -1       123 1.96227E-02 1.63112E-04-2.70434E-05
 -1       124 1.96227E-02-1.63112E-04-2.70434E-05
 -1       125 2.11859E-02 1.64818E-04-2.69828E-05
 -1       126 2.11859E-02-1.64818E-04-2.69828E-05
 -1       127 2.27507E-02 1.66971E-04-2.67791E-05
 -1       128 2.27507E-02-1.66971E-04-2.67791E-05
 -1       129 2.43075E-02 1.69138E-04-2.60967E-05
 -1       130 2.43075E-02-1.69138E-04-2.60967E-05
 -1       131 2.58316E-02 1.66760E-04-2.55864E-05
 -1       132 2.58316E-02-1.66760E-04-2.55864E-05
 -1       133 2.72975E-02 1.41154E-04-2.49989E-05
 -1       134 2.72975E-02-1.41153E-04-2.49989E-05
 -1       135 2.87893E-02 6.86411E-06-3.68985E-05
 -1       136 2.87893E-02-6.86361E-06-3.68985E-05
 -1       137 1.10179E-03 2.94924E-04-2.64777E-04
 -1       138 1.10179E-03-2.94924E-04-2.64777E-04
 -1       139 2.53586E-03 2.05924E-04-4.18003E-04
 -1       140 2.53586E-03-2.05924E-04-4.18003E-04
 -1       141 4.12834E-03 1.65812E-04-4.55867E-04
 -1       142 4.12834E-03-1.65812E-04-4.55867E-04
 -1       143 5.70875E-03 1.55197E-04-4.52042E-04
 -1       144 5.70875E-03-1.55197E-04-4.52042E-04
 -1       145 7.25919E-03 1.55330E-04-4.44118E-04
 -1       146 7.25919E-03-1.55329E-04-4.44118E-04
 -1       147 8.79725E-03 1.57150E-04-4.40190E-04
 -1       148 8.79725E-03-1.57150E-04-4.40190E-04
 -1       149 1.03338E-02 1.58903E-04-4.39081E-04
 -1       150 1.03338E-02-1.58903E-04-4.39081E-04
 -1       151 1.18732E-02 1.60342E-04-4.39159E-04
 -1       152 1.18732E-02-1.60341E-04-4.39159E-04
 -1       153 1.34163E-02 1.61580E-04-4.39588E-04
 -1       154 1.34163E-02-1.61580E-04-4.39588E-04
 -1       155 1.49635E-02 1.62733E-04-4.40075E-04
 -1       156 1.49635E-02-1.62733E-04-4.40075E-04
 -1       157 1.65145E-02 1.63867E-04-4.40578E-04
 -1       158 1.65145E-02-1.63867E-04-4.40578E-04
 -1       159 1.80696E-02 1.65044E-04-4.41102E-04
 -1       160 1.80696E-02-1.65044E-04-4.41102E-04
 -1       161 1.96288E-02 1.66380E-04-4.41528E-04
 -1       162 1.96288E-02-1.66379E-04-4.41528E-04
 -1       163 2.11920E-02 1.68055E-04-4.41270E-04
 -1       164 2.11920E-02-1.68054E-04-4.41270E-04
 -1       165 2.27568E-02 1.70200E-04-4.38864E-04
 -1       166 2.27568E-02-1.70199E-04-4.38864E-04
 -1       167 2.43153E-02 1.72755E-04-4.30721E-04
 -1       168 2.43153E-02-1.72754E-04-4.30721E-04
 -1       169 2.58452E-02 1.71153E-04-4.17947E-04
 -1       170 2.58452E-02-1.71153E-04-4.17947E-04
 -1       171 2.73105E-02 1.47839E-04-4.11924E-04
 -1       172 2.73105E-02-1.47838E-04-4.11924E-04
 -1       173 2.88704E-02 1.97418E-05-5.52877E-04
 -1       174 2.88704E-02-1.97413E-05-5.52877E-04
 -1       175 1.12119E-03 2.94750E-04-5.34805E-04
 -1       176 1.12119E-03-2.94750E-04-5.34805E-04
 -1       177 2.57370E-03 2.05670E-04-8.21434E-04
 -1       178 2.57370E-03-2.05670E-04-8.21434E-04
 -1       179 4.15854E-03 1.69603E-04-8.87833E-04
 -1       180 4.15854E-03-1.69603E-04-8.87833E-04
 -1       181 5.72390E-03 1.62129E-04-8.79117E-04
 -1       182 5.72390E-03-1.62129E-04-8.79117E-04
 -1       183 7.26667E-03 1.63700E-04-8.64923E-04
 -1       184 7.26667E-03-1.63700E-04-8.64923E-04
 -1       185 8.80256E-03 1.65861E-04-8.57998E-04
 -1       186 8.80256E-03-1.65861E-04-8.57998E-04
 -1       187 1.03388E-02 1.67619E-04-8.56088E-04
 -1       188 1.03388E-02-1.67619E-04-8.56088E-04
 -1       189 1.18783E-02 1.69015E-04-8.56320E-04
 -1       190 1.18783E-02-1.69015E-04-8.56320E-04
 -1       191 1.34216E-02 1.70224E-04-8.57175E-04
 -1       192 1.34216E-02-1.70223E-04-8.57175E-04
 -1       193 1.49688E-02 1.71361E-04-8.58131E-04
 -1       194 1.49688E-02-1.71361E-04-8.58131E-04
 -1       195 1.65198E-02 1.72485E-04-8.59115E-04
 -1       196 1.65198E-02-1.72484E-04-8.59115E-04
 -1       197 1.80748E-02 1.73637E-04-8.60141E-04
 -1       198 1.80748E-02-1.73636E-04-8.60141E-04
 -1       199 1.96338E-02 1.74922E-04-8.60989E-04
 -1       200 1.96338E-02-1.74921E-04-8.60989E-04
 -1       201 2.11967E-02 1.76510E-04-8.60639E-04
 -1       202 2.11967E-02-1.76510E-04-8.60639E-04
 -1       203 2.27621E-02 1.78729E-04-8.56250E-04
 -1       204 2.27621E-02-1.78728E-04-8.56250E-04
 -1       205 2.43254E-02 1.81878E-04-8.42690E-04
 -1       206 2.43254E-02-1.81877E-04-8.42690E-04
 -1       207 2.58684E-02 1.83953E-04-8.15793E-04
 -1       208 2.58684E-02-1.83952E-04-8.15793E-04
 -1       209 2.73661E-02 1.62948E-04-8.14866E-04
 -1       210 2.73661E-02-1.62948E-04-8.14866E-04
 -1       211 2.88565E-02 4.40847E-05-1.00810E-03
 -1       212 2.88565E-02-4.40842E-05-1.00810E-03
 -1       213 1.15513E-03 2.91766E-04-8.39690E-04
 -1       214 1.15513E-03-2.91766E-04-8.39690E-04
 -1       215 2.63582E-03 2.02346E-04-1.24874E-03
 -1       216 2.63582E-03-2.02346E-04-1.24874E-03
 -1       217 4.20107E-03 1.73390E-04-1.33025E-03
 -1       218 4.20107E-03-1.73390E-04-1.33025E-03
 -1       219 5.74142E-03 1.71400E-04-1.31615E-03
 -1       220 5.74142E-03-1.71400E-04-1.31615E-03
 -1       221 7.27365E-03 1.75140E-04-1.29788E-03
 -1       222 7.27365E-03-1.75139E-04-1.29788E-03
 -1       223 8.80668E-03 1.77758E-04-1.28895E-03
 -1       224 8.80668E-03-1.77758E-04-1.28895E-03
 -1       225 1.03426E-02 1.79517E-04-1.28659E-03
 -1       226 1.03426E-02-1.79517E-04-1.28659E-03
 -1       227 1.18823E-02 1.80844E-04-1.28706E-03
 -1       228 1.18823E-02-1.80844E-04-1.28706E-03
 -1       229 1.34258E-02 1.82007E-04-1.28833E-03
 -1       230 1.34258E-02-1.82007E-04-1.28833E-03
 -1       231 1.49731E-02 1.83126E-04-1.28974E-03
 -1       232 1.49731E-02-1.83126E-04-1.28974E-03
 -1       233 1.65241E-02 1.84235E-04-1.29118E-03
 -1       234 1.65241E-02-1.84235E-04-1.29118E-03
 -1       235 1.80789E-02 1.85352E-04-1.29268E-03
 -1       236 1.80789E-02-1.85352E-04-1.29268E-03
 -1       237 1.96375E-02 1.86549E-04-1.29396E-03
 -1       238 1.96375E-02-1.86549E-04-1.29396E-03
 -1       239 2.12000E-02 1.88036E-04-1.29364E-03
 -1       240 2.12000E-02-1.88036E-04-1.29364E-03
 -1       241 2.27662E-02 1.90216E-04-1.28805E-03
 -1       242 2.27662E-02-1.90216E-04-1.28805E-03
 -1       243 2.43347E-02 1.94511E-04-1.27057E-03
 -1       244 2.43347E-02-1.94511E-04-1.27057E-03
 -1       245 2.59013E-02 2.01022E-04-1.23603E-03
 -1       246 2.59013E-02-2.01021E-04-1.23603E-03
 -1       247 2.74340E-02 1.88285E-04-1.22375E-03
 -1       248 2.74340E-02-1.88284E-04-1.22375E-03
 -1       249 2.89058E-02 7.82277E-05-1.44679E-03
 -1       250 2.89058E-02-7.82272E-05-1.44679E-03
 -1       251 1.21646E-03 2.77719E-04-1.21172E-03
 -1       252 1.21646E-03-2.77719E-04-1.21172E-03
 -1       253 2.72871E-03 1.84815E-04-1.71641E-03
 -1       254 2.72871E-03-1.84815E-04-1.71641E-03
 -1       255 4.24880E-03 1.67770E-04-1.79537E-03
 -1       256 4.24880E-03-1.67770E-04-1.79537E-03
 -1       257 5.75722E-03 1.73657E-04-1.77845E-03
 -1       258 5.75722E-03-1.73657E-04-1.77845E-03
 -1       259 7.27924E-03 1.79947E-04-1.75884E-03
 -1       260 7.27924E-03-1.79947E-04-1.75884E-03
 -1       261 8.80931E-03 1.83028E-04-1.74894E-03
 -1       262 8.80931E-03-1.83028E-04-1.74894E-03
 -1       263 1.03452E-02 1.84779E-04-1.74661E-03
 -1       264 1.03452E-02-1.84779E-04-1.74661E-03
 -1       265 1.18852E-02 1.85995E-04-1.74739E-03
 -1       266 1.18852E-02-1.85994E-04-1.74739E-03
 -1       267 1.34290E-02 1.87101E-04-1.74908E-03
 -1       268 1.34290E-02-1.87101E-04-1.74908E-03
 -1       269 1.49764E-02 1.88197E-04-1.75091E-03
 -1       270 1.49764E-02-1.88197E-04-1.75091E-03
 -1       271 1.65274E-02 1.89289E-04-1.75278E-03
 -1       272 1.65274E-02-1.89289E-04-1.75278E-03
 -1       273 1.80820E-02 1.90363E-04-1.75472E-03
 -1       274 1.80820E-02-1.90363E-04-1.75472E-03
 -1       275 1.96401E-02 1.91448E-04-1.75640E-03
 -1       276 1.96401E-02-1.91447E-04-1.75640E-03
 -1       277 2.12020E-02 1.92755E-04-1.75633E-03
 -1       278 2.12020E-02-1.92755E-04-1.75633E-03
 -1       279 2.27686E-02 1.94952E-04-1.75024E-03
 -1       280 2.27686E-02-1.94952E-04-1.75024E-03
 -1       281 2.43424E-02 2.00082E-04-1.73112E-03
 -1       282 2.43424E-02-2.00081E-04-1.73112E-03
 -1       283 2.59305E-02 2.12584E-04-1.69505E-03
 -1       284 2.59305E-02-2.12584E-04-1.69505E-03
 -1       285 2.75212E-02 2.13095E-04-1.66437E-03
 -1       286 2.75212E-02-2.13095E-04-1.66437E-03
 -1       287 2.90333E-02 1.18911E-04-1.88493E-03
 -1       288 2.90333E-02-1.18910E-04-1.88493E-03
 -1       289 1.34041E-03 2.23407E-04-1.71375E-03
 -1       290 1.34041E-03-2.23407E-04-1.71375E-03
 -1       291 2.85640E-03 1.21883E-04-2.24498E-03
 -1       292 2.85640E-03-1.21883E-04-2.24498E-03
 -1       293 4.28406E-03 1.23320E-04-2.31058E-03
 -1       294 4.28406E-03-1.23320E-04-2.31058E-03
 -1       295 5.76953E-03 1.39399E-04-2.29900E-03
 -1       296 5.76953E-03-1.39399E-04-2.29900E-03
 -1       297 7.28154E-03 1.47746E-04-2.27901E-03
 -1       298 7.28154E-03-1.47746E-04-2.27901E-03
 -1       299 8.81036E-03 1.51530E-04-2.26969E-03
 -1       300 8.81036E-03-1.51530E-04-2.26969E-03
 -1       301 1.03467E-02 1.53124E-04-2.26766E-03
 -1       302 1.03467E-02-1.53123E-04-2.26766E-03
 -1       303 1.18872E-02 1.54219E-04-2.26882E-03
 -1       304 1.18872E-02-1.54218E-04-2.26882E-03
 -1       305 1.34312E-02 1.55250E-04-2.27089E-03
 -1       306 1.34312E-02-1.55250E-04-2.27089E-03
 -1       307 1.49787E-02 1.56320E-04-2.27313E-03
 -1       308 1.49787E-02-1.56320E-04-2.27313E-03
 -1       309 1.65297E-02 1.57396E-04-2.27540E-03
 -1       310 1.65297E-02-1.57395E-04-2.27540E-03
 -1       311 1.80841E-02 1.58416E-04-2.27774E-03
 -1       312 1.80841E-02-1.58416E-04-2.27774E-03
 -1       313 1.96418E-02 1.59378E-04-2.27980E-03
 -1       314 1.96418E-02-1.59377E-04-2.27980E-03
 -1       315 2.12028E-02 1.60407E-04-2.28004E-03
 -1       316 2.12028E-02-1.60407E-04-2.28004E-03
 -1       317 2.27686E-02 1.62605E-04-2.27436E-03
 -1       318 2.27686E-02-1.62605E-04-2.27436E-03
 -1       319 2.43467E-02 1.68515E-04-2.25518E-03
 -1       320 2.43467E-02-1.68515E-04-2.25518E-03
 -1       321 2.59467E-02 1.86021E-04-2.22155E-03
 -1       322 2.59467E-02-1.86020E-04-2.22155E-03
 -1       323 2.76047E-02 2.10742E-04-2.18990E-03
 -1       324 2.76047E-02-2.10742E-04-2.18990E-03
 -1       325 2.92578E-02 1.25784E-04-2.33570E-03
 -1       326 2.92578E-02-1.25784E-04-2.33570E-03
 -1       327 1.73213E-03-4.98092E-05-2.45937E-03
 -1       328 1.73213E-03 4.98093E-05-2.45937E-03
 -1       329 2.93059E-03-1.52583E-04-2.83905E-03
 -1       330 2.93059E-03 1.52583E-04-2.83905E-03
 -1       331 4.30732E-03-1.15829E-04-2.94267E-03
 -1       332 4.30732E-03 1.15829E-04-2.94267E-03
 -1       333 5.77049E-03-9.43266E-05-2.92959E-03
 -1       334 5.77049E-03 9.43267E-05-2.92959E-03
 -1       335 7.27981E-03-8.19676E-05-2.91354E-03
 -1       336 7.27981E-03 8.19678E-05-2.91354E-03
 -1       337 8.80972E-03-7.80809E-05-2.90497E-03
 -1       338 8.80972E-03 7.80811E-05-2.90497E-03
 -1       339 1.03472E-02-7.66051E-05-2.90352E-03
 -1       340 1.03472E-02 7.66053E-05-2.90352E-03
 -1       341 1.18883E-02-7.57029E-05-2.90503E-03
 -1       342 1.18883E-02 7.57032E-05-2.90503E-03
 -1       343 1.34325E-02-7.47574E-05-2.90748E-03
 -1       344 1.34325E-02 7.47577E-05-2.90748E-03
 -1       345 1.49800E-02-7.37250E-05-2.91010E-03
 -1       346 1.49800E-02 7.37253E-05-2.91010E-03
 -1       347 1.65310E-02-7.26769E-05-2.91277E-03
 -1       348 1.65310E-02 7.26772E-05-2.91277E-03
 -1       349 1.80854E-02-7.17158E-05-2.91548E-03
 -1       350 1.80854E-02 7.17161E-05-2.91548E-03
 -1       351 1.96427E-02-7.09291E-05-2.91786E-03
 -1       352 1.96427E-02 7.09295E-05-2.91786E-03
 -1       353 2.12026E-02-7.01504E-05-2.91852E-03
 -1       354 2.12026E-02 7.01509E-05-2.91852E-03
 -1       355 2.27665E-02-6.84528E-05-2.91314E-03
 -1       356 2.27665E-02 6.84532E-05-2.91314E-03
 -1       357 2.43423E-02-6.08484E-05-2.89731E-03
 -1       358 2.43423E-02 6.08488E-05-2.89731E-03
 -1       359 2.59518E-02-4.01524E-05-2.86007E-03
 -1       360 2.59518E-02 4.01529E-05-2.86007E-03
 -1       361 2.76269E-02 9.43272E-06-2.87085E-03
 -1       362 2.76269E-02-9.43222E-06-2.87085E-03
 -1       363 2.95017E-02-4.82918E-06-2.85550E-03
 -1       364 2.95017E-02 4.82969E-06-2.85550E-03
 -1       365 1.05863E-03 1.89171E-04-9.71745E-06
 -1       366 1.72594E-03-1.79683E-05-1.94533E-03
 -1       367 2.53778E-03 1.47975E-04-2.56545E-05
 -1       368 2.94260E-03-7.82915E-05-2.39313E-03
 -1       369 4.11956E-03 1.11104E-04-2.83258E-05
 -1       370 4.30298E-03-6.75094E-05-2.50118E-03
 -1       371 5.69977E-03 1.04173E-04-2.85947E-05
 -1       372 5.76730E-03-4.96361E-05-2.49996E-03
 -1       373 7.25163E-03 1.03937E-04-2.80783E-05
 -1       374 7.27807E-03-4.15567E-05-2.48559E-03
 -1       375 8.79038E-03 1.05105E-04-2.77829E-05
 -1       376 8.80905E-03-3.87434E-05-2.47757E-03
 -1       377 1.03272E-02 1.06261E-04-2.76615E-05
 -1       378 1.03468E-02-3.77886E-05-2.47590E-03
 -1       379 1.18665E-02 1.07240E-04-2.76313E-05
 -1       380 1.18880E-02-3.71826E-05-2.47727E-03
 -1       381 1.34097E-02 1.08080E-04-2.76294E-05
 -1       382 1.34322E-02-3.65573E-05-2.47963E-03
 -1       383 1.49568E-02 1.08857E-04-2.76342E-05
 -1       384 1.49797E-02-3.58707E-05-2.48221E-03
 -1       385 1.65079E-02 1.09620E-04-2.76405E-05
 -1       386 1.65307E-02-3.51739E-05-2.48484E-03
 -1       387 1.80630E-02 1.10416E-04-2.76470E-05
 -1       388 1.80851E-02-3.45366E-05-2.48748E-03
 -1       389 1.96222E-02 1.11324E-04-2.76426E-05
 -1       390 1.96424E-02-3.40160E-05-2.48973E-03
 -1       391 2.11853E-02 1.12461E-04-2.75802E-05
 -1       392 2.12022E-02-3.35066E-05-2.49005E-03
 -1       393 2.27499E-02 1.13817E-04-2.73657E-05
 -1       394 2.27654E-02-3.24053E-05-2.48472E-03
 -1       395 2.43070E-02 1.15451E-04-2.67598E-05
 -1       396 2.43393E-02-2.70499E-05-2.46834E-03
 -1       397 2.58350E-02 1.14583E-04-2.62419E-05
 -1       398 2.59463E-02-1.22534E-05-2.44215E-03
 -1       399 2.73123E-02 9.70110E-05-2.60299E-05
 -1       400 2.76215E-02 3.07866E-05-2.44504E-03
 -1       401 2.88525E-02-2.14734E-05-3.78510E-05
 -1       402 2.96016E-02-6.60229E-05-2.60650E-03
 -1       403 1.05035E-03 9.29663E-05-8.80504E-06
 -1       404 1.70583E-03-9.16452E-07-1.86290E-03
 -1       405 2.53809E-03 7.73423E-05-2.54525E-05
 -1       406 2.94755E-03-2.98740E-05-2.28964E-03
 -1       407 4.12540E-03 5.74655E-05-2.80608E-05
 -1       408 4.30636E-03-2.83995E-05-2.40910E-03
 -1       409 5.70041E-03 5.33932E-05-2.84979E-05
 -1       410 5.76610E-03-1.92069E-05-2.41195E-03
 -1       411 7.25137E-03 5.35460E-05-2.79689E-05
 -1       412 7.27729E-03-1.48562E-05-2.39964E-03
 -1       413 8.79006E-03 5.40866E-05-2.76942E-05
 -1       414 8.80857E-03-1.34479E-05-2.39183E-03
 -1       415 1.03269E-02 5.46687E-05-2.75705E-05
 -1       416 1.03466E-02-1.29514E-05-2.39014E-03
 -1       417 1.18663E-02 5.51560E-05-2.75386E-05
 -1       418 1.18878E-02-1.26507E-05-2.39143E-03
 -1       419 1.34095E-02 5.55770E-05-2.75363E-05
 -1       420 1.34320E-02-1.23380E-05-2.39375E-03
 -1       421 1.49567E-02 5.59661E-05-2.75408E-05
 -1       422 1.49795E-02-1.19956E-05-2.39630E-03
 -1       423 1.65077E-02 5.63482E-05-2.75469E-05
 -1       424 1.65305E-02-1.16480E-05-2.39892E-03
 -1       425 1.80628E-02 5.67466E-05-2.75529E-05
 -1       426 1.80849E-02-1.13309E-05-2.40153E-03
 -1       427 1.96220E-02 5.72029E-05-2.75472E-05
 -1       428 1.96422E-02-1.10680E-05-2.40370E-03
 -1       429 2.11851E-02 5.77598E-05-2.74841E-05
 -1       430 2.12019E-02-1.08340E-05-2.40391E-03
 -1       431 2.27494E-02 5.84549E-05-2.72681E-05
 -1       432 2.27646E-02-1.01760E-05-2.39844E-03
 -1       433 2.43067E-02 5.90993E-05-2.67051E-05
 -1       434 2.43380E-02-7.89511E-06-2.38297E-03
 -1       435 2.58378E-02 6.02531E-05-2.61062E-05
 -1       436 2.59439E-02 2.39402E-06-2.35966E-03
 -1       437 2.73303E-02 4.58137E-05-2.63892E-05
 -1       438 2.76490E-02 1.85580E-05-2.37845E-03
 -1       439 2.88090E-02-1.11006E-05-3.74334E-05
 -1       440 2.95403E-02-4.51949E-05-2.53064E-03
 -1       441 1.04856E-03 6.02979E-12-8.50045E-06
 -1       442 1.69973E-03 4.04087E-12-1.83867E-03
 -1       443 2.53737E-03 1.73107E-11-2.52484E-05
 -1       444 2.94782E-03 1.48912E-11-2.25772E-03
 -1       445 4.12706E-03 3.19246E-11-2.79345E-05
 -1       446 4.30804E-03 2.96478E-11-2.38003E-03
 -1       447 5.70086E-03 4.85873E-11-2.83878E-05
 -1       448 5.76595E-03 4.68098E-11-2.38431E-03
 -1       449 7.25123E-03 6.67391E-11-2.78731E-05
 -1       450 7.27700E-03 6.53471E-11-2.37266E-03
 -1       451 8.78998E-03 8.55619E-11-2.75983E-05
 -1       452 8.80843E-03 8.45005E-11-2.36496E-03
 -1       453 1.03269E-02 1.04389E-10-2.74757E-05
 -1       454 1.03465E-02 1.03691E-10-2.36326E-03
 -1       455 1.18663E-02 1.22935E-10-2.74450E-05
 -1       456 1.18878E-02 1.22477E-10-2.36452E-03
 -1       457 1.34095E-02 1.40801E-10-2.74420E-05
 -1       458 1.34320E-02 1.40529E-10-2.36683E-03
 -1       459 1.49566E-02 1.57720E-10-2.74464E-05
 -1       460 1.49795E-02 1.57596E-10-2.36938E-03
 -1       461 1.65077E-02 1.73519E-10-2.74524E-05
 -1       462 1.65305E-02 1.73494E-10-2.37199E-03
 -1       463 1.80628E-02 1.88064E-10-2.74581E-05
 -1       464 1.80848E-02 1.88097E-10-2.37459E-03
 -1       465 1.96220E-02 2.01277E-10-2.74524E-05
 -1       466 1.96422E-02 2.01320E-10-2.37673E-03
 -1       467 2.11850E-02 2.13091E-10-2.73868E-05
 -1       468 2.12018E-02 2.13127E-10-2.37691E-03
 -1       469 2.27493E-02 2.23522E-10-2.71785E-05
 -1       470 2.27645E-02 2.23523E-10-2.37138E-03
 -1       471 2.43062E-02 2.32626E-10-2.66044E-05
 -1       472 2.43369E-02 2.32567E-10-2.35629E-03
 -1       473 2.58402E-02 2.40493E-10-2.60515E-05
 -1       474 2.59458E-02 2.40373E-10-2.33410E-03
 -1       475 2.73328E-02 2.47504E-10-2.63266E-05
 -1       476 2.76550E-02 2.47122E-10-2.35755E-03
 -1       477 2.87940E-02 2.52961E-10-3.75945E-05
 -1       478 2.95152E-02 2.53087E-10-2.50356E-03
 -1       479 1.05035E-03-9.29663E-05-8.80504E-06
 -1       480 1.70583E-03 9.16461E-07-1.86290E-03
 -1       481 2.53809E-03-7.73422E-05-2.54525E-05
 -1       482 2.94755E-03 2.98740E-05-2.28964E-03
 -1       483 4.12540E-03-5.74654E-05-2.80608E-05
 -1       484 4.30636E-03 2.83996E-05-2.40910E-03
 -1       485 5.70041E-03-5.33931E-05-2.84979E-05
 -1       486 5.76610E-03 1.92070E-05-2.41195E-03
 -1       487 7.25137E-03-5.35458E-05-2.79689E-05
 -1       488 7.27729E-03 1.48563E-05-2.39964E-03
 -1       489 8.79006E-03-5.40864E-05-2.76942E-05
 -1       490 8.80857E-03 1.34481E-05-2.39183E-03
 -1       491 1.03269E-02-5.46685E-05-2.75705E-05
 -1       492 1.03466E-02 1.29516E-05-2.39014E-03
 -1       493 1.18663E-02-5.51558E-05-2.75386E-05
 -1       494 1.18878E-02 1.26509E-05-2.39143E-03
 -1       495 1.34095E-02-5.55767E-05-2.75363E-05
 -1       496 1.34320E-02 1.23383E-05-2.39375E-03
 -1       497 1.49567E-02-5.59658E-05-2.75408E-05
 -1       498 1.49795E-02 1.19960E-05-2.39630E-03
 -1       499 1.65077E-02-5.63479E-05-2.75469E-05
 -1       500 1.65305E-02 1.16483E-05-2.39892E-03
 -1       501 1.80628E-02-5.67462E-05-2.75529E-05
 -1       502 1.80849E-02 1.13313E-05-2.40153E-03
 -1       503 1.96220E-02-5.72025E-05-2.75472E-05
 -1       504 1.96422E-02 1.10684E-05-2.40370E-03
 -1       505 2.11851E-02-5.77593E-05-2.74841E-05
 -1       506 2.12019E-02 1.08344E-05-2.40391E-03
 -1       507 2.27494E-02-5.84544E-05-2.72681E-05
 -1       508 2.27646E-02 1.01765E-05-2.39844E-03
 -1       509 2.43067E-02-5.90988E-05-2.67051E-05
 -1       510 2.43380E-02 7.89558E-06-2.38297E-03
 -1       511 2.58378E-02-6.02526E-05-2.61062E-05
 -1       512 2.59439E-02-2.39354E-06-2.35966E-03
 -1       513 2.73303E-02-4.58132E-05-2.63892E-05
 -1       514 2.76490E-02-1.85575E-05-2.37845E-03
 -1       515 2.88090E-02 1.11011E-05-3.74334E-05
 -1       516 2.95403E-02 4.51954E-05-2.53064E-03
 -1       517 1.05863E-03-1.89171E-04-9.71745E-06
 -1       518 1.72594E-03 1.79683E-05-1.94533E-03
 -1       519 2.53778E-03-1.47975E-04-2.56545E-05
 -1       520 2.94260E-03 7.82916E-05-2.39313E-03
 -1       521 4.11956E-03-1.11104E-04-2.83258E-05
 -1       522 4.30298E-03 6.75094E-05-2.50118E-03
 -1       523 5.69977E-03-1.04173E-04-2.85947E-05
 -1       524 5.76730E-03 4.96362E-05-2.49996E-03
 -1       525 7.25163E-03-1.03937E-04-2.80783E-05
 -1       526 7.27807E-03 4.15568E-05-2.48559E-03
 -1       527 8.79038E-03-1.05105E-04-2.77829E-05
 -1       528 8.80905E-03 3.87436E-05-2.47757E-03
 -1       529 1.03272E-02-1.06261E-04-2.76615E-05
 -1       530 1.03468E-02 3.77888E-05-2.47590E-03
 -1       531 1.18665E-02-1.07240E-04-2.76313E-05
 -1       532 1.18880E-02 3.71828E-05-2.47727E-03
 -1       533 1.34097E-02-1.08080E-04-2.76294E-05
 -1       534 1.34322E-02 3.65576E-05-2.47963E-03
 -1       535 1.49568E-02-1.08857E-04-2.76342E-05
 -1       536 1.49797E-02 3.58710E-05-2.48221E-03
 -1       537 1.65079E-02-1.09620E-04-2.76405E-05
 -1       538 1.65307E-02 3.51742E-05-2.48484E-03
 -1       539 1.80630E-02-1.10415E-04-2.76470E-05
 -1       540 1.80851E-02 3.45370E-05-2.48748E-03
 -1       541 1.96222E-02-1.11324E-04-2.76426E-05
 -1       542 1.96424E-02 3.40164E-05-2.48973E-03
 -1       543 2.11853E-02-1.12460E-04-2.75802E-05
 -1       544 2.12022E-02 3.35071E-05-2.49005E-03
 -1       545 2.27499E-02-1.13816E-04-2.73657E-05
 -1       546 2.27654E-02 3.24057E-05-2.48472E-03
 -1       547 2.43070E-02-1.15450E-04-2.67598E-05
 -1       548 2.43393E-02 2.70503E-05-2.46834E-03
 -1       549 2.58350E-02-1.14583E-04-2.62419E-05
 -1       550 2.59463E-02 1.22539E-05-2.44215E-03
 -1       551 2.73123E-02-9.70105E-05-2.60299E-05
 -1       552 2.76215E-02-3.07861E-05-2.44504E-03
 -1       553 2.88525E-02 2.14739E-05-3.78510E-05
 -1       554 2.96016E-02 6.60234E-05-2.60650E-03
 -1       555 1.06946E-03 1.90323E-04-2.61249E-04
 -1       556 2.55543E-03 1.49424E-04-4.14348E-04
 -1       557 4.13433E-03 1.13566E-04-4.54365E-04
 -1       558 5.70961E-03 1.07349E-04-4.52306E-04
 -1       559 7.25872E-03 1.07454E-04-4.45224E-04
 -1       560 8.79672E-03 1.08699E-04-4.41510E-04
 -1       561 1.03334E-02 1.09848E-04-4.40412E-04
 -1       562 1.18728E-02 1.10810E-04-4.40464E-04
 -1       563 1.34160E-02 1.11637E-04-4.40875E-04
 -1       564 1.49632E-02 1.12407E-04-4.41352E-04
 -1       565 1.65142E-02 1.13164E-04-4.41847E-04
 -1       566 1.80693E-02 1.13951E-04-4.42357E-04
 -1       567 1.96285E-02 1.14846E-04-4.42749E-04
 -1       568 2.11915E-02 1.15948E-04-4.42464E-04
 -1       569 2.27561E-02 1.17363E-04-4.40035E-04
 -1       570 2.43149E-02 1.18982E-04-4.32638E-04
 -1       571 2.58470E-02 1.19685E-04-4.20470E-04
 -1       572 2.73333E-02 1.00239E-04-4.21217E-04
 -1       573 2.88842E-02-7.90933E-06-5.50256E-04
 -1       574 1.06147E-03 9.39397E-05-2.54998E-04
 -1       575 2.55583E-03 7.86298E-05-4.07476E-04
 -1       576 4.13997E-03 5.92114E-05-4.48541E-04
 -1       577 5.71010E-03 5.55336E-05-4.47557E-04
 -1       578 7.25840E-03 5.58498E-05-4.40963E-04
 -1       579 8.79637E-03 5.64281E-05-4.37391E-04
 -1       580 1.03332E-02 5.70063E-05-4.36307E-04
 -1       581 1.18726E-02 5.74849E-05-4.36347E-04
 -1       582 1.34158E-02 5.78995E-05-4.36747E-04
 -1       583 1.49630E-02 5.82848E-05-4.37219E-04
 -1       584 1.65141E-02 5.86639E-05-4.37710E-04
 -1       585 1.80691E-02 5.90581E-05-4.38210E-04
 -1       586 1.96282E-02 5.95052E-05-4.38586E-04
 -1       587 2.11911E-02 6.00563E-05-4.38278E-04
 -1       588 2.27556E-02 6.07367E-05-4.35904E-04
 -1       589 2.43142E-02 6.15345E-05-4.28768E-04
 -1       590 2.58504E-02 6.29231E-05-4.17574E-04
 -1       591 2.73482E-02 4.91828E-05-4.20698E-04
 -1       592 2.88496E-02-6.47768E-06-5.42763E-04
 -1       593 1.05980E-03 5.90496E-12-2.52095E-04
 -1       594 2.55515E-03 1.72659E-11-4.04181E-04
 -1       595 4.14156E-03 3.17455E-11-4.45546E-04
 -1       596 5.71049E-03 4.84315E-11-4.44918E-04
 -1       597 7.25823E-03 6.65576E-11-4.38485E-04
 -1       598 8.79627E-03 8.53515E-11-4.34962E-04
 -1       599 1.03331E-02 1.04208E-10-4.33884E-04
 -1       600 1.18725E-02 1.22749E-10-4.33920E-04
 -1       601 1.34158E-02 1.40617E-10-4.34317E-04
 -1       602 1.49629E-02 1.57541E-10-4.34788E-04
 -1       603 1.65140E-02 1.73342E-10-4.35276E-04
 -1       604 1.80690E-02 1.87888E-10-4.35774E-04
 -1       605 1.96282E-02 2.01098E-10-4.36143E-04
 -1       606 2.11910E-02 2.12914E-10-4.35832E-04
 -1       607 2.27554E-02 2.23348E-10-4.33469E-04
 -1       608 2.43138E-02 2.32451E-10-4.26442E-04
 -1       609 2.58525E-02 2.40351E-10-4.15553E-04
 -1       610 2.73511E-02 2.47222E-10-4.19384E-04
 -1       611 2.88346E-02 2.53023E-10-5.39288E-04
 -1       612 1.06147E-03-9.39397E-05-2.54998E-04
 -1       613 2.55583E-03-7.86298E-05-4.07476E-04
 -1       614 4.13997E-03-5.92113E-05-4.48541E-04
 -1       615 5.71010E-03-5.55335E-05-4.47557E-04
 -1       616 7.25840E-03-5.58497E-05-4.40963E-04
 -1       617 8.79637E-03-5.64279E-05-4.37391E-04
 -1       618 1.03332E-02-5.70061E-05-4.36307E-04
 -1       619 1.18726E-02-5.74846E-05-4.36347E-04
 -1       620 1.34158E-02-5.78992E-05-4.36747E-04
 -1       621 1.49630E-02-5.82845E-05-4.37219E-04
 -1       622 1.65141E-02-5.86635E-05-4.37710E-04
 -1       623 1.80691E-02-5.90578E-05-4.38210E-04
 -1       624 1.96282E-02-5.95048E-05-4.38586E-04
 -1       625 2.11911E-02-6.00559E-05-4.38278E-04
 -1       626 2.27556E-02-6.07362E-05-4.35904E-04
 -1       627 2.43142E-02-6.15340E-05-4.28768E-04
 -1       628 2.58504E-02-6.29226E-05-4.17574E-04
 -1       629 2.73482E-02-4.91823E-05-4.20698E-04
 -1       630 2.88496E-02 6.47818E-06-5.42763E-04
 -1       631 1.06946E-03-1.90323E-04-2.61249E-04
 -1       632 2.55543E-03-1.49424E-04-4.14348E-04
 -1       633 4.13433E-03-1.13566E-04-4.54365E-04
 -1       634 5.70961E-03-1.07349E-04-4.52306E-04
 -1       635 7.25872E-03-1.07454E-04-4.45224E-04
 -1       636 8.79672E-03-1.08699E-04-4.41510E-04
 -1       637 1.03334E-02-1.09848E-04-4.40412E-04
 -1       638 1.18728E-02-1.10810E-04-4.40464E-04
 -1       639 1.34160E-02-1.11637E-04-4.40875E-04
 -1       640 1.49632E-02-1.12407E-04-4.41352E-04
 -1       641 1.65142E-02-1.13164E-04-4.41847E-04
 -1       642 1.80693E-02-1.13950E-04-4.42357E-04
 -1       643 1.96285E-02-1.14846E-04-4.42749E-04
 -1       644 2.11915E-02-1.15947E-04-4.42464E-04
 -1       645 2.27561E-02-1.17363E-04-4.40035E-04
 -1       646 2.43149E-02-1.18982E-04-4.32638E-04
 -1       647 2.58470E-02-1.19685E-04-4.20470E-04
 -1       648 2.73333E-02-1.00238E-04-4.21217E-04
 -1       649 2.88842E-02 7.90984E-06-5.50256E-04
 -1       650 1.08983E-03 1.94119E-04-5.24620E-04
 -1       651 2.59291E-03 1.53512E-04-8.10179E-04
 -1       652 4.16345E-03 1.20369E-04-8.80658E-04
 -1       653 5.72415E-03 1.16373E-04-8.75569E-04
 -1       654 7.26599E-03 1.17427E-04-8.62918E-04
 -1       655 8.80199E-03 1.18889E-04-8.56374E-04
 -1       656 1.03384E-02 1.20038E-04-8.54482E-04
 -1       657 1.18779E-02 1.20968E-04-8.54669E-04
 -1       658 1.34213E-02 1.21775E-04-8.55492E-04
 -1       659 1.49685E-02 1.22534E-04-8.56433E-04
 -1       660 1.65195E-02 1.23284E-04-8.57404E-04
 -1       661 1.80745E-02 1.24054E-04-8.58403E-04
 -1       662 1.96334E-02 1.24910E-04-8.59196E-04
 -1       663 2.11962E-02 1.25970E-04-8.58766E-04
 -1       664 2.27613E-02 1.27357E-04-8.54452E-04
 -1       665 2.43242E-02 1.29602E-04-8.41668E-04
 -1       666 2.58703E-02 1.32019E-04-8.18052E-04
 -1       667 2.73830E-02 1.16133E-04-8.23099E-04
 -1       668 2.88874E-02 1.20958E-05-1.01333E-03
 -1       669 1.08310E-03 9.74219E-05-5.08670E-04
 -1       670 2.59338E-03 8.24007E-05-7.91678E-04
 -1       671 4.16855E-03 6.43947E-05-8.64237E-04
 -1       672 5.72425E-03 6.18704E-05-8.61220E-04
 -1       673 7.26556E-03 6.26621E-05-8.49492E-04
 -1       674 8.80163E-03 6.33428E-05-8.43204E-04
 -1       675 1.03382E-02 6.39204E-05-8.41335E-04
 -1       676 1.18777E-02 6.43826E-05-8.41498E-04
 -1       677 1.34211E-02 6.47864E-05-8.42302E-04
 -1       678 1.49683E-02 6.51666E-05-8.43233E-04
 -1       679 1.65193E-02 6.55418E-05-8.44196E-04
 -1       680 1.80743E-02 6.59274E-05-8.45179E-04
 -1       681 1.96332E-02 6.63564E-05-8.45938E-04
 -1       682 2.11959E-02 6.68806E-05-8.45472E-04
 -1       683 2.27607E-02 6.75592E-05-8.41218E-04
 -1       684 2.43233E-02 6.86329E-05-8.28984E-04
 -1       685 2.58729E-02 7.09211E-05-8.07157E-04
 -1       686 2.73968E-02 5.90461E-05-8.16396E-04
 -1       687 2.88566E-02 5.42545E-06-9.98357E-04
 -1       688 1.08196E-03 5.71225E-12-5.01489E-04
 -1       689 2.59280E-03 1.70238E-11-7.83240E-04
 -1       690 4.16997E-03 3.15033E-11-8.56419E-04
 -1       691 5.72452E-03 4.82295E-11-8.54066E-04
 -1       692 7.26534E-03 6.63744E-11-8.42647E-04
 -1       693 8.80152E-03 8.51881E-11-8.36450E-04
 -1       694 1.03381E-02 1.04082E-10-8.34590E-04
 -1       695 1.18777E-02 1.22641E-10-8.34747E-04
 -1       696 1.34210E-02 1.40523E-10-8.35544E-04
 -1       697 1.49682E-02 1.57461E-10-8.36472E-04
 -1       698 1.65193E-02 1.73270E-10-8.37432E-04
 -1       699 1.80742E-02 1.87821E-10-8.38409E-04
 -1       700 1.96331E-02 2.01027E-10-8.39157E-04
 -1       701 2.11958E-02 2.12843E-10-8.38680E-04
 -1       702 2.27605E-02 2.23274E-10-8.34455E-04
 -1       703 2.43229E-02 2.32376E-10-8.22396E-04
 -1       704 2.58748E-02 2.40274E-10-8.01239E-04
 -1       705 2.73995E-02 2.47091E-10-8.11562E-04
 -1       706 2.88438E-02 2.52997E-10-9.90722E-04
 -1       707 1.08310E-03-9.74219E-05-5.08670E-04
 -1       708 2.59338E-03-8.24007E-05-7.91678E-04
 -1       709 4.16855E-03-6.43947E-05-8.64237E-04
 -1       710 5.72425E-03-6.18703E-05-8.61220E-04
 -1       711 7.26556E-03-6.26619E-05-8.49492E-04
 -1       712 8.80163E-03-6.33426E-05-8.43204E-04
 -1       713 1.03382E-02-6.39202E-05-8.41335E-04
 -1       714 1.18777E-02-6.43824E-05-8.41498E-04
 -1       715 1.34211E-02-6.47862E-05-8.42302E-04
 -1       716 1.49683E-02-6.51663E-05-8.43233E-04
 -1       717 1.65193E-02-6.55415E-05-8.44196E-04
 -1       718 1.80743E-02-6.59271E-05-8.45179E-04
 -1       719 1.96332E-02-6.63560E-05-8.45938E-04
 -1       720 2.11959E-02-6.68802E-05-8.45472E-04
 -1       721 2.27607E-02-6.75588E-05-8.41218E-04
 -1       722 2.43233E-02-6.86324E-05-8.28984E-04
 -1       723 2.58729E-02-7.09206E-05-8.07157E-04
 -1       724 2.73968E-02-5.90456E-05-8.16396E-04
 -1       725 2.88566E-02-5.42494E-06-9.98357E-04
 -1       726 1.08983E-03-1.94119E-04-5.24620E-04
 -1       727 2.59291E-03-1.53512E-04-8.10179E-04
 -1       728 4.16345E-03-1.20369E-04-8.80658E-04
 -1       729 5.72415E-03-1.16373E-04-8.75569E-04
 -1       730 7.26599E-03-1.17427E-04-8.62918E-04
 -1       731 8.80199E-03-1.18889E-04-8.56374E-04
 -1       732 1.03384E-02-1.20037E-04-8.54482E-04
 -1       733 1.18779E-02-1.20968E-04-8.54669E-04
 -1       734 1.34213E-02-1.21774E-04-8.55492E-04
 -1       735 1.49685E-02-1.22534E-04-8.56433E-04
 -1       736 1.65195E-02-1.23283E-04-8.57404E-04
 -1       737 1.80745E-02-1.24053E-04-8.58403E-04
 -1       738 1.96334E-02-1.24910E-04-8.59196E-04
 -1       739 2.11962E-02-1.25970E-04-8.58766E-04
 -1       740 2.27613E-02-1.27356E-04-8.54452E-04
 -1       741 2.43242E-02-1.29602E-04-8.41668E-04
 -1       742 2.58703E-02-1.32019E-04-8.18052E-04
 -1       743 2.73830E-02-1.16133E-04-8.23099E-04
 -1       744 2.88874E-02-1.20953E-05-1.01333E-03
 -1       745 1.12668E-03 1.99331E-04-8.12676E-04
 -1       746 2.65442E-03 1.58237E-04-1.21848E-03
 -1       747 4.20410E-03 1.30088E-04-1.30667E-03
 -1       748 5.74069E-03 1.29948E-04-1.29815E-03
 -1       749 7.27270E-03 1.32431E-04-1.28194E-03
 -1       750 8.80608E-03 1.34186E-04-1.27349E-03
 -1       751 1.03422E-02 1.35333E-04-1.27114E-03
 -1       752 1.18820E-02 1.36214E-04-1.27155E-03
 -1       753 1.34255E-02 1.36990E-04-1.27278E-03
 -1       754 1.49728E-02 1.37737E-04-1.27416E-03
 -1       755 1.65238E-02 1.38477E-04-1.27559E-03
 -1       756 1.80786E-02 1.39223E-04-1.27705E-03
 -1       757 1.96372E-02 1.40023E-04-1.27824E-03
 -1       758 2.11996E-02 1.41002E-04-1.27781E-03
 -1       759 2.27653E-02 1.42381E-04-1.27227E-03
 -1       760 2.43330E-02 1.45302E-04-1.25578E-03
 -1       761 2.59011E-02 1.50747E-04-1.22570E-03
 -1       762 2.74484E-02 1.41115E-04-1.22304E-03
 -1       763 2.89430E-02 4.18554E-05-1.44729E-03
 -1       764 1.12285E-03 1.02345E-04-7.77201E-04
 -1       765 2.65511E-03 8.70068E-05-1.17756E-03
 -1       766 4.20821E-03 7.15673E-05-1.26913E-03
 -1       767 5.74024E-03 7.10724E-05-1.26365E-03
 -1       768 7.27208E-03 7.25595E-05-1.24873E-03
 -1       769 8.80568E-03 7.33892E-05-1.24062E-03
 -1       770 1.03420E-02 7.39630E-05-1.23830E-03
 -1       771 1.18818E-02 7.43998E-05-1.23866E-03
 -1       772 1.34253E-02 7.47882E-05-1.23987E-03
 -1       773 1.49726E-02 7.51620E-05-1.24124E-03
 -1       774 1.65236E-02 7.55327E-05-1.24265E-03
 -1       775 1.80784E-02 7.59063E-05-1.24409E-03
 -1       776 1.96370E-02 7.63068E-05-1.24524E-03
 -1       777 2.11993E-02 7.67861E-05-1.24475E-03
 -1       778 2.27647E-02 7.74684E-05-1.23927E-03
 -1       779 2.43319E-02 7.88499E-05-1.22352E-03
 -1       780 2.59023E-02 8.26579E-05-1.19600E-03
 -1       781 2.74615E-02 7.43438E-05-1.19931E-03
 -1       782 2.89182E-02 2.20880E-05-1.41689E-03
 -1       783 1.12279E-03 5.47366E-12-7.62419E-04
 -1       784 2.65469E-03 1.66567E-11-1.16024E-03
 -1       785 4.20934E-03 3.11679E-11-1.25284E-03
 -1       786 5.74032E-03 4.79578E-11-1.24830E-03
 -1       787 7.27181E-03 6.61554E-11-1.23383E-03
 -1       788 8.80556E-03 8.50169E-11-1.22584E-03
 -1       789 1.03419E-02 1.03961E-10-1.22352E-03
 -1       790 1.18817E-02 1.22555E-10-1.22388E-03
 -1       791 1.34252E-02 1.40462E-10-1.22507E-03
 -1       792 1.49725E-02 1.57421E-10-1.22644E-03
 -1       793 1.65236E-02 1.73245E-10-1.22785E-03
 -1       794 1.80783E-02 1.87803E-10-1.22928E-03
 -1       795 1.96369E-02 2.01011E-10-1.23041E-03
 -1       796 2.11991E-02 2.12825E-10-1.22991E-03
 -1       797 2.27645E-02 2.23250E-10-1.22446E-03
 -1       798 2.43313E-02 2.32347E-10-1.20898E-03
 -1       799 2.59037E-02 2.40229E-10-1.18230E-03
 -1       800 2.74641E-02 2.47034E-10-1.18754E-03
 -1       801 2.89072E-02 2.52979E-10-1.40194E-03
 -1       802 1.12285E-03-1.02345E-04-7.77201E-04
 -1       803 2.65511E-03-8.70068E-05-1.17756E-03
 -1       804 4.20821E-03-7.15672E-05-1.26913E-03
 -1       805 5.74024E-03-7.10724E-05-1.26365E-03
 -1       806 7.27208E-03-7.25594E-05-1.24873E-03
 -1       807 8.80568E-03-7.33890E-05-1.24062E-03
 -1       808 1.03420E-02-7.39628E-05-1.23830E-03
 -1       809 1.18818E-02-7.43996E-05-1.23866E-03
 -1       810 1.34253E-02-7.47879E-05-1.23987E-03
 -1       811 1.49726E-02-7.51617E-05-1.24124E-03
 -1       812 1.65236E-02-7.55324E-05-1.24265E-03
 -1       813 1.80784E-02-7.59059E-05-1.24409E-03
 -1       814 1.96370E-02-7.63064E-05-1.24524E-03
 -1       815 2.11993E-02-7.67856E-05-1.24475E-03
 -1       816 2.27647E-02-7.74680E-05-1.23927E-03
 -1       817 2.43319E-02-7.88494E-05-1.22352E-03
 -1       818 2.59023E-02-8.26574E-05-1.19600E-03
 -1       819 2.74615E-02-7.43433E-05-1.19931E-03
 -1       820 2.89182E-02-2.20875E-05-1.41689E-03
 -1       821 1.12668E-03-1.99331E-04-8.12676E-04
 -1       822 2.65442E-03-1.58237E-04-1.21848E-03
 -1       823 4.20410E-03-1.30088E-04-1.30667E-03
 -1       824 5.74069E-03-1.29948E-04-1.29815E-03
 -1       825 7.27270E-03-1.32431E-04-1.28194E-03
 -1       826 8.80608E-03-1.34186E-04-1.27349E-03
 -1       827 1.03422E-02-1.35332E-04-1.27114E-03
 -1       828 1.18820E-02-1.36214E-04-1.27155E-03
 -1       829 1.34255E-02-1.36990E-04-1.27278E-03
 -1       830 1.49728E-02-1.37737E-04-1.27416E-03
 -1       831 1.65238E-02-1.38477E-04-1.27559E-03
 -1       832 1.80786E-02-1.39223E-04-1.27705E-03
 -1       833 1.96372E-02-1.40023E-04-1.27824E-03
 -1       834 2.11996E-02-1.41001E-04-1.27781E-03
 -1       835 2.27653E-02-1.42381E-04-1.27227E-03
 -1       836 2.43330E-02-1.45302E-04-1.25578E-03
 -1       837 2.59011E-02-1.50746E-04-1.22570E-03
 -1       838 2.74484E-02-1.41114E-04-1.22304E-03
 -1       839 2.89430E-02-4.18549E-05-1.44729E-03
 -1       840 1.19572E-03 1.99177E-04-1.14034E-03
 -1       841 2.74623E-03 1.53758E-04-1.63882E-03
 -1       842 4.24889E-03 1.34040E-04-1.72825E-03
 -1       843 5.75536E-03 1.39468E-04-1.71874E-03
 -1       844 7.27794E-03 1.43569E-04-1.70139E-03
 -1       845 8.80866E-03 1.45674E-04-1.69206E-03
 -1       846 1.03448E-02 1.46794E-04-1.68969E-03
 -1       847 1.18849E-02 1.47604E-04-1.69038E-03
 -1       848 1.34287E-02 1.48341E-04-1.69201E-03
 -1       849 1.49761E-02 1.49072E-04-1.69382E-03
 -1       850 1.65271E-02 1.49802E-04-1.69567E-03
 -1       851 1.80817E-02 1.50519E-04-1.69756E-03
 -1       852 1.96398E-02 1.51243E-04-1.69914E-03
 -1       853 2.12016E-02 1.52097E-04-1.69890E-03
 -1       854 2.27676E-02 1.53477E-04-1.69284E-03
 -1       855 2.43400E-02 1.56974E-04-1.67471E-03
 -1       856 2.59278E-02 1.66231E-04-1.64371E-03
 -1       857 2.75307E-02 1.67517E-04-1.62789E-03
 -1       858 2.90787E-02 7.08141E-05-1.85483E-03
 -1       859 1.19730E-03 1.01444E-04-1.07067E-03
 -1       860 2.74686E-03 8.32815E-05-1.56042E-03
 -1       861 4.25173E-03 7.24027E-05-1.65520E-03
 -1       862 5.75430E-03 7.46895E-05-1.64941E-03
 -1       863 7.27712E-03 7.70179E-05-1.63369E-03
 -1       864 8.80823E-03 7.80222E-05-1.62472E-03
 -1       865 1.03446E-02 7.85814E-05-1.62237E-03
 -1       866 1.18847E-02 7.89820E-05-1.62300E-03
 -1       867 1.34285E-02 7.93499E-05-1.62460E-03
 -1       868 1.49759E-02 7.97161E-05-1.62639E-03
 -1       869 1.65269E-02 8.00814E-05-1.62823E-03
 -1       870 1.80815E-02 8.04397E-05-1.63009E-03
 -1       871 1.96396E-02 8.08022E-05-1.63160E-03
 -1       872 2.12013E-02 8.12154E-05-1.63129E-03
 -1       873 2.27669E-02 8.19028E-05-1.62524E-03
 -1       874 2.43384E-02 8.35489E-05-1.60804E-03
 -1       875 2.59275E-02 8.93718E-05-1.57988E-03
 -1       876 2.75431E-02 8.67915E-05-1.57282E-03
 -1       877 2.90580E-02 3.40912E-05-1.79653E-03
 -1       878 1.19826E-03 5.17046E-12-1.04667E-03
 -1       879 2.74664E-03 1.61853E-11-1.53253E-03
 -1       880 4.25254E-03 3.07416E-11-1.62871E-03
 -1       881 5.75421E-03 4.76225E-11-1.62415E-03
 -1       882 7.27677E-03 6.59041E-11-1.60895E-03
 -1       883 8.80810E-03 8.48390E-11-1.60013E-03
 -1       884 1.03445E-02 1.03848E-10-1.59778E-03
 -1       885 1.18847E-02 1.22493E-10-1.59840E-03
 -1       886 1.34285E-02 1.40438E-10-1.59999E-03
 -1       887 1.49758E-02 1.57426E-10-1.60177E-03
 -1       888 1.65268E-02 1.73269E-10-1.60360E-03
 -1       889 1.80814E-02 1.87839E-10-1.60545E-03
 -1       890 1.96396E-02 2.01050E-10-1.60695E-03
 -1       891 2.12012E-02 2.12861E-10-1.60661E-03
 -1       892 2.27667E-02 2.23279E-10-1.60058E-03
 -1       893 2.43377E-02 2.32364E-10-1.58370E-03
 -1       894 2.59285E-02 2.40226E-10-1.55652E-03
 -1       895 2.75460E-02 2.47022E-10-1.55237E-03
 -1       896 2.90471E-02 2.52985E-10-1.77282E-03
 -1       897 1.19730E-03-1.01444E-04-1.07067E-03
 -1       898 2.74686E-03-8.32815E-05-1.56042E-03
 -1       899 4.25173E-03-7.24027E-05-1.65520E-03
 -1       900 5.75430E-03-7.46894E-05-1.64941E-03
 -1       901 7.27712E-03-7.70178E-05-1.63369E-03
 -1       902 8.80823E-03-7.80221E-05-1.62472E-03
 -1       903 1.03446E-02-7.85812E-05-1.62237E-03
 -1       904 1.18847E-02-7.89818E-05-1.62300E-03
 -1       905 1.34285E-02-7.93497E-05-1.62460E-03
 -1       906 1.49759E-02-7.97157E-05-1.62639E-03
 -1       907 1.65269E-02-8.00811E-05-1.62823E-03
 -1       908 1.80815E-02-8.04394E-05-1.63009E-03
 -1       909 1.96396E-02-8.08018E-05-1.63160E-03
 -1       910 2.12013E-02-8.12150E-05-1.63129E-03
 -1       911 2.27669E-02-8.19024E-05-1.62524E-03
 -1       912 2.43384E-02-8.35485E-05-1.60804E-03
 -1       913 2.59275E-02-8.93714E-05-1.57988E-03
 -1       914 2.75431E-02-8.67910E-05-1.57282E-03
 -1       915 2.90580E-02-3.40907E-05-1.79653E-03
 -1       916 1.19572E-03-1.99177E-04-1.14034E-03
 -1       917 2.74623E-03-1.53758E-04-1.63882E-03
 -1       918 4.24889E-03-1.34040E-04-1.72825E-03
 -1       919 5.75536E-03-1.39468E-04-1.71874E-03
 -1       920 7.27794E-03-1.43569E-04-1.70139E-03
 -1       921 8.80866E-03-1.45674E-04-1.69206E-03
 -1       922 1.03448E-02-1.46794E-04-1.68969E-03
 -1       923 1.18849E-02-1.47604E-04-1.69038E-03
 -1       924 1.34287E-02-1.48340E-04-1.69201E-03
 -1       925 1.49761E-02-1.49072E-04-1.69382E-03
 -1       926 1.65271E-02-1.49802E-04-1.69567E-03
 -1       927 1.80817E-02-1.50519E-04-1.69756E-03
 -1       928 1.96398E-02-1.51243E-04-1.69914E-03
 -1       929 2.12016E-02-1.52096E-04-1.69890E-03
 -1       930 2.27676E-02-1.53476E-04-1.69284E-03
 -1       931 2.43400E-02-1.56974E-04-1.67471E-03
 -1       932 2.59278E-02-1.66230E-04-1.64371E-03
 -1       933 2.75307E-02-1.67516E-04-1.62789E-03
 -1       934 2.90787E-02-7.08136E-05-1.85483E-03
 -1       935 1.34480E-03 1.62898E-04-1.51525E-03
 -1       936 2.86732E-03 1.03731E-04-2.04760E-03
 -1       937 4.28183E-03 9.94726E-05-2.12878E-03
 -1       938 5.76619E-03 1.10751E-04-2.12509E-03
 -1       939 7.27998E-03 1.16769E-04-2.10771E-03
 -1       940 8.80966E-03 1.19215E-04-2.09885E-03
 -1       941 1.03463E-02 1.20275E-04-2.09674E-03
 -1       942 1.18869E-02 1.20991E-04-2.09777E-03
 -1       943 1.34309E-02 1.21678E-04-2.09978E-03
 -1       944 1.49784E-02 1.22391E-04-2.10198E-03
 -1       945 1.65294E-02 1.23108E-04-2.10423E-03
 -1       946 1.80838E-02 1.23790E-04-2.10651E-03
 -1       947 1.96415E-02 1.24419E-04-2.10845E-03
 -1       948 2.12024E-02 1.25115E-04-2.10847E-03
 -1       949 2.27676E-02 1.26405E-04-2.10272E-03
 -1       950 2.43434E-02 1.30710E-04-2.08439E-03
 -1       951 2.59421E-02 1.42803E-04-2.05677E-03
 -1       952 2.76050E-02 1.64090E-04-2.03887E-03
 -1       953 2.93149E-02 5.72130E-05-2.23197E-03
 -1       954 1.34726E-03 6.67559E-05-1.40977E-03
 -1       955 2.86777E-03 4.43224E-05-1.93188E-03
 -1       956 4.28400E-03 3.97974E-05-2.02008E-03
 -1       957 5.76472E-03 4.54221E-05-2.02072E-03
 -1       958 7.27901E-03 4.86901E-05-2.00511E-03
 -1       959 8.80922E-03 4.98878E-05-1.99659E-03
 -1       960 1.03461E-02 5.04166E-05-1.99447E-03
 -1       961 1.18867E-02 5.07701E-05-1.99544E-03
 -1       962 1.34308E-02 5.11118E-05-1.99740E-03
 -1       963 1.49782E-02 5.14676E-05-1.99959E-03
 -1       964 1.65292E-02 5.18254E-05-2.00182E-03
 -1       965 1.80837E-02 5.21649E-05-2.00407E-03
 -1       966 1.96413E-02 5.24788E-05-2.00594E-03
 -1       967 2.12021E-02 5.28094E-05-2.00587E-03
 -1       968 2.27668E-02 5.34784E-05-2.00002E-03
 -1       969 2.43415E-02 5.54297E-05-1.98275E-03
 -1       970 2.59409E-02 6.32664E-05-1.95789E-03
 -1       971 2.76188E-02 6.97309E-05-1.95174E-03
 -1       972 2.92902E-02 1.23930E-05-2.14684E-03
 -1       973 1.34708E-03 4.73692E-12-1.39002E-03
 -1       974 2.86754E-03 1.55993E-11-1.90431E-03
 -1       975 4.28500E-03 3.02312E-11-1.99502E-03
 -1       976 5.76449E-03 4.72339E-11-1.99692E-03
 -1       977 7.27866E-03 6.56299E-11-1.98194E-03
 -1       978 8.80908E-03 8.46625E-11-1.97355E-03
 -1       979 1.03460E-02 1.03754E-10-1.97142E-03
 -1       980 1.18867E-02 1.22464E-10-1.97238E-03
 -1       981 1.34307E-02 1.40458E-10-1.97433E-03
 -1       982 1.49781E-02 1.57482E-10-1.97651E-03
 -1       983 1.65291E-02 1.73350E-10-1.97874E-03
 -1       984 1.80836E-02 1.87935E-10-1.98097E-03
 -1       985 1.96413E-02 2.01151E-10-1.98282E-03
 -1       986 2.12020E-02 2.12960E-10-1.98272E-03
 -1       987 2.27666E-02 2.23368E-10-1.97688E-03
 -1       988 2.43406E-02 2.32435E-10-1.95996E-03
 -1       989 2.59419E-02 2.40271E-10-1.93606E-03
 -1       990 2.76228E-02 2.47053E-10-1.93440E-03
 -1       991 2.92753E-02 2.53020E-10-2.12244E-03
 -1       992 1.34726E-03-6.67559E-05-1.40977E-03
 -1       993 2.86777E-03-4.43224E-05-1.93188E-03
 -1       994 4.28400E-03-3.97973E-05-2.02008E-03
 -1       995 5.76472E-03-4.54220E-05-2.02072E-03
 -1       996 7.27901E-03-4.86899E-05-2.00511E-03
 -1       997 8.80922E-03-4.98876E-05-1.99659E-03
 -1       998 1.03461E-02-5.04164E-05-1.99447E-03
 -1       999 1.18867E-02-5.07698E-05-1.99544E-03
 -1      1000 1.34308E-02-5.11116E-05-1.99740E-03
 -1      1001 1.49782E-02-5.14673E-05-1.99959E-03
 -1      1002 1.65292E-02-5.18251E-05-2.00182E-03
 -1      1003 1.80837E-02-5.21645E-05-2.00407E-03
 -1      1004 1.96413E-02-5.24784E-05-2.00594E-03
 -1      1005 2.12021E-02-5.28089E-05-2.00587E-03
 -1      1006 2.27668E-02-5.34779E-05-2.00002E-03
 -1      1007 2.43415E-02-5.54292E-05-1.98275E-03
 -1      1008 2.59409E-02-6.32659E-05-1.95789E-03
 -1      1009 2.76188E-02-6.97304E-05-1.95174E-03
 -1      1010 2.92902E-02-1.23925E-05-2.14684E-03
 -1      1011 1.34480E-03-1.62898E-04-1.51525E-03
 -1      1012 2.86732E-03-1.03731E-04-2.04760E-03
 -1      1013 4.28183E-03-9.94725E-05-2.12878E-03
 -1      1014 5.76619E-03-1.10750E-04-2.12509E-03
 -1      1015 7.27998E-03-1.16769E-04-2.10771E-03
 -1      1016 8.80966E-03-1.19215E-04-2.09885E-03
 -1      1017 1.03463E-02-1.20275E-04-2.09674E-03
 -1      1018 1.18869E-02-1.20990E-04-2.09777E-03
 -1      1019 1.34309E-02-1.21678E-04-2.09978E-03
 -1      1020 1.49784E-02-1.22391E-04-2.10198E-03
 -1      1021 1.65294E-02-1.23108E-04-2.10423E-03
 -1      1022 1.80838E-02-1.23790E-04-2.10651E-03
 -1      1023 1.96415E-02-1.24419E-04-2.10845E-03
 -1      1024 2.12024E-02-1.25114E-04-2.10847E-03
 -1      1025 2.27676E-02-1.26405E-04-2.10272E-03
 -1      1026 2.43434E-02-1.30709E-04-2.08439E-03
 -1      1027 2.59421E-02-1.42803E-04-2.05677E-03
 -1      1028 2.76050E-02-1.64090E-04-2.03887E-03
 -1      1029 2.93149E-02-5.72125E-05-2.23197E-03
 -1      1030 0.00000E+00 0.00000E+00 0.00000E+00
 -1      1031 0.00000E+00 0.00000E+00 0.00000E+00
 -1      1032 0.00000E+00 0.00000E+00 0.00000E+00
 -1      1033 0.00000E+00 0.00000E+00 0.00000E+00
 -1      1034 0.00000E+00 0.00000E+00 0.00000E+00
 -1      1035 0.00000E+00 0.00000E+00 0.00000E+00
 -1      1036 0.00000E+00 0.00000E+00 0.00000E+00
 -1      1037 0.00000E+00 0.00000E+00 0.00000E+00
 -1      1038 0.00000E+00 0.00000E+00 0.00000E+00
 -1      1039 0.00000E+00 0.00000E+00 0.00000E+00
 -1      1040 0.00000E+00 0.00000E+00 0.00000E+00
 -1      1041 0.00000E+00 0.00000E+00 0.00000E+00
 -1      1042 0.00000E+00 0.00000E+00 0.00000E+00
 -1      1043 0.00000E+00 0.00000E+00 0.00000E+00
 -1      1044 0.00000E+00 0.00000E+00 0.00000E+00
 -1      1045 0.00000E+00 0.00000E+00 0.00000E+00
 -1      1046 0.00000E+00 0.00000E+00 0.00000E+00
 -1      1047 0.00000E+00 0.00000E+00 0.00000E+00
 -1      1048 0.00000E+00 0.00000E+00 0.00000E+00
 -1      1049 0.00000E+00 0.00000E+00 0.00000E+00
 -1      1050 0.00000E+00 0.00000E+00 0.00000E+00
 -1      1051 0.00000E+00 0.00000E+00 0.00000E+00
 -1      1052 0.00000E+00 0.00000E+00 0.00000E+00
 -1      1053 0.00000E+00 0.00000E+00 0.00000E+00
 -1      1054 0.00000E+00 0.00000E+00 0.00000E+00
 -1      1055 0.00000E+00 0.00000E+00 0.00000E+00
 -1      1056-6.04201E-08-4.80243E-08-4.34730E-08
 -1      1057 1.30604E-08-2.36631E-09-5.39076E-09
 -1      1058-5.94372E-08-3.92544E-08-3.09532E-08
 -1      1059 1.27456E-08-5.58060E-10-5.23616E-09
 -1      1060-6.48490E-08-3.67071E-08-3.48916E-08
 -1      1061 1.19873E-08 2.58777E-10-5.02513E-09
 -1      1062-7.34002E-08-3.24007E-08-4.08813E-08
 -1      1063 1.12071E-08 5.25570E-10-4.71946E-09
 -1      1064-8.20997E-08-2.44328E-08-4.68013E-08
 -1      1065 1.05590E-08 4.90358E-10-4.44773E-09
 -1      1066-8.84051E-08-1.31613E-08-5.09633E-08
 -1      1067 1.01360E-08 2.84573E-10-4.25921E-09
 -1      1068-9.06906E-08 3.35643E-16-5.24523E-08
 -1      1069 9.98956E-09-2.88795E-17-4.19198E-09
 -1      1070-8.84051E-08 1.31613E-08-5.09633E-08
 -1      1071 1.01360E-08-2.84573E-10-4.25921E-09
 -1      1072-8.20997E-08 2.44328E-08-4.68013E-08
 -1      1073 1.05590E-08-4.90358E-10-4.44773E-09
 -1      1074-7.34002E-08 3.24007E-08-4.08813E-08
 -1      1075 1.12071E-08-5.25570E-10-4.71946E-09
 -1      1076-6.48490E-08 3.67071E-08-3.48916E-08
 -1      1077 1.19873E-08-2.58777E-10-5.02513E-09
 -1      1078-5.94372E-08 3.92544E-08-3.09532E-08
 -1      1079 1.27456E-08 5.58060E-10-5.23616E-09
 -1      1080-6.04201E-08 4.80243E-08-4.34730E-08
 -1      1081 1.30604E-08 2.36631E-09-5.39076E-09
 -1      1082-9.42369E-08-6.43518E-08-5.23978E-08
 -1      1083 2.48767E-08-5.92561E-10-6.83758E-09
 -1      1084-9.37776E-08-6.35365E-08-4.93137E-08
 -1      1085 2.37757E-08 1.72670E-10-7.40209E-09
 -1      1086-1.02272E-07-5.90948E-08-5.65958E-08
 -1      1087 2.23643E-08 7.99827E-10-6.98884E-09
 -1      1088-1.15643E-07-5.13149E-08-6.88170E-08
 -1      1089 2.09547E-08 1.00614E-09-6.48655E-09
 -1      1090-1.29135E-07-3.82856E-08-8.05541E-08
 -1      1091 1.97779E-08 8.64768E-10-6.01937E-09
 -1      1092-1.38863E-07-2.04980E-08-8.87718E-08
 -1      1093 1.90056E-08 4.90506E-10-5.69172E-09
 -1      1094-1.42374E-07 4.75369E-16-9.16903E-08
 -1      1095 1.87375E-08-4.93604E-17-5.57344E-09
 -1      1096-1.38863E-07 2.04980E-08-8.87718E-08
 -1      1097 1.90056E-08-4.90507E-10-5.69172E-09
 -1      1098-1.29135E-07 3.82856E-08-8.05541E-08
 -1      1099 1.97779E-08-8.64768E-10-6.01937E-09
 -1      1100-1.15643E-07 5.13149E-08-6.88170E-08
 -1      1101 2.09547E-08-1.00614E-09-6.48655E-09
 -1      1102-1.02272E-07 5.90948E-08-5.65958E-08
 -1      1103 2.23643E-08-7.99827E-10-6.98884E-09
 -1      1104-9.37776E-08 6.35365E-08-4.93137E-08
 -1      1105 2.37757E-08-1.72670E-10-7.40209E-09
 -1      1106-9.42369E-08 6.43517E-08-5.23978E-08
 -1      1107 2.48767E-08 5.92560E-10-6.83758E-09
 -1      1108-1.09290E-07-6.46341E-08-4.39630E-08
 -1      1109 3.46777E-08 1.24399E-09-6.31523E-09
 -1      1110-1.08004E-07-6.68554E-08-5.37427E-08
 -1      1111 3.28916E-08 1.55106E-09-7.12779E-09
 -1      1112-1.18078E-07-6.42373E-08-6.84361E-08
 -1      1113 3.09894E-08 1.70909E-09-6.95026E-09
 -1      1114-1.33824E-07-5.59311E-08-8.64329E-08
 -1      1115 2.91601E-08 1.65813E-09-6.46529E-09
 -1      1116-1.49701E-07-4.15745E-08-1.03339E-07
 -1      1117 2.76424E-08 1.31110E-09-5.96332E-09
 -1      1118-1.60936E-07-2.21427E-08-1.14905E-07
 -1      1119 2.66386E-08 7.21324E-10-5.58778E-09
 -1      1120-1.64920E-07 5.30770E-16-1.18950E-07
 -1      1121 2.62847E-08-6.39964E-17-5.44889E-09
 -1      1122-1.60936E-07 2.21427E-08-1.14905E-07
 -1      1123 2.66386E-08-7.21324E-10-5.58778E-09
 -1      1124-1.49701E-07 4.15745E-08-1.03339E-07
 -1      1125 2.76424E-08-1.31110E-09-5.96332E-09
 -1      1126-1.33824E-07 5.59311E-08-8.64329E-08
 -1      1127 2.91601E-08-1.65813E-09-6.46529E-09
 -1      1128-1.18078E-07 6.42373E-08-6.84361E-08
 -1      1129 3.09894E-08-1.70909E-09-6.95026E-09
 -1      1130-1.08004E-07 6.68554E-08-5.37427E-08
 -1      1131 3.28916E-08-1.55106E-09-7.12779E-09
 -1      1132-1.09290E-07 6.46341E-08-4.39630E-08
 -1      1133 3.46777E-08-1.24399E-09-6.31523E-09
 -1      1134-1.06067E-07-4.89251E-08-3.02486E-08
 -1      1135 4.21935E-08 2.72630E-09-5.30176E-09
 -1      1136-1.04564E-07-5.20930E-08-5.11757E-08
 -1      1137 4.01337E-08 2.77634E-09-6.10545E-09
 -1      1138-1.13401E-07-5.13244E-08-7.26478E-08
 -1      1139 3.79756E-08 2.65650E-09-6.16437E-09
 -1      1140-1.28287E-07-4.53521E-08-9.57765E-08
 -1      1141 3.59995E-08 2.33348E-09-5.82241E-09
 -1      1142-1.43352E-07-3.36380E-08-1.16511E-07
 -1      1143 3.43991E-08 1.74936E-09-5.36582E-09
 -1      1144-1.53378E-07-1.77263E-08-1.30077E-07
 -1      1145 3.33109E-08 9.40796E-10-4.99328E-09
 -1      1146-1.56716E-07 4.55722E-16-1.34668E-07
 -1      1147 3.29233E-08-7.43895E-17-4.86134E-09
 -1      1148-1.53378E-07 1.77263E-08-1.30077E-07
 -1      1149 3.33109E-08-9.40796E-10-4.99328E-09
 -1      1150-1.43352E-07 3.36380E-08-1.16511E-07
 -1      1151 3.43991E-08-1.74936E-09-5.36582E-09
 -1      1152-1.28287E-07 4.53521E-08-9.57765E-08
 -1      1153 3.59995E-08-2.33348E-09-5.82241E-09
 -1      1154-1.13401E-07 5.13244E-08-7.26478E-08
 -1      1155 3.79756E-08-2.65650E-09-6.16437E-09
 -1      1156-1.04564E-07 5.20930E-08-5.11757E-08
 -1      1157 4.01337E-08-2.77634E-09-6.10545E-09
 -1      1158-1.06067E-07 4.89251E-08-3.02486E-08
 -1      1159 4.21935E-08-2.72630E-09-5.30176E-09
 -1      1160-9.00090E-08-2.13290E-08-2.02830E-08
 -1      1161 4.83026E-08 3.71542E-09-4.65172E-09
 -1      1162-8.83009E-08-2.31285E-08-4.76717E-08
 -1      1163 4.62440E-08 3.65387E-09-5.34200E-09
 -1      1164-9.07650E-08-2.33480E-08-7.30129E-08
 -1      1165 4.38982E-08 3.27429E-09-5.44279E-09
 -1      1166-9.89425E-08-2.09647E-08-9.90479E-08
 -1      1167 4.14106E-08 2.62027E-09-4.97152E-09
 -1      1168-1.07734E-07-1.52577E-08-1.21525E-07
 -1      1169 3.93003E-08 1.91473E-09-4.31159E-09
 -1      1170-1.11941E-07-7.75783E-09-1.35384E-07
 -1      1171 3.80715E-08 1.05133E-09-3.83566E-09
 -1      1172-1.13187E-07-4.31811E-17-1.39860E-07
 -1      1173 3.76215E-08-8.13878E-17-3.67885E-09
 -1      1174-1.11941E-07 7.75783E-09-1.35384E-07
 -1      1175 3.80715E-08-1.05133E-09-3.83566E-09
 -1      1176-1.07734E-07 1.52577E-08-1.21525E-07
 -1      1177 3.93003E-08-1.91473E-09-4.31159E-09
 -1      1178-9.89425E-08 2.09647E-08-9.90479E-08
 -1      1179 4.14106E-08-2.62027E-09-4.97152E-09
 -1      1180-9.07650E-08 2.33480E-08-7.30129E-08
 -1      1181 4.38982E-08-3.27429E-09-5.44279E-09
 -1      1182-8.83009E-08 2.31285E-08-4.76717E-08
 -1      1183 4.62440E-08-3.65387E-09-5.34200E-09
 -1      1184-9.00090E-08 2.13289E-08-2.02830E-08
 -1      1185 4.83026E-08-3.71542E-09-4.65172E-09
 -1      1186-7.37670E-08 1.01711E-08-1.72624E-08
 -1      1187 5.42634E-08 4.40563E-09-4.42750E-09
 -1      1188-6.92060E-08 9.41939E-09-4.67311E-08
 -1      1189 5.21515E-08 4.18990E-09-5.03926E-09
 -1      1190-5.97590E-08 9.48581E-09-7.36595E-08
 -1      1191 4.94024E-08 3.61472E-09-4.97371E-09
 -1      1192-5.01687E-08 9.23545E-09-1.00955E-07
 -1      1193 4.68464E-08 2.79971E-09-4.83246E-09
 -1      1194-4.25441E-08 7.15211E-09-1.23612E-07
 -1      1195 4.47396E-08 1.88477E-09-4.55242E-09
 -1      1196-3.82745E-08 3.69773E-09-1.37343E-07
 -1      1197 4.32000E-08 9.44137E-10-3.92559E-09
 -1      1198-3.70138E-08-1.82019E-15-1.41681E-07
 -1      1199 4.26415E-08-8.26719E-17-3.75394E-09
 -1      1200-3.82745E-08-3.69773E-09-1.37343E-07
 -1      1201 4.32000E-08-9.44137E-10-3.92559E-09
 -1      1202-4.25440E-08-7.15211E-09-1.23612E-07
 -1      1203 4.47396E-08-1.88477E-09-4.55242E-09
 -1      1204-5.01686E-08-9.23546E-09-1.00955E-07
 -1      1205 4.68464E-08-2.79971E-09-4.83246E-09
 -1      1206-5.97590E-08-9.48581E-09-7.36595E-08
 -1      1207 4.94024E-08-3.61472E-09-4.97371E-09
 -1      1208-6.92059E-08-9.41940E-09-4.67311E-08
 -1      1209 5.21515E-08-4.18990E-09-5.03926E-09
 -1      1210-7.37670E-08-1.01711E-08-1.72624E-08
 -1      1211 5.42634E-08-4.40563E-09-4.42750E-09
 -1      1212 0.00000E+00 0.00000E+00 0.00000E+00
 -1      1213 0.00000E+00 0.00000E+00 0.00000E+00
 -1      1214 0.00000E+00 0.00000E+00 0.00000E+00
 -1      1215 0.00000E+00 0.00000E+00 0.00000E+00
 -1      1216 0.00000E+00 0.00000E+00 0.00000E+00
 -1      1217 0.00000E+00 0.00000E+00 0.00000E+00
 -1      1218 0.00000E+00 0.00000E+00 0.00000E+00
 -1      1219 0.00000E+00 0.00000E+00 0.00000E+00
 -1      1220 0.00000E+00 0.00000E+00 0.00000E+00
 -1      1221 0.00000E+00 0.00000E+00 0.00000E+00
 -1      1222 0.00000E+00 0.00000E+00 0.00000E+00
 -1      1223 0.00000E+00 0.00000E+00 0.00000E+00
 -1      1224 0.00000E+00 0.00000E+00 0.00000E+00
 -1      1225 0.00000E+00 0.00000E+00 0.00000E+00
 -1      1226 0.00000E+00 0.00000E+00 0.00000E+00
 -1      1227 0.00000E+00 0.00000E+00 0.00000E+00
 -1      1228 0.00000E+00 0.00000E+00 0.00000E+00
 -1      1229 0.00000E+00 0.00000E+00 0.00000E+00
 -1      1230 0.00000E+00 0.00000E+00 0.00000E+00
 -1      1231 0.00000E+00 0.00000E+00 0.00000E+00
 -1      1232 0.00000E+00 0.00000E+00 0.00000E+00
 -1      1233 0.00000E+00 0.00000E+00 0.00000E+00
 -1      1234 0.00000E+00 0.00000E+00 0.00000E+00
 -1      1235 0.00000E+00 0.00000E+00 0.00000E+00
 -1      1236 0.00000E+00 0.00000E+00 0.00000E+00
 -1      1237 0.00000E+00 0.00000E+00 0.00000E+00
 -1      1238 0.00000E+00 0.00000E+00 0.00000E+00
 -1      1239 0.00000E+00 0.00000E+00 0.00000E+00
 -1      1240 0.00000E+00 0.00000E+00 0.00000E+00
 -1      1241 0.00000E+00 0.00000E+00 0.00000E+00
 -1      1242 0.00000E+00 0.00000E+00 0.00000E+00
 -1      1243 0.00000E+00 0.00000E+00 0.00000E+00
 -1      1244 0.00000E+00 0.00000E+00 0.00000E+00
 -1      1245 0.00000E+00 0.00000E+00 0.00000E+00
 -1      1246 0.00000E+00 0.00000E+00 0.00000E+00
 -1      1247 0.00000E+00 0.00000E+00 0.00000E+00
 -1      1248 0.00000E+00 0.00000E+00 0.00000E+00
 -1      1249 0.00000E+00 0.00000E+00 0.00000E+00
 -1      1250 0.00000E+00 0.00000E+00 0.00000E+00
 -1      1251 0.00000E+00 0.00000E+00 0.00000E+00
 -1      1252 0.00000E+00 0.00000E+00 0.00000E+00
 -1      1253 0.00000E+00 0.00000E+00 0.00000E+00
 -1      1254 0.00000E+00 0.00000E+00 0.00000E+00
 -1      1255 0.00000E+00 0.00000E+00 0.00000E+00
 -1      1256 0.00000E+00 0.00000E+00 0.00000E+00
 -1      1257 0.00000E+00 0.00000E+00 0.00000E+00
 -1      1258-5.39441E-08-6.39108E-08-4.14902E-08
 -1      1259-5.39441E-08 6.39108E-08-4.14902E-08
 -1      1260-5.06393E-08-1.07687E-07-7.22858E-08
 -1      1261-5.06393E-08 1.07687E-07-7.22858E-08
 -1      1262-3.14799E-08-1.37862E-07-9.19718E-08
 -1      1263-3.14799E-08 1.37862E-07-9.19718E-08
 -1      1264-1.41377E-08-1.50981E-07-1.00254E-07
 -1      1265-1.41377E-08 1.50981E-07-1.00254E-07
 -1      1266-4.22688E-09-1.54120E-07-1.01752E-07
 -1      1267-4.22688E-09 1.54120E-07-1.01752E-07
 -1      1268-1.36345E-10-1.53974E-07-1.01349E-07
 -1      1269-1.36346E-10 1.53974E-07-1.01349E-07
 -1      1270 1.28025E-09-1.53472E-07-1.00979E-07
 -1      1271 1.28025E-09 1.53472E-07-1.00979E-07
 -1      1272 1.87009E-09-1.53287E-07-1.00923E-07
 -1      1273 1.87009E-09 1.53287E-07-1.00923E-07
 -1      1274 2.26728E-09-1.53321E-07-1.01012E-07
 -1      1275 2.26728E-09 1.53321E-07-1.01012E-07
 -1      1276 2.60179E-09-1.53415E-07-1.01115E-07
 -1      1277 2.60179E-09 1.53415E-07-1.01115E-07
 -1      1278 2.91222E-09-1.53487E-07-1.01189E-07
 -1      1279 2.91222E-09 1.53487E-07-1.01189E-07
 -1      1280 3.28760E-09-1.53481E-07-1.01209E-07
 -1      1281 3.28760E-09 1.53481E-07-1.01209E-07
 -1      1282 3.88137E-09-1.53263E-07-1.01089E-07
 -1      1283 3.88137E-09 1.53263E-07-1.01089E-07
 -1      1284 4.76460E-09-1.52573E-07-1.00610E-07
 -1      1285 4.76460E-09 1.52573E-07-1.00610E-07
 -1      1286 5.46963E-09-1.51218E-07-9.95301E-08
 -1      1287 5.46963E-09 1.51218E-07-9.95301E-08
 -1      1288 4.62500E-09-1.49833E-07-9.82712E-08
 -1      1289 4.62500E-09 1.49833E-07-9.82712E-08
 -1      1290 1.84432E-09-1.50850E-07-9.90639E-08
 -1      1291 1.84432E-09 1.50850E-07-9.90639E-08
 -1      1292 3.82264E-09-1.56849E-07-1.04433E-07
 -1      1293 3.82264E-09 1.56849E-07-1.04433E-07
 -1      1294 2.50046E-08-1.59597E-07-1.07998E-07
 -1      1295 2.50046E-08 1.59597E-07-1.07998E-07
 -1      1296 5.87371E-08-1.28638E-07-8.67866E-08
 -1      1297 5.87371E-08 1.28638E-07-8.67866E-08
 -1      1298 6.53662E-08-6.21791E-08-3.97173E-08
 -1      1299 6.53662E-08 6.21791E-08-3.97173E-08
 -1      1300 4.14078E-08-1.90302E-08-9.88522E-09
 -1      1301 4.14078E-08 1.90302E-08-9.88522E-09
 -1      1302 1.94381E-08-3.60386E-09-1.71352E-10
 -1      1303 1.94381E-08 3.60386E-09-1.71352E-10
 -1      1304-9.31306E-08-9.79360E-08-5.72369E-08
 -1      1305-9.31306E-08 9.79360E-08-5.72369E-08
 -1      1306-8.09853E-08-1.64165E-07-9.72198E-08
 -1      1307-8.09853E-08 1.64165E-07-9.72198E-08
 -1      1308-5.14607E-08-2.11406E-07-1.24419E-07
 -1      1309-5.14607E-08 2.11406E-07-1.24419E-07
 -1      1310-2.37832E-08-2.31402E-07-1.34094E-07
 -1      1311-2.37832E-08 2.31402E-07-1.34094E-07
 -1      1312-7.62450E-09-2.36345E-07-1.34664E-07
 -1      1313-7.62450E-09 2.36345E-07-1.34664E-07
 -1      1314-4.72519E-10-2.36215E-07-1.33330E-07
 -1      1315-4.72519E-10 2.36215E-07-1.33330E-07
 -1      1316 2.33852E-09-2.35520E-07-1.32624E-07
 -1      1317 2.33852E-09 2.35520E-07-1.32624E-07
 -1      1318 3.64731E-09-2.35273E-07-1.32566E-07
 -1      1319 3.64731E-09 2.35273E-07-1.32566E-07
 -1      1320 4.49707E-09-2.35342E-07-1.32736E-07
 -1      1321 4.49707E-09 2.35342E-07-1.32736E-07
 -1      1322 5.15965E-09-2.35494E-07-1.32907E-07
 -1      1323 5.15965E-09 2.35494E-07-1.32907E-07
 -1      1324 5.74190E-09-2.35609E-07-1.33029E-07
 -1      1325 5.74190E-09 2.35609E-07-1.33029E-07
 -1      1326 6.40436E-09-2.35598E-07-1.33096E-07
 -1      1327 6.40436E-09 2.35598E-07-1.33096E-07
 -1      1328 7.38867E-09-2.35265E-07-1.32997E-07
 -1      1329 7.38867E-09 2.35265E-07-1.32997E-07
 -1      1330 8.81195E-09-2.34217E-07-1.32367E-07
 -1      1331 8.81195E-09 2.34217E-07-1.32367E-07
 -1      1332 1.00303E-08-2.32156E-07-1.30678E-07
 -1      1333 1.00303E-08 2.32156E-07-1.30678E-07
 -1      1334 9.13249E-09-2.29984E-07-1.28411E-07
 -1      1335 9.13249E-09 2.29984E-07-1.28411E-07
 -1      1336 5.63620E-09-2.31248E-07-1.29531E-07
 -1      1337 5.63620E-09 2.31248E-07-1.29531E-07
 -1      1338 9.37598E-09-2.40184E-07-1.39455E-07
 -1      1339 9.37598E-09 2.40184E-07-1.39455E-07
 -1      1340 4.15584E-08-2.45562E-07-1.48501E-07
 -1      1341 4.15584E-08 2.45562E-07-1.48501E-07
 -1      1342 9.20513E-08-1.98645E-07-1.19046E-07
 -1      1343 9.20513E-08 1.98645E-07-1.19046E-07
 -1      1344 1.02125E-07-9.45224E-08-4.94689E-08
 -1      1345 1.02125E-07 9.45224E-08-4.94689E-08
 -1      1346 6.64445E-08-2.87605E-08-7.04876E-09
 -1      1347 6.64445E-08 2.87605E-08-7.04876E-09
 -1      1348 3.49569E-08-5.86403E-09 2.83816E-09
 -1      1349 3.49569E-08 5.86403E-09 2.83816E-09
 -1      1350-1.10637E-07-1.05614E-07-5.83346E-08
 -1      1351-1.10637E-07 1.05614E-07-5.83346E-08
 -1      1352-9.37785E-08-1.79796E-07-9.66282E-08
 -1      1353-9.37785E-08 1.79796E-07-9.66282E-08
 -1      1354-5.99618E-08-2.32345E-07-1.23712E-07
 -1      1355-5.99618E-08 2.32345E-07-1.23712E-07
 -1      1356-2.88802E-08-2.54368E-07-1.31692E-07
 -1      1357-2.88802E-08 2.54368E-07-1.31692E-07
 -1      1358-1.00374E-08-2.59851E-07-1.30256E-07
 -1      1359-1.00374E-08 2.59851E-07-1.30256E-07
 -1      1360-9.81790E-10-2.59853E-07-1.27831E-07
 -1      1361-9.81791E-10 2.59853E-07-1.27831E-07
 -1      1362 3.11059E-09-2.59249E-07-1.26805E-07
 -1      1363 3.11059E-09 2.59249E-07-1.26805E-07
 -1      1364 5.22069E-09-2.59104E-07-1.26746E-07
 -1      1365 5.22069E-09 2.59104E-07-1.26746E-07
 -1      1366 6.56004E-09-2.59261E-07-1.26970E-07
 -1      1367 6.56004E-09 2.59261E-07-1.26970E-07
 -1      1368 7.53613E-09-2.59473E-07-1.27177E-07
 -1      1369 7.53613E-09 2.59473E-07-1.27177E-07
 -1      1370 8.34534E-09-2.59621E-07-1.27328E-07
 -1      1371 8.34534E-09 2.59621E-07-1.27328E-07
 -1      1372 9.20125E-09-2.59619E-07-1.27447E-07
 -1      1373 9.20125E-09 2.59619E-07-1.27447E-07
 -1      1374 1.03756E-08-2.59258E-07-1.27431E-07
 -1      1375 1.03756E-08 2.59258E-07-1.27431E-07
 -1      1376 1.20220E-08-2.58102E-07-1.26821E-07
 -1      1377 1.20220E-08 2.58102E-07-1.26821E-07
 -1      1378 1.36148E-08-2.55774E-07-1.24833E-07
 -1      1379 1.36148E-08 2.55774E-07-1.24833E-07
 -1      1380 1.34523E-08-2.53163E-07-1.21850E-07
 -1      1381 1.34523E-08 2.53163E-07-1.21850E-07
 -1      1382 1.09961E-08-2.54103E-07-1.23172E-07
 -1      1383 1.09961E-08 2.54103E-07-1.23172E-07
 -1      1384 1.54613E-08-2.63795E-07-1.36827E-07
 -1      1385 1.54613E-08 2.63795E-07-1.36827E-07
 -1      1386 4.89517E-08-2.72342E-07-1.50819E-07
 -1      1387 4.89517E-08 2.72342E-07-1.50819E-07
 -1      1388 1.02446E-07-2.21829E-07-1.20034E-07
 -1      1389 1.02446E-07 2.21829E-07-1.20034E-07
 -1      1390 1.13004E-07-1.01747E-07-4.42881E-08
 -1      1391 1.13004E-07 1.01747E-07-4.42881E-08
 -1      1392 7.56906E-08-3.02872E-08 1.08601E-09
 -1      1393 7.56906E-08 3.02872E-08 1.08601E-09
 -1      1394 4.46253E-08-6.09630E-09 7.02166E-09
 -1      1395 4.46253E-08 6.09630E-09 7.02166E-09
 -1      1396-1.06789E-07-8.47068E-08-5.15343E-08
 -1      1397-1.06789E-07 8.47068E-08-5.15343E-08
 -1      1398-8.93506E-08-1.47614E-07-8.15232E-08
 -1      1399-8.93506E-08 1.47614E-07-8.15232E-08
 -1      1400-5.82783E-08-1.92525E-07-1.04552E-07
 -1      1401-5.82783E-08 1.92525E-07-1.04552E-07
 -1      1402-3.00008E-08-2.11667E-07-1.09870E-07
 -1      1403-3.00008E-08 2.11667E-07-1.09870E-07
 -1      1404-1.17125E-08-2.16681E-07-1.06536E-07
 -1      1405-1.17125E-08 2.16681E-07-1.06536E-07
 -1      1406-1.73551E-09-2.17037E-07-1.03214E-07
 -1      1407-1.73551E-09 2.17037E-07-1.03214E-07
 -1      1408 3.51323E-09-2.16852E-07-1.01921E-07
 -1      1409 3.51323E-09 2.16852E-07-1.01921E-07
 -1      1410 6.45557E-09-2.16979E-07-1.01827E-07
 -1      1411 6.45557E-09 2.16979E-07-1.01827E-07
 -1      1412 8.28165E-09-2.17276E-07-1.02058E-07
 -1      1413 8.28165E-09 2.17276E-07-1.02058E-07
 -1      1414 9.53545E-09-2.17548E-07-1.02267E-07
 -1      1415 9.53545E-09 2.17548E-07-1.02267E-07
 -1      1416 1.05188E-08-2.17719E-07-1.02426E-07
 -1      1417 1.05188E-08 2.17719E-07-1.02426E-07
 -1      1418 1.14791E-08-2.17737E-07-1.02585E-07
 -1      1419 1.14791E-08 2.17737E-07-1.02585E-07
 -1      1420 1.26618E-08-2.17432E-07-1.02658E-07
 -1      1421 1.26618E-08 2.17432E-07-1.02658E-07
 -1      1422 1.42259E-08-2.16418E-07-1.02143E-07
 -1      1423 1.42259E-08 2.16418E-07-1.02143E-07
 -1      1424 1.59721E-08-2.14315E-07-1.00113E-07
 -1      1425 1.59721E-08 2.14315E-07-1.00113E-07
 -1      1426 1.70902E-08-2.11814E-07-9.68651E-08
 -1      1427 1.70902E-08 2.11814E-07-9.68651E-08
 -1      1428 1.73986E-08-2.12195E-07-9.84664E-08
 -1      1429 1.73986E-08 2.12195E-07-9.84664E-08
 -1      1430 2.24919E-08-2.20187E-07-1.14578E-07
 -1      1431 2.24919E-08 2.20187E-07-1.14578E-07
 -1      1432 4.85354E-08-2.29647E-07-1.30452E-07
 -1      1433 4.85354E-08 2.29647E-07-1.30452E-07
 -1      1434 9.06627E-08-1.88662E-07-1.01738E-07
 -1      1435 9.06627E-08 1.88662E-07-1.01738E-07
 -1      1436 9.90506E-08-8.33585E-08-3.39570E-08
 -1      1437 9.90506E-08 8.33585E-08-3.39570E-08
 -1      1438 7.07553E-08-2.43676E-08 9.18523E-09
 -1      1439 7.07553E-08 2.43676E-08 9.18523E-09
 -1      1440 4.89841E-08-4.63621E-09 1.06182E-08
 -1      1441 4.89841E-08 4.63621E-09 1.06182E-08
 -1      1442-8.73926E-08-3.88913E-08-4.43040E-08
 -1      1443-8.73926E-08 3.88913E-08-4.43040E-08
 -1      1444-7.21518E-08-7.04644E-08-6.59809E-08
 -1      1445-7.21518E-08 7.04644E-08-6.59809E-08
 -1      1446-4.98482E-08-9.64314E-08-8.48380E-08
 -1      1447-4.98482E-08 9.64314E-08-8.48380E-08
 -1      1448-2.88943E-08-1.09157E-07-8.82222E-08
 -1      1449-2.88943E-08 1.09157E-07-8.82222E-08
 -1      1450-1.31790E-08-1.13336E-07-8.37201E-08
 -1      1451-1.31790E-08 1.13336E-07-8.37201E-08
 -1      1452-2.81192E-09-1.14420E-07-7.98179E-08
 -1      1453-2.81192E-09 1.14420E-07-7.98179E-08
 -1      1454 3.49211E-09-1.14960E-07-7.82740E-08
 -1      1455 3.49211E-09 1.14960E-07-7.82740E-08
 -1      1456 7.20713E-09-1.15498E-07-7.80750E-08
 -1      1457 7.20713E-09 1.15498E-07-7.80750E-08
 -1      1458 9.44717E-09-1.15971E-07-7.82521E-08
 -1      1459 9.44717E-09 1.15971E-07-7.82521E-08
 -1      1460 1.09089E-08-1.16300E-07-7.84292E-08
 -1      1461 1.09089E-08 1.16300E-07-7.84292E-08
 -1      1462 1.20070E-08-1.16485E-07-7.85772E-08
 -1      1463 1.20070E-08 1.16485E-07-7.85773E-08
 -1      1464 1.30045E-08-1.16525E-07-7.87537E-08
 -1      1465 1.30045E-08 1.16525E-07-7.87537E-08
 -1      1466 1.40711E-08-1.16331E-07-7.88817E-08
 -1      1467 1.40711E-08 1.16331E-07-7.88817E-08
 -1      1468 1.53067E-08-1.15650E-07-7.84542E-08
 -1      1469 1.53067E-08 1.15650E-07-7.84542E-08
 -1      1470 1.68687E-08-1.14224E-07-7.65303E-08
 -1      1471 1.68687E-08 1.14224E-07-7.65303E-08
 -1      1472 1.93304E-08-1.12520E-07-7.34170E-08
 -1      1473 1.93304E-08 1.12520E-07-7.34170E-08
 -1      1474 2.38492E-08-1.12634E-07-7.54722E-08
 -1      1475 2.38492E-08 1.12634E-07-7.54722E-08
 -1      1476 3.11780E-08-1.16565E-07-9.25851E-08
 -1      1477 3.11780E-08 1.16565E-07-9.25851E-08
 -1      1478 4.40489E-08-1.21318E-07-1.07495E-07
 -1      1479 4.40489E-08 1.21318E-07-1.07495E-07
 -1      1480 6.15018E-08-1.00943E-07-8.14002E-08
 -1      1481 6.15018E-08 1.00943E-07-8.14002E-08
 -1      1482 6.59042E-08-4.52627E-08-2.58764E-08
 -1      1483 6.59042E-08 4.52628E-08-2.58764E-08
 -1      1484 5.68747E-08-1.43207E-08 1.37038E-08
 -1      1485 5.68747E-08 1.43207E-08 1.37038E-08
 -1      1486 5.04806E-08-2.36520E-09 1.25853E-08
 -1      1487 5.04806E-08 2.36520E-09 1.25853E-08
 -1      1488-6.88146E-08 1.75596E-08-4.23058E-08
 -1      1489-6.88146E-08-1.75596E-08-4.23058E-08
 -1      1490-5.56473E-08 2.65949E-08-6.12663E-08
 -1      1491-5.56473E-08-2.65949E-08-6.12663E-08
 -1      1492-4.17810E-08 2.40885E-08-7.86070E-08
 -1      1493-4.17810E-08-2.40885E-08-7.86070E-08
 -1      1494-2.83076E-08 1.87926E-08-8.14328E-08
 -1      1495-2.83076E-08-1.87926E-08-8.14328E-08
 -1      1496-1.48775E-08 1.53825E-08-7.65026E-08
 -1      1497-1.48775E-08-1.53825E-08-7.65026E-08
 -1      1498-4.01905E-09 1.33562E-08-7.21969E-08
 -1      1499-4.01905E-09-1.33562E-08-7.21969E-08
 -1      1500 3.16716E-09 1.19641E-08-7.03416E-08
 -1      1501 3.16716E-09-1.19641E-08-7.03416E-08
 -1      1502 7.41231E-09 1.09698E-08-6.99484E-08
 -1      1503 7.41231E-09-1.09698E-08-6.99485E-08
 -1      1504 9.87403E-09 1.03132E-08-7.00186E-08
 -1      1505 9.87403E-09-1.03132E-08-7.00186E-08
 -1      1506 1.14222E-08 9.93021E-09-7.01422E-08
 -1      1507 1.14222E-08-9.93021E-09-7.01422E-08
 -1      1508 1.25679E-08 9.73897E-09-7.02693E-08
 -1      1509 1.25679E-08-9.73897E-09-7.02693E-08
 -1      1510 1.35753E-08 9.67781E-09-7.04453E-08
 -1      1511 1.35753E-08-9.67781E-09-7.04453E-08
 -1      1512 1.45149E-08 9.74454E-09-7.05843E-08
 -1      1513 1.45149E-08-9.74454E-09-7.05843E-08
 -1      1514 1.53426E-08 1.00274E-08-7.01827E-08
 -1      1515 1.53426E-08-1.00274E-08-7.01827E-08
 -1      1516 1.64016E-08 1.05913E-08-6.83571E-08
 -1      1517 1.64016E-08-1.05913E-08-6.83571E-08
 -1      1518 1.96481E-08 1.11387E-08-6.55963E-08
 -1      1519 1.96481E-08-1.11387E-08-6.55963E-08
 -1      1520 2.87130E-08 1.08247E-08-6.82181E-08
 -1      1521 2.87130E-08-1.08247E-08-6.82181E-08
 -1      1522 4.01391E-08 1.20526E-08-8.53629E-08
 -1      1523 4.01391E-08-1.20526E-08-8.53629E-08
 -1      1524 4.05718E-08 1.62017E-08-9.87248E-08
 -1      1525 4.05718E-08-1.62017E-08-9.87248E-08
 -1      1526 3.28316E-08 1.11143E-08-7.34148E-08
 -1      1527 3.28316E-08-1.11143E-08-7.34148E-08
 -1      1528 3.33542E-08-1.22531E-10-2.39508E-08
 -1      1529 3.33542E-08 1.22532E-10-2.39508E-08
 -1      1530 4.43195E-08-3.94265E-09 1.42749E-08
 -1      1531 4.43195E-08 3.94265E-09 1.42749E-08
 -1      1532 5.29254E-08 4.23991E-12 1.28689E-08
 -1      1533 5.29254E-08-4.23991E-12 1.28689E-08
 -1      1534 0.00000E+00 0.00000E+00 0.00000E+00
 -1      1535-6.12300E-08 1.98572E-08-9.71001E-08
 -1      1536 0.00000E+00 0.00000E+00 0.00000E+00
 -1      1537-4.61375E-08 3.23993E-08-1.55033E-07
 -1      1538 0.00000E+00 0.00000E+00 0.00000E+00
 -1      1539-3.51812E-08 3.16003E-08-1.95044E-07
 -1      1540 0.00000E+00 0.00000E+00 0.00000E+00
 -1      1541-2.51804E-08 2.65010E-08-2.04512E-07
 -1      1542 0.00000E+00 0.00000E+00 0.00000E+00
 -1      1543-1.35048E-08 2.30164E-08-2.00049E-07
 -1      1544 0.00000E+00 0.00000E+00 0.00000E+00
 -1      1545-3.19479E-09 2.11760E-08-1.94794E-07
 -1      1546 0.00000E+00 0.00000E+00 0.00000E+00
 -1      1547 3.90223E-09 2.00613E-08-1.92142E-07
 -1      1548 0.00000E+00 0.00000E+00 0.00000E+00
 -1      1549 8.13420E-09 1.92845E-08-1.91331E-07
 -1      1550 0.00000E+00 0.00000E+00 0.00000E+00
 -1      1551 1.05672E-08 1.87568E-08-1.91232E-07
 -1      1552 0.00000E+00 0.00000E+00 0.00000E+00
 -1      1553 1.20757E-08 1.84383E-08-1.91306E-07
 -1      1554 0.00000E+00 0.00000E+00 0.00000E+00
 -1      1555 1.31803E-08 1.82746E-08-1.91426E-07
 -1      1556 0.00000E+00 0.00000E+00 0.00000E+00
 -1      1557 1.41320E-08 1.82255E-08-1.91584E-07
 -1      1558 0.00000E+00 0.00000E+00 0.00000E+00
 -1      1559 1.49663E-08 1.83033E-08-1.91612E-07
 -1      1560 0.00000E+00 0.00000E+00 0.00000E+00
 -1      1561 1.56077E-08 1.85746E-08-1.90853E-07
 -1      1562 0.00000E+00 0.00000E+00 0.00000E+00
 -1      1563 1.64922E-08 1.89729E-08-1.88211E-07
 -1      1564 0.00000E+00 0.00000E+00 0.00000E+00
 -1      1565 1.98903E-08 1.89328E-08-1.84228E-07
 -1      1566 0.00000E+00 0.00000E+00 0.00000E+00
 -1      1567 2.97708E-08 1.78278E-08-1.86182E-07
 -1      1568 0.00000E+00 0.00000E+00 0.00000E+00
 -1      1569 4.24275E-08 1.98285E-08-2.08664E-07
 -1      1570 0.00000E+00 0.00000E+00 0.00000E+00
 -1      1571 3.90888E-08 2.79757E-08-2.32491E-07
 -1      1572 0.00000E+00 0.00000E+00 0.00000E+00
 -1      1573 2.01319E-08 2.18107E-08-1.82067E-07
 -1      1574 0.00000E+00 0.00000E+00 0.00000E+00
 -1      1575 1.86921E-08 3.15467E-10-6.65015E-08
 -1      1576 0.00000E+00 0.00000E+00 0.00000E+00
 -1      1577 3.76781E-08-5.65523E-09 6.00606E-09
 -1      1578 0.00000E+00 0.00000E+00 0.00000E+00
 -1      1579 5.00887E-08-6.08510E-10 1.08872E-08
 -1      1580 0.00000E+00 0.00000E+00 0.00000E+00
 -1      1581-4.58614E-08 2.91937E-08-1.61710E-07
 -1      1582 0.00000E+00 0.00000E+00 0.00000E+00
 -1      1583-2.88214E-08 5.45331E-08-2.72818E-07
 -1      1584 0.00000E+00 0.00000E+00 0.00000E+00
 -1      1585-2.50038E-08 5.90876E-08-3.40806E-07
 -1      1586 0.00000E+00 0.00000E+00 0.00000E+00
 -1      1587-2.03102E-08 5.49141E-08-3.55890E-07
 -1      1588 0.00000E+00 0.00000E+00 0.00000E+00
 -1      1589-1.09193E-08 5.12077E-08-3.50739E-07
 -1      1590 0.00000E+00 0.00000E+00 0.00000E+00
 -1      1591-1.27928E-09 4.92788E-08-3.43979E-07
 -1      1592 0.00000E+00 0.00000E+00 0.00000E+00
 -1      1593 5.75824E-09 4.82870E-08-3.40416E-07
 -1      1594 0.00000E+00 0.00000E+00 0.00000E+00
 -1      1595 1.00424E-08 4.76718E-08-3.39201E-07
 -1      1596 0.00000E+00 0.00000E+00 0.00000E+00
 -1      1597 1.25039E-08 4.72636E-08-3.38959E-07
 -1      1598 0.00000E+00 0.00000E+00 0.00000E+00
 -1      1599 1.40078E-08 4.70139E-08-3.38998E-07
 -1      1600 0.00000E+00 0.00000E+00 0.00000E+00
 -1      1601 1.50847E-08 4.68854E-08-3.39120E-07
 -1      1602 0.00000E+00 0.00000E+00 0.00000E+00
 -1      1603 1.59755E-08 4.68546E-08-3.39279E-07
 -1      1604 0.00000E+00 0.00000E+00 0.00000E+00
 -1      1605 1.66832E-08 4.69345E-08-3.39224E-07
 -1      1606 0.00000E+00 0.00000E+00 0.00000E+00
 -1      1607 1.71020E-08 4.71353E-08-3.38132E-07
 -1      1608 0.00000E+00 0.00000E+00 0.00000E+00
 -1      1609 1.77356E-08 4.72051E-08-3.34435E-07
 -1      1610 0.00000E+00 0.00000E+00 0.00000E+00
 -1      1611 2.11409E-08 4.63202E-08-3.28522E-07
 -1      1612 0.00000E+00 0.00000E+00 0.00000E+00
 -1      1613 3.19977E-08 4.42297E-08-3.27947E-07
 -1      1614 0.00000E+00 0.00000E+00 0.00000E+00
 -1      1615 4.83545E-08 4.71851E-08-3.56809E-07
 -1      1616 0.00000E+00 0.00000E+00 0.00000E+00
 -1      1617 3.92128E-08 6.43533E-08-4.05187E-07
 -1      1618 0.00000E+00 0.00000E+00 0.00000E+00
 -1      1619-4.48281E-09 5.59470E-08-3.26337E-07
 -1      1620 0.00000E+00 0.00000E+00 0.00000E+00
 -1      1621-9.22044E-09 3.43845E-09-1.09110E-07
 -1      1622 0.00000E+00 0.00000E+00 0.00000E+00
 -1      1623 2.78245E-08-7.19334E-09 3.85794E-09
 -1      1624 0.00000E+00 0.00000E+00 0.00000E+00
 -1      1625 4.64011E-08-1.20515E-09 9.51919E-09
 -1      1626 0.00000E+00 0.00000E+00 0.00000E+00
 -1      1627-2.80697E-08 3.54998E-08-2.92245E-07
 -1      1628 0.00000E+00 0.00000E+00 0.00000E+00
 -1      1629-8.08590E-09 7.08209E-08-5.59298E-07
 -1      1630 0.00000E+00 0.00000E+00 0.00000E+00
 -1      1631-1.23096E-08 8.03745E-08-6.78089E-07
 -1      1632 0.00000E+00 0.00000E+00 0.00000E+00
 -1      1633-1.26595E-08 7.75977E-08-7.00461E-07
 -1      1634 0.00000E+00 0.00000E+00 0.00000E+00
 -1      1635-5.27784E-09 7.40618E-08-6.90972E-07
 -1      1636 0.00000E+00 0.00000E+00 0.00000E+00
 -1      1637 3.80290E-09 7.21431E-08-6.80275E-07
 -1      1638 0.00000E+00 0.00000E+00 0.00000E+00
 -1      1639 1.07950E-08 7.12525E-08-6.74882E-07
 -1      1640 0.00000E+00 0.00000E+00 0.00000E+00
 -1      1641 1.51311E-08 7.07708E-08-6.73015E-07
 -1      1642 0.00000E+00 0.00000E+00 0.00000E+00
 -1      1643 1.76297E-08 7.04708E-08-6.72619E-07
 -1      1644 0.00000E+00 0.00000E+00 0.00000E+00
 -1      1645 1.91396E-08 7.02894E-08-6.72654E-07
 -1      1646 0.00000E+00 0.00000E+00 0.00000E+00
 -1      1647 2.01984E-08 7.01980E-08-6.72818E-07
 -1      1648 0.00000E+00 0.00000E+00 0.00000E+00
 -1      1649 2.10394E-08 7.01839E-08-6.73019E-07
 -1      1650 0.00000E+00 0.00000E+00 0.00000E+00
 -1      1651 2.16374E-08 7.02526E-08-6.72902E-07
 -1      1652 0.00000E+00 0.00000E+00 0.00000E+00
 -1      1653 2.18602E-08 7.03601E-08-6.71148E-07
 -1      1654 0.00000E+00 0.00000E+00 0.00000E+00
 -1      1655 2.21605E-08 7.01387E-08-6.65417E-07
 -1      1656 0.00000E+00 0.00000E+00 0.00000E+00
 -1      1657 2.54020E-08 6.86899E-08-6.53365E-07
 -1      1658 0.00000E+00 0.00000E+00 0.00000E+00
 -1      1659 3.67342E-08 6.61085E-08-6.47444E-07
 -1      1660 0.00000E+00 0.00000E+00 0.00000E+00
 -1      1661 5.82084E-08 6.99170E-08-6.73547E-07
 -1      1662 0.00000E+00 0.00000E+00 0.00000E+00
 -1      1663 4.67557E-08 9.29772E-08-8.13833E-07
 -1      1664 0.00000E+00 0.00000E+00 0.00000E+00
 -1      1665-2.96068E-08 8.41839E-08-7.25676E-07
 -1      1666 0.00000E+00 0.00000E+00 0.00000E+00
 -1      1667-4.12420E-08 7.27732E-09-1.29463E-07
 -1      1668 0.00000E+00 0.00000E+00 0.00000E+00
 -1      1669 2.02816E-08-7.40078E-09 7.10145E-10
 -1      1670 0.00000E+00 0.00000E+00 0.00000E+00
 -1      1671 4.28695E-08-1.55114E-09 9.91781E-09
 -1      1672 0.00000E+00 0.00000E+00 0.00000E+00
 -1      1673-1.25465E-08 2.84340E-08-4.13626E-07
 -1      1674 0.00000E+00 0.00000E+00 0.00000E+00
 -1      1675 1.04904E-08 5.77723E-08-8.40775E-07
 -1      1676 0.00000E+00 0.00000E+00 0.00000E+00
 -1      1677-1.12915E-09 6.71822E-08-1.01323E-06
 -1      1678 0.00000E+00 0.00000E+00 0.00000E+00
 -1      1679-5.65150E-09 6.56959E-08-1.04233E-06
 -1      1680 0.00000E+00 0.00000E+00 0.00000E+00
 -1      1681 2.47780E-10 6.30735E-08-1.02892E-06
 -1      1682 0.00000E+00 0.00000E+00 0.00000E+00
 -1      1683 8.94137E-09 6.16172E-08-1.01446E-06
 -1      1684 0.00000E+00 0.00000E+00 0.00000E+00
 -1      1685 1.59094E-08 6.09667E-08-1.00733E-06
 -1      1686 0.00000E+00 0.00000E+00 0.00000E+00
 -1      1687 2.02867E-08 6.06392E-08-1.00487E-06
 -1      1688 0.00000E+00 0.00000E+00 0.00000E+00
 -1      1689 2.28170E-08 6.04422E-08-1.00436E-06
 -1      1690 0.00000E+00 0.00000E+00 0.00000E+00
 -1      1691 2.43352E-08 6.03235E-08-1.00442E-06
 -1      1692 0.00000E+00 0.00000E+00 0.00000E+00
 -1      1693 2.53829E-08 6.02642E-08-1.00465E-06
 -1      1694 0.00000E+00 0.00000E+00 0.00000E+00
 -1      1695 2.61881E-08 6.02581E-08-1.00492E-06
 -1      1696 0.00000E+00 0.00000E+00 0.00000E+00
 -1      1697 2.67056E-08 6.03066E-08-1.00476E-06
 -1      1698 0.00000E+00 0.00000E+00 0.00000E+00
 -1      1699 2.67712E-08 6.03574E-08-1.00239E-06
 -1      1700 0.00000E+00 0.00000E+00 0.00000E+00
 -1      1701 2.67689E-08 6.00893E-08-9.94592E-07
 -1      1702 0.00000E+00 0.00000E+00 0.00000E+00
 -1      1703 2.97373E-08 5.88275E-08-9.76953E-07
 -1      1704 0.00000E+00 0.00000E+00 0.00000E+00
 -1      1705 4.14088E-08 5.67323E-08-9.65176E-07
 -1      1706 0.00000E+00 0.00000E+00 0.00000E+00
 -1      1707 6.79139E-08 6.08317E-08-9.91611E-07
 -1      1708 0.00000E+00 0.00000E+00 0.00000E+00
 -1      1709 5.61428E-08 7.92349E-08-1.21852E-06
 -1      1710 0.00000E+00 0.00000E+00 0.00000E+00
 -1      1711-5.11635E-08 7.24500E-08-1.14980E-06
 -1      1712 0.00000E+00 0.00000E+00 0.00000E+00
 -1      1713-7.03036E-08 9.05338E-09-1.44599E-07
 -1      1714 0.00000E+00 0.00000E+00 0.00000E+00
 -1      1715 1.51020E-08-5.99275E-09-1.42698E-09
 -1      1716 0.00000E+00 0.00000E+00 0.00000E+00
 -1      1717 4.02156E-08-1.45217E-09 1.08537E-08
 -1      1718 0.00000E+00 0.00000E+00 0.00000E+00
 -1      1719-3.69147E-09 1.38862E-08-4.50387E-07
 -1      1720 0.00000E+00 0.00000E+00 0.00000E+00
 -1      1721 2.10966E-08 2.81609E-08-9.30141E-07
 -1      1722 0.00000E+00 0.00000E+00 0.00000E+00
 -1      1723 4.52294E-09 3.33449E-08-1.12806E-06
 -1      1724 0.00000E+00 0.00000E+00 0.00000E+00
 -1      1725-2.73169E-09 3.27574E-08-1.16184E-06
 -1      1726 0.00000E+00 0.00000E+00 0.00000E+00
 -1      1727 2.31329E-09 3.14411E-08-1.14763E-06
 -1      1728 0.00000E+00 0.00000E+00 0.00000E+00
 -1      1729 1.07901E-08 3.07119E-08-1.13202E-06
 -1      1730 0.00000E+00 0.00000E+00 0.00000E+00
 -1      1731 1.77455E-08 3.03903E-08-1.12424E-06
 -1      1732 0.00000E+00 0.00000E+00 0.00000E+00
 -1      1733 2.21470E-08 3.02303E-08-1.12153E-06
 -1      1734 0.00000E+00 0.00000E+00 0.00000E+00
 -1      1735 2.46964E-08 3.01334E-08-1.12095E-06
 -1      1736 0.00000E+00 0.00000E+00 0.00000E+00
 -1      1737 2.62202E-08 3.00740E-08-1.12100E-06
 -1      1738 0.00000E+00 0.00000E+00 0.00000E+00
 -1      1739 2.72612E-08 3.00439E-08-1.12125E-06
 -1      1740 0.00000E+00 0.00000E+00 0.00000E+00
 -1      1741 2.80444E-08 3.00407E-08-1.12153E-06
 -1      1742 0.00000E+00 0.00000E+00 0.00000E+00
 -1      1743 2.85152E-08 3.00654E-08-1.12131E-06
 -1      1744 0.00000E+00 0.00000E+00 0.00000E+00
 -1      1745 2.84810E-08 3.00892E-08-1.11872E-06
 -1      1746 0.00000E+00 0.00000E+00 0.00000E+00
 -1      1747 2.83186E-08 2.99439E-08-1.10997E-06
 -1      1748 0.00000E+00 0.00000E+00 0.00000E+00
 -1      1749 3.10376E-08 2.92972E-08-1.09112E-06
 -1      1750 0.00000E+00 0.00000E+00 0.00000E+00
 -1      1751 4.31691E-08 2.82437E-08-1.07592E-06
 -1      1752 0.00000E+00 0.00000E+00 0.00000E+00
 -1      1753 7.29668E-08 3.10327E-08-1.11248E-06
 -1      1754 0.00000E+00 0.00000E+00 0.00000E+00
 -1      1755 6.02424E-08 3.97290E-08-1.36009E-06
 -1      1756 0.00000E+00 0.00000E+00 0.00000E+00
 -1      1757-6.60336E-08 3.59991E-08-1.29711E-06
 -1      1758 0.00000E+00 0.00000E+00 0.00000E+00
 -1      1759-8.86943E-08 6.36861E-09-1.73938E-07
 -1      1760 0.00000E+00 0.00000E+00 0.00000E+00
 -1      1761 1.14484E-08-3.31212E-09 1.35660E-09
 -1      1762 0.00000E+00 0.00000E+00 0.00000E+00
 -1      1763 3.88273E-08-8.83815E-10 1.07952E-08
 -1      1764 0.00000E+00 0.00000E+00 0.00000E+00
 -1      1765-9.95529E-10-2.89531E-15-4.60552E-07
 -1      1766 0.00000E+00 0.00000E+00 0.00000E+00
 -1      1767 2.45038E-08-9.00808E-16-9.56133E-07
 -1      1768 0.00000E+00 0.00000E+00 0.00000E+00
 -1      1769 6.38050E-09-7.02364E-16-1.16224E-06
 -1      1770 0.00000E+00 0.00000E+00 0.00000E+00
 -1      1771-1.81902E-09-4.04237E-16-1.19775E-06
 -1      1772 0.00000E+00 0.00000E+00 0.00000E+00
 -1      1773 2.94775E-09-1.93385E-16-1.18335E-06
 -1      1774 0.00000E+00 0.00000E+00 0.00000E+00
 -1      1775 1.13502E-08-6.61421E-17-1.16739E-06
 -1      1776 0.00000E+00 0.00000E+00 0.00000E+00
 -1      1777 1.82985E-08 1.35089E-16-1.15942E-06
 -1      1778 0.00000E+00 0.00000E+00 0.00000E+00
 -1      1779 2.27069E-08 2.90910E-16-1.15662E-06
 -1      1780 0.00000E+00 0.00000E+00 0.00000E+00
 -1      1781 2.52624E-08 4.33362E-16-1.15602E-06
 -1      1782 0.00000E+00 0.00000E+00 0.00000E+00
 -1      1783 2.67881E-08 5.94198E-16-1.15607E-06
 -1      1784 0.00000E+00 0.00000E+00 0.00000E+00
 -1      1785 2.78269E-08 7.41189E-16-1.15632E-06
 -1      1786 0.00000E+00 0.00000E+00 0.00000E+00
 -1      1787 2.86027E-08 8.42060E-16-1.15661E-06
 -1      1788 0.00000E+00 0.00000E+00 0.00000E+00
 -1      1789 2.90586E-08 9.17814E-16-1.15637E-06
 -1      1790 0.00000E+00 0.00000E+00 0.00000E+00
 -1      1791 2.89907E-08 1.04286E-15-1.15368E-06
 -1      1792 0.00000E+00 0.00000E+00 0.00000E+00
 -1      1793 2.87838E-08 1.11585E-15-1.14472E-06
 -1      1794 0.00000E+00 0.00000E+00 0.00000E+00
 -1      1795 3.13952E-08 1.21167E-15-1.12534E-06
 -1      1796 0.00000E+00 0.00000E+00 0.00000E+00
 -1      1797 4.37610E-08 1.34572E-15-1.10946E-06
 -1      1798 0.00000E+00 0.00000E+00 0.00000E+00
 -1      1799 7.45975E-08 1.40661E-15-1.14909E-06
 -1      1800 0.00000E+00 0.00000E+00 0.00000E+00
 -1      1801 6.13528E-08 1.84362E-15-1.40386E-06
 -1      1802 0.00000E+00 0.00000E+00 0.00000E+00
 -1      1803-7.07329E-08 1.69089E-15-1.34108E-06
 -1      1804 0.00000E+00 0.00000E+00 0.00000E+00
 -1      1805-9.46835E-08 7.80966E-16-1.84374E-07
 -1      1806 0.00000E+00 0.00000E+00 0.00000E+00
 -1      1807 1.00323E-08 2.10826E-16 2.12474E-09
 -1      1808 0.00000E+00 0.00000E+00 0.00000E+00
 -1      1809 3.84270E-08 1.72912E-17 1.09166E-08
 -1      1810 0.00000E+00 0.00000E+00 0.00000E+00
 -1      1811-3.69147E-09-1.38862E-08-4.50387E-07
 -1      1812 0.00000E+00 0.00000E+00 0.00000E+00
 -1      1813 2.10966E-08-2.81609E-08-9.30141E-07
 -1      1814 0.00000E+00 0.00000E+00 0.00000E+00
 -1      1815 4.52295E-09-3.33449E-08-1.12806E-06
 -1      1816 0.00000E+00 0.00000E+00 0.00000E+00
 -1      1817-2.73169E-09-3.27574E-08-1.16184E-06
 -1      1818 0.00000E+00 0.00000E+00 0.00000E+00
 -1      1819 2.31329E-09-3.14411E-08-1.14763E-06
 -1      1820 0.00000E+00 0.00000E+00 0.00000E+00
 -1      1821 1.07901E-08-3.07119E-08-1.13202E-06
 -1      1822 0.00000E+00 0.00000E+00 0.00000E+00
 -1      1823 1.77455E-08-3.03903E-08-1.12424E-06
 -1      1824 0.00000E+00 0.00000E+00 0.00000E+00
 -1      1825 2.21470E-08-3.02303E-08-1.12153E-06
 -1      1826 0.00000E+00 0.00000E+00 0.00000E+00
 -1      1827 2.46964E-08-3.01334E-08-1.12095E-06
 -1      1828 0.00000E+00 0.00000E+00 0.00000E+00
 -1      1829 2.62202E-08-3.00740E-08-1.12100E-06
 -1      1830 0.00000E+00 0.00000E+00 0.00000E+00
 -1      1831 2.72612E-08-3.00439E-08-1.12125E-06
 -1      1832 0.00000E+00 0.00000E+00 0.00000E+00
 -1      1833 2.80444E-08-3.00407E-08-1.12153E-06
 -1      1834 0.00000E+00 0.00000E+00 0.00000E+00
 -1      1835 2.85152E-08-3.00654E-08-1.12131E-06
 -1      1836 0.00000E+00 0.00000E+00 0.00000E+00
 -1      1837 2.84810E-08-3.00892E-08-1.11872E-06
 -1      1838 0.00000E+00 0.00000E+00 0.00000E+00
 -1      1839 2.83186E-08-2.99439E-08-1.10997E-06
 -1      1840 0.00000E+00 0.00000E+00 0.00000E+00
 -1      1841 3.10376E-08-2.92972E-08-1.09112E-06
 -1      1842 0.00000E+00 0.00000E+00 0.00000E+00
 -1      1843 4.31691E-08-2.82437E-08-1.07592E-06
 -1      1844 0.00000E+00 0.00000E+00 0.00000E+00
 -1      1845 7.29668E-08-3.10327E-08-1.11248E-06
 -1      1846 0.00000E+00 0.00000E+00 0.00000E+00
 -1      1847 6.02424E-08-3.97290E-08-1.36009E-06
 -1      1848 0.00000E+00 0.00000E+00 0.00000E+00
 -1      1849-6.60336E-08-3.59991E-08-1.29711E-06
 -1      1850 0.00000E+00 0.00000E+00 0.00000E+00
 -1      1851-8.86943E-08-6.36861E-09-1.73938E-07
 -1      1852 0.00000E+00 0.00000E+00 0.00000E+00
 -1      1853 1.14484E-08 3.31212E-09 1.35660E-09
 -1      1854 0.00000E+00 0.00000E+00 0.00000E+00
 -1      1855 3.88273E-08 8.83815E-10 1.07952E-08
 -1      1856 0.00000E+00 0.00000E+00 0.00000E+00
 -1      1857-1.25465E-08-2.84340E-08-4.13626E-07
 -1      1858 0.00000E+00 0.00000E+00 0.00000E+00
 -1      1859 1.04904E-08-5.77723E-08-8.40775E-07
 -1      1860 0.00000E+00 0.00000E+00 0.00000E+00
 -1      1861-1.12915E-09-6.71822E-08-1.01323E-06
 -1      1862 0.00000E+00 0.00000E+00 0.00000E+00
 -1      1863-5.65150E-09-6.56959E-08-1.04233E-06
 -1      1864 0.00000E+00 0.00000E+00 0.00000E+00
 -1      1865 2.47781E-10-6.30735E-08-1.02892E-06
 -1      1866 0.00000E+00 0.00000E+00 0.00000E+00
 -1      1867 8.94137E-09-6.16172E-08-1.01446E-06
 -1      1868 0.00000E+00 0.00000E+00 0.00000E+00
 -1      1869 1.59094E-08-6.09667E-08-1.00733E-06
 -1      1870 0.00000E+00 0.00000E+00 0.00000E+00
 -1      1871 2.02867E-08-6.06392E-08-1.00487E-06
 -1      1872 0.00000E+00 0.00000E+00 0.00000E+00
 -1      1873 2.28170E-08-6.04422E-08-1.00436E-06
 -1      1874 0.00000E+00 0.00000E+00 0.00000E+00
 -1      1875 2.43352E-08-6.03235E-08-1.00442E-06
 -1      1876 0.00000E+00 0.00000E+00 0.00000E+00
 -1      1877 2.53829E-08-6.02642E-08-1.00465E-06
 -1      1878 0.00000E+00 0.00000E+00 0.00000E+00
 -1      1879 2.61881E-08-6.02581E-08-1.00492E-06
 -1      1880 0.00000E+00 0.00000E+00 0.00000E+00
 -1      1881 2.67056E-08-6.03066E-08-1.00476E-06
 -1      1882 0.00000E+00 0.00000E+00 0.00000E+00
 -1      1883 2.67712E-08-6.03574E-08-1.00239E-06
 -1      1884 0.00000E+00 0.00000E+00 0.00000E+00
 -1      1885 2.67689E-08-6.00893E-08-9.94592E-07
 -1      1886 0.00000E+00 0.00000E+00 0.00000E+00
 -1      1887 2.97373E-08-5.88275E-08-9.76953E-07
 -1      1888 0.00000E+00 0.00000E+00 0.00000E+00
 -1      1889 4.14088E-08-5.67323E-08-9.65176E-07
 -1      1890 0.00000E+00 0.00000E+00 0.00000E+00
 -1      1891 6.79139E-08-6.08317E-08-9.91611E-07
 -1      1892 0.00000E+00 0.00000E+00 0.00000E+00
 -1      1893 5.61428E-08-7.92349E-08-1.21852E-06
 -1      1894 0.00000E+00 0.00000E+00 0.00000E+00
 -1      1895-5.11635E-08-7.24500E-08-1.14980E-06
 -1      1896 0.00000E+00 0.00000E+00 0.00000E+00
 -1      1897-7.03036E-08-9.05338E-09-1.44599E-07
 -1      1898 0.00000E+00 0.00000E+00 0.00000E+00
 -1      1899 1.51020E-08 5.99275E-09-1.42698E-09
 -1      1900 0.00000E+00 0.00000E+00 0.00000E+00
 -1      1901 4.02156E-08 1.45217E-09 1.08537E-08
 -1      1902 0.00000E+00 0.00000E+00 0.00000E+00
 -1      1903-2.80697E-08-3.54998E-08-2.92245E-07
 -1      1904 0.00000E+00 0.00000E+00 0.00000E+00
 -1      1905-8.08589E-09-7.08209E-08-5.59298E-07
 -1      1906 0.00000E+00 0.00000E+00 0.00000E+00
 -1      1907-1.23096E-08-8.03745E-08-6.78089E-07
 -1      1908 0.00000E+00 0.00000E+00 0.00000E+00
 -1      1909-1.26595E-08-7.75977E-08-7.00461E-07
 -1      1910 0.00000E+00 0.00000E+00 0.00000E+00
 -1      1911-5.27784E-09-7.40618E-08-6.90972E-07
 -1      1912 0.00000E+00 0.00000E+00 0.00000E+00
 -1      1913 3.80290E-09-7.21431E-08-6.80275E-07
 -1      1914 0.00000E+00 0.00000E+00 0.00000E+00
 -1      1915 1.07950E-08-7.12525E-08-6.74882E-07
 -1      1916 0.00000E+00 0.00000E+00 0.00000E+00
 -1      1917 1.51311E-08-7.07708E-08-6.73015E-07
 -1      1918 0.00000E+00 0.00000E+00 0.00000E+00
 -1      1919 1.76297E-08-7.04708E-08-6.72619E-07
 -1      1920 0.00000E+00 0.00000E+00 0.00000E+00
 -1      1921 1.91396E-08-7.02894E-08-6.72654E-07
 -1      1922 0.00000E+00 0.00000E+00 0.00000E+00
 -1      1923 2.01984E-08-7.01980E-08-6.72818E-07
 -1      1924 0.00000E+00 0.00000E+00 0.00000E+00
 -1      1925 2.10394E-08-7.01839E-08-6.73019E-07
 -1      1926 0.00000E+00 0.00000E+00 0.00000E+00
 -1      1927 2.16374E-08-7.02526E-08-6.72902E-07
 -1      1928 0.00000E+00 0.00000E+00 0.00000E+00
 -1      1929 2.18602E-08-7.03601E-08-6.71148E-07
 -1      1930 0.00000E+00 0.00000E+00 0.00000E+00
 -1      1931 2.21605E-08-7.01387E-08-6.65417E-07
 -1      1932 0.00000E+00 0.00000E+00 0.00000E+00
 -1      1933 2.54020E-08-6.86899E-08-6.53365E-07
 -1      1934 0.00000E+00 0.00000E+00 0.00000E+00
 -1      1935 3.67342E-08-6.61085E-08-6.47444E-07
 -1      1936 0.00000E+00 0.00000E+00 0.00000E+00
 -1      1937 5.82084E-08-6.99170E-08-6.73547E-07
 -1      1938 0.00000E+00 0.00000E+00 0.00000E+00
 -1      1939 4.67557E-08-9.29772E-08-8.13833E-07
 -1      1940 0.00000E+00 0.00000E+00 0.00000E+00
 -1      1941-2.96068E-08-8.41839E-08-7.25676E-07
 -1      1942 0.00000E+00 0.00000E+00 0.00000E+00
 -1      1943-4.12420E-08-7.27732E-09-1.29463E-07
 -1      1944 0.00000E+00 0.00000E+00 0.00000E+00
 -1      1945 2.02816E-08 7.40079E-09 7.10144E-10
 -1      1946 0.00000E+00 0.00000E+00 0.00000E+00
 -1      1947 4.28695E-08 1.55114E-09 9.91781E-09
 -1      1948 0.00000E+00 0.00000E+00 0.00000E+00
 -1      1949-4.58614E-08-2.91937E-08-1.61710E-07
 -1      1950 0.00000E+00 0.00000E+00 0.00000E+00
 -1      1951-2.88213E-08-5.45331E-08-2.72818E-07
 -1      1952 0.00000E+00 0.00000E+00 0.00000E+00
 -1      1953-2.50038E-08-5.90876E-08-3.40806E-07
 -1      1954 0.00000E+00 0.00000E+00 0.00000E+00
 -1      1955-2.03102E-08-5.49141E-08-3.55890E-07
 -1      1956 0.00000E+00 0.00000E+00 0.00000E+00
 -1      1957-1.09193E-08-5.12077E-08-3.50739E-07
 -1      1958 0.00000E+00 0.00000E+00 0.00000E+00
 -1      1959-1.27928E-09-4.92788E-08-3.43979E-07
 -1      1960 0.00000E+00 0.00000E+00 0.00000E+00
 -1      1961 5.75824E-09-4.82870E-08-3.40416E-07
 -1      1962 0.00000E+00 0.00000E+00 0.00000E+00
 -1      1963 1.00424E-08-4.76718E-08-3.39201E-07
 -1      1964 0.00000E+00 0.00000E+00 0.00000E+00
 -1      1965 1.25039E-08-4.72636E-08-3.38959E-07
 -1      1966 0.00000E+00 0.00000E+00 0.00000E+00
 -1      1967 1.40078E-08-4.70139E-08-3.38998E-07
 -1      1968 0.00000E+00 0.00000E+00 0.00000E+00
 -1      1969 1.50847E-08-4.68854E-08-3.39120E-07
 -1      1970 0.00000E+00 0.00000E+00 0.00000E+00
 -1      1971 1.59755E-08-4.68546E-08-3.39279E-07
 -1      1972 0.00000E+00 0.00000E+00 0.00000E+00
 -1      1973 1.66832E-08-4.69345E-08-3.39224E-07
 -1      1974 0.00000E+00 0.00000E+00 0.00000E+00
 -1      1975 1.71020E-08-4.71353E-08-3.38132E-07
 -1      1976 0.00000E+00 0.00000E+00 0.00000E+00
 -1      1977 1.77356E-08-4.72051E-08-3.34435E-07
 -1      1978 0.00000E+00 0.00000E+00 0.00000E+00
 -1      1979 2.11409E-08-4.63202E-08-3.28522E-07
 -1      1980 0.00000E+00 0.00000E+00 0.00000E+00
 -1      1981 3.19977E-08-4.42297E-08-3.27947E-07
 -1      1982 0.00000E+00 0.00000E+00 0.00000E+00
 -1      1983 4.83545E-08-4.71851E-08-3.56809E-07
 -1      1984 0.00000E+00 0.00000E+00 0.00000E+00
 -1      1985 3.92128E-08-6.43533E-08-4.05187E-07
 -1      1986 0.00000E+00 0.00000E+00 0.00000E+00
 -1      1987-4.48281E-09-5.59470E-08-3.26337E-07
 -1      1988 0.00000E+00 0.00000E+00 0.00000E+00
 -1      1989-9.22044E-09-3.43845E-09-1.09110E-07
 -1      1990 0.00000E+00 0.00000E+00 0.00000E+00
 -1      1991 2.78245E-08 7.19334E-09 3.85794E-09
 -1      1992 0.00000E+00 0.00000E+00 0.00000E+00
 -1      1993 4.64011E-08 1.20515E-09 9.51919E-09
 -1      1994 0.00000E+00 0.00000E+00 0.00000E+00
 -1      1995-6.12300E-08-1.98572E-08-9.71001E-08
 -1      1996 0.00000E+00 0.00000E+00 0.00000E+00
 -1      1997-4.61375E-08-3.23993E-08-1.55033E-07
 -1      1998 0.00000E+00 0.00000E+00 0.00000E+00
 -1      1999-3.51812E-08-3.16003E-08-1.95044E-07
 -1      2000 0.00000E+00 0.00000E+00 0.00000E+00
 -1      2001-2.51804E-08-2.65010E-08-2.04512E-07
 -1      2002 0.00000E+00 0.00000E+00 0.00000E+00
 -1      2003-1.35048E-08-2.30164E-08-2.00049E-07
 -1      2004 0.00000E+00 0.00000E+00 0.00000E+00
 -1      2005-3.19479E-09-2.11760E-08-1.94794E-07
 -1      2006 0.00000E+00 0.00000E+00 0.00000E+00
 -1      2007 3.90223E-09-2.00613E-08-1.92142E-07
 -1      2008 0.00000E+00 0.00000E+00 0.00000E+00
 -1      2009 8.13420E-09-1.92845E-08-1.91331E-07
 -1      2010 0.00000E+00 0.00000E+00 0.00000E+00
 -1      2011 1.05672E-08-1.87568E-08-1.91232E-07
 -1      2012 0.00000E+00 0.00000E+00 0.00000E+00
 -1      2013 1.20757E-08-1.84383E-08-1.91306E-07
 -1      2014 0.00000E+00 0.00000E+00 0.00000E+00
 -1      2015 1.31803E-08-1.82746E-08-1.91426E-07
 -1      2016 0.00000E+00 0.00000E+00 0.00000E+00
 -1      2017 1.41320E-08-1.82255E-08-1.91584E-07
 -1      2018 0.00000E+00 0.00000E+00 0.00000E+00
 -1      2019 1.49663E-08-1.83033E-08-1.91612E-07
 -1      2020 0.00000E+00 0.00000E+00 0.00000E+00
 -1      2021 1.56077E-08-1.85746E-08-1.90853E-07
 -1      2022 0.00000E+00 0.00000E+00 0.00000E+00
 -1      2023 1.64922E-08-1.89729E-08-1.88211E-07
 -1      2024 0.00000E+00 0.00000E+00 0.00000E+00
 -1      2025 1.98903E-08-1.89328E-08-1.84228E-07
 -1      2026 0.00000E+00 0.00000E+00 0.00000E+00
 -1      2027 2.97708E-08-1.78278E-08-1.86182E-07
 -1      2028 0.00000E+00 0.00000E+00 0.00000E+00
 -1      2029 4.24275E-08-1.98285E-08-2.08664E-07
 -1      2030 0.00000E+00 0.00000E+00 0.00000E+00
 -1      2031 3.90888E-08-2.79757E-08-2.32491E-07
 -1      2032 0.00000E+00 0.00000E+00 0.00000E+00
 -1      2033 2.01319E-08-2.18107E-08-1.82067E-07
 -1      2034 0.00000E+00 0.00000E+00 0.00000E+00
 -1      2035 1.86921E-08-3.15466E-10-6.65015E-08
 -1      2036 0.00000E+00 0.00000E+00 0.00000E+00
 -1      2037 3.76781E-08 5.65523E-09 6.00606E-09
 -1      2038 0.00000E+00 0.00000E+00 0.00000E+00
 -1      2039 5.00887E-08 6.08510E-10 1.08872E-08
 -1      2040-4.85339E-08-5.40311E-08-2.30169E-08
 -1      2041-4.30535E-08-9.21019E-08-4.23709E-08
 -1      2042-2.70587E-08-1.18420E-07-5.32427E-08
 -1      2043-1.23874E-08-1.29125E-07-5.73558E-08
 -1      2044-3.80804E-09-1.31397E-07-5.76170E-08
 -1      2045-1.02681E-10-1.31027E-07-5.70879E-08
 -1      2046 1.29412E-09-1.30476E-07-5.67893E-08
 -1      2047 1.92659E-09-1.30249E-07-5.67516E-08
 -1      2048 2.34347E-09-1.30235E-07-5.68109E-08
 -1      2049 2.67590E-09-1.30289E-07-5.68753E-08
 -1      2050 2.97209E-09-1.30338E-07-5.69222E-08
 -1      2051 3.31504E-09-1.30334E-07-5.69459E-08
 -1      2052 3.83636E-09-1.30165E-07-5.68997E-08
 -1      2053 4.60070E-09-1.29610E-07-5.66363E-08
 -1      2054 5.23322E-09-1.28480E-07-5.59478E-08
 -1      2055 4.60589E-09-1.27257E-07-5.50378E-08
 -1      2056 2.51897E-09-1.28051E-07-5.54958E-08
 -1      2057 4.79817E-09-1.33586E-07-5.94445E-08
 -1      2058 2.24170E-08-1.37148E-07-6.30584E-08
 -1      2059 4.88671E-08-1.10766E-07-5.07149E-08
 -1      2060 5.42684E-08-5.21337E-08-2.11214E-08
 -1      2061 3.56464E-08-1.49410E-08-3.50065E-09
 -1      2062 1.75983E-08-2.68561E-09 1.22411E-09
 -1      2063-5.11814E-08-5.00708E-08-2.99441E-08
 -1      2064-4.42531E-08-8.68230E-08-5.60896E-08
 -1      2065-2.66162E-08-1.11608E-07-7.03988E-08
 -1      2066-1.16081E-08-1.21484E-07-7.52432E-08
 -1      2067-3.21753E-09-1.23404E-07-7.52897E-08
 -1      2068 2.39800E-10-1.22930E-07-7.44843E-08
 -1      2069 1.51226E-09-1.22341E-07-7.40298E-08
 -1      2070 2.10134E-09-1.22083E-07-7.39233E-08
 -1      2071 2.50325E-09-1.22041E-07-7.39551E-08
 -1      2072 2.82608E-09-1.22074E-07-7.40093E-08
 -1      2073 3.11119E-09-1.22112E-07-7.40540E-08
 -1      2074 3.43900E-09-1.22107E-07-7.40792E-08
 -1      2075 3.94471E-09-1.21958E-07-7.40293E-08
 -1      2076 4.71935E-09-1.21459E-07-7.37290E-08
 -1      2077 5.43623E-09-1.20420E-07-7.29069E-08
 -1      2078 4.88635E-09-1.19264E-07-7.17185E-08
 -1      2079 2.43633E-09-1.19987E-07-7.20643E-08
 -1      2080 3.64756E-09-1.25315E-07-7.71307E-08
 -1      2081 2.14961E-08-1.29365E-07-8.31435E-08
 -1      2082 5.08176E-08-1.04906E-07-6.75927E-08
 -1      2083 5.63788E-08-4.83202E-08-2.63781E-08
 -1      2084 3.52338E-08-1.34641E-08-3.79232E-09
 -1      2085 1.65121E-08-2.31186E-09 1.36939E-09
 -1      2086-5.77605E-08-4.32833E-08-3.99307E-08
 -1      2087-4.89728E-08-7.62044E-08-7.56069E-08
 -1      2088-2.81572E-08-9.79060E-08-9.49771E-08
 -1      2089-1.13504E-08-1.06452E-07-1.01132E-07
 -1      2090-2.60161E-09-1.08043E-07-1.01047E-07
 -1      2091 7.12473E-10-1.07570E-07-9.99317E-08
 -1      2092 1.82784E-09-1.07022E-07-9.92943E-08
 -1      2093 2.33904E-09-1.06774E-07-9.91116E-08
 -1      2094 2.71069E-09-1.06722E-07-9.91185E-08
 -1      2095 3.02082E-09-1.06742E-07-9.91671E-08
 -1      2096 3.29721E-09-1.06771E-07-9.92132E-08
 -1      2097 3.61952E-09-1.06766E-07-9.92405E-08
 -1      2098 4.13709E-09-1.06640E-07-9.91793E-08
 -1      2099 4.97807E-09-1.06215E-07-9.88137E-08
 -1      2100 5.83882E-09-1.05319E-07-9.77886E-08
 -1      2101 5.28441E-09-1.04311E-07-9.62103E-08
 -1      2102 1.98341E-09-1.04926E-07-9.64192E-08
 -1      2103 1.76374E-09-1.09623E-07-1.03016E-07
 -1      2104 2.17123E-08-1.13635E-07-1.12128E-07
 -1      2105 5.76076E-08-9.25355E-08-9.18951E-08
 -1      2106 6.39847E-08-4.19177E-08-3.45262E-08
 -1      2107 3.74712E-08-1.14996E-08-4.65969E-09
 -1      2108 1.60148E-08-1.91613E-09 1.47813E-09
 -1      2109-6.49504E-08-3.21187E-08-4.95551E-08
 -1      2110-5.43689E-08-5.71765E-08-9.45129E-08
 -1      2111-3.02513E-08-7.34512E-08-1.18852E-07
 -1      2112-1.13667E-08-7.98032E-08-1.26341E-07
 -1      2113-2.06854E-09-8.09592E-08-1.26165E-07
 -1      2114 1.16963E-09-8.05834E-08-1.24769E-07
 -1      2115 2.14224E-09-8.01591E-08-1.23965E-07
 -1      2116 2.57394E-09-7.99643E-08-1.23715E-07
 -1      2117 2.91388E-09-7.99194E-08-1.23702E-07
 -1      2118 3.21200E-09-7.99308E-08-1.23748E-07
 -1      2119 3.48210E-09-7.99507E-08-1.23797E-07
 -1      2120 3.80393E-09-7.99468E-08-1.23826E-07
 -1      2121 4.34288E-09-7.98543E-08-1.23753E-07
 -1      2122 5.26207E-09-7.95406E-08-1.23321E-07
 -1      2123 6.26719E-09-7.88772E-08-1.22095E-07
 -1      2124 5.66700E-09-7.81252E-08-1.20138E-07
 -1      2125 1.44910E-09-7.85721E-08-1.20217E-07
 -1      2126-7.64275E-11-8.21062E-08-1.28312E-07
 -1      2127 2.23830E-08-8.53806E-08-1.40433E-07
 -1      2128 6.52308E-08-6.97704E-08-1.15698E-07
 -1      2129 7.25730E-08-3.12296E-08-4.25864E-08
 -1      2130 4.04663E-08-8.47125E-09-5.56146E-09
 -1      2131 1.58735E-08-1.38724E-09 1.58492E-09
 -1      2132-7.02874E-08-1.71449E-08-5.62803E-08
 -1      2133-5.84284E-08-3.07204E-08-1.07817E-07
 -1      2134-3.19066E-08-3.94697E-08-1.35687E-07
 -1      2135-1.14587E-08-4.28654E-08-1.44127E-07
 -1      2136-1.70983E-09-4.34764E-08-1.43893E-07
 -1      2137 1.49530E-09-4.32692E-08-1.42304E-07
 -1      2138 2.36987E-09-4.30380E-08-1.41384E-07
 -1      2139 2.74437E-09-4.29310E-08-1.41088E-07
 -1      2140 3.06112E-09-4.29051E-08-1.41062E-07
 -1      2141 3.35082E-09-4.29103E-08-1.41107E-07
 -1      2142 3.61713E-09-4.29204E-08-1.41158E-07
 -1      2143 3.94010E-09-4.29182E-08-1.41189E-07
 -1      2144 4.49706E-09-4.28691E-08-1.41107E-07
 -1      2145 5.47563E-09-4.27022E-08-1.40628E-07
 -1      2146 6.58364E-09-4.23484E-08-1.39261E-07
 -1      2147 5.93643E-09-4.19460E-08-1.37036E-07
 -1      2148 1.04457E-09-4.21808E-08-1.37021E-07
 -1      2149-1.37493E-09-4.40853E-08-1.46189E-07
 -1      2150 2.29883E-08-4.59342E-08-1.60476E-07
 -1      2151 7.09167E-08-3.76222E-08-1.32616E-07
 -1      2152 7.90013E-08-1.67217E-08-4.83024E-08
 -1      2153 4.28321E-08-4.50309E-09-6.18485E-09
 -1      2154 1.58803E-08-7.30895E-10 1.67029E-09
 -1      2155-7.22389E-08-2.57510E-16-5.86821E-08
 -1      2156-5.99197E-08-3.35563E-16-1.12586E-07
 -1      2157-3.25252E-08-2.37931E-16-1.41729E-07
 -1      2158-1.15032E-08-1.81502E-16-1.50513E-07
 -1      2159-1.58367E-09-1.66892E-16-1.50258E-07
 -1      2160 1.61277E-09-1.65954E-16-1.48600E-07
 -1      2161 2.45261E-09-1.73296E-16-1.47639E-07
 -1      2162 2.80646E-09-1.92836E-16-1.47327E-07
 -1      2163 3.11478E-09-2.16278E-16-1.47296E-07
 -1      2164 3.40146E-09-2.48241E-16-1.47341E-07
 -1      2165 3.66650E-09-2.71719E-16-1.47393E-07
 -1      2166 3.99010E-09-2.90281E-16-1.47425E-07
 -1      2167 4.55394E-09-3.08588E-16-1.47339E-07
 -1      2168 5.55438E-09-3.31537E-16-1.46844E-07
 -1      2169 6.69930E-09-3.46279E-16-1.45426E-07
 -1      2170 6.03289E-09-3.56096E-16-1.43104E-07
 -1      2171 8.95774E-10-3.67879E-16-1.43056E-07
 -1      2172-1.83988E-09-4.00417E-16-1.52613E-07
 -1      2173 2.32232E-08-4.53831E-16-1.67686E-07
 -1      2174 7.29972E-08-3.77840E-16-1.38716E-07
 -1      2175 8.13580E-08-1.38200E-16-5.03612E-08
 -1      2176 4.37166E-08-2.38050E-17-6.40617E-09
 -1      2177 1.58985E-08-7.96689E-18 1.70261E-09
 -1      2178-7.02874E-08 1.71449E-08-5.62803E-08
 -1      2179-5.84284E-08 3.07204E-08-1.07817E-07
 -1      2180-3.19066E-08 3.94697E-08-1.35687E-07
 -1      2181-1.14587E-08 4.28654E-08-1.44127E-07
 -1      2182-1.70983E-09 4.34764E-08-1.43893E-07
 -1      2183 1.49530E-09 4.32692E-08-1.42304E-07
 -1      2184 2.36987E-09 4.30380E-08-1.41384E-07
 -1      2185 2.74437E-09 4.29310E-08-1.41088E-07
 -1      2186 3.06112E-09 4.29051E-08-1.41062E-07
 -1      2187 3.35082E-09 4.29103E-08-1.41107E-07
 -1      2188 3.61713E-09 4.29204E-08-1.41158E-07
 -1      2189 3.94010E-09 4.29182E-08-1.41189E-07
 -1      2190 4.49706E-09 4.28691E-08-1.41107E-07
 -1      2191 5.47563E-09 4.27022E-08-1.40628E-07
 -1      2192 6.58364E-09 4.23484E-08-1.39261E-07
 -1      2193 5.93643E-09 4.19460E-08-1.37036E-07
 -1      2194 1.04457E-09 4.21808E-08-1.37021E-07
 -1      2195-1.37493E-09 4.40853E-08-1.46189E-07
 -1      2196 2.29883E-08 4.59342E-08-1.60476E-07
 -1      2197 7.09167E-08 3.76222E-08-1.32616E-07
 -1      2198 7.90013E-08 1.67217E-08-4.83024E-08
 -1      2199 4.28321E-08 4.50309E-09-6.18485E-09
 -1      2200 1.58803E-08 7.30895E-10 1.67029E-09
 -1      2201-6.49504E-08 3.21187E-08-4.95551E-08
 -1      2202-5.43689E-08 5.71765E-08-9.45129E-08
 -1      2203-3.02513E-08 7.34512E-08-1.18852E-07
 -1      2204-1.13667E-08 7.98032E-08-1.26341E-07
 -1      2205-2.06854E-09 8.09592E-08-1.26165E-07
 -1      2206 1.16963E-09 8.05834E-08-1.24769E-07
 -1      2207 2.14224E-09 8.01591E-08-1.23965E-07
 -1      2208 2.57394E-09 7.99643E-08-1.23715E-07
 -1      2209 2.91388E-09 7.99194E-08-1.23702E-07
 -1      2210 3.21200E-09 7.99308E-08-1.23748E-07
 -1      2211 3.48210E-09 7.99507E-08-1.23797E-07
 -1      2212 3.80393E-09 7.99468E-08-1.23826E-07
 -1      2213 4.34288E-09 7.98543E-08-1.23753E-07
 -1      2214 5.26207E-09 7.95406E-08-1.23321E-07
 -1      2215 6.26719E-09 7.88772E-08-1.22095E-07
 -1      2216 5.66700E-09 7.81252E-08-1.20138E-07
 -1      2217 1.44910E-09 7.85721E-08-1.20217E-07
 -1      2218-7.64275E-11 8.21062E-08-1.28312E-07
 -1      2219 2.23830E-08 8.53806E-08-1.40433E-07
 -1      2220 6.52308E-08 6.97704E-08-1.15698E-07
 -1      2221 7.25730E-08 3.12296E-08-4.25864E-08
 -1      2222 4.04663E-08 8.47125E-09-5.56146E-09
 -1      2223 1.58735E-08 1.38724E-09 1.58492E-09
 -1      2224-5.77605E-08 4.32833E-08-3.99307E-08
 -1      2225-4.89728E-08 7.62044E-08-7.56069E-08
 -1      2226-2.81572E-08 9.79060E-08-9.49771E-08
 -1      2227-1.13504E-08 1.06452E-07-1.01132E-07
 -1      2228-2.60161E-09 1.08043E-07-1.01047E-07
 -1      2229 7.12473E-10 1.07570E-07-9.99317E-08
 -1      2230 1.82784E-09 1.07022E-07-9.92943E-08
 -1      2231 2.33904E-09 1.06774E-07-9.91116E-08
 -1      2232 2.71069E-09 1.06722E-07-9.91185E-08
 -1      2233 3.02082E-09 1.06742E-07-9.91671E-08
 -1      2234 3.29721E-09 1.06771E-07-9.92132E-08
 -1      2235 3.61952E-09 1.06766E-07-9.92405E-08
 -1      2236 4.13709E-09 1.06640E-07-9.91793E-08
 -1      2237 4.97807E-09 1.06215E-07-9.88137E-08
 -1      2238 5.83882E-09 1.05319E-07-9.77886E-08
 -1      2239 5.28441E-09 1.04311E-07-9.62103E-08
 -1      2240 1.98341E-09 1.04926E-07-9.64192E-08
 -1      2241 1.76374E-09 1.09623E-07-1.03016E-07
 -1      2242 2.17123E-08 1.13635E-07-1.12128E-07
 -1      2243 5.76076E-08 9.25355E-08-9.18951E-08
 -1      2244 6.39847E-08 4.19177E-08-3.45262E-08
 -1      2245 3.74712E-08 1.14996E-08-4.65969E-09
 -1      2246 1.60148E-08 1.91613E-09 1.47813E-09
 -1      2247-5.11814E-08 5.00708E-08-2.99441E-08
 -1      2248-4.42531E-08 8.68230E-08-5.60896E-08
 -1      2249-2.66162E-08 1.11608E-07-7.03988E-08
 -1      2250-1.16081E-08 1.21484E-07-7.52432E-08
 -1      2251-3.21753E-09 1.23404E-07-7.52897E-08
 -1      2252 2.39799E-10 1.22930E-07-7.44843E-08
 -1      2253 1.51226E-09 1.22341E-07-7.40298E-08
 -1      2254 2.10134E-09 1.22083E-07-7.39233E-08
 -1      2255 2.50325E-09 1.22041E-07-7.39551E-08
 -1      2256 2.82608E-09 1.22074E-07-7.40093E-08
 -1      2257 3.11119E-09 1.22112E-07-7.40540E-08
 -1      2258 3.43900E-09 1.22107E-07-7.40792E-08
 -1      2259 3.94471E-09 1.21958E-07-7.40293E-08
 -1      2260 4.71935E-09 1.21459E-07-7.37290E-08
 -1      2261 5.43623E-09 1.20420E-07-7.29069E-08
 -1      2262 4.88635E-09 1.19264E-07-7.17185E-08
 -1      2263 2.43633E-09 1.19987E-07-7.20643E-08
 -1      2264 3.64756E-09 1.25315E-07-7.71307E-08
 -1      2265 2.14961E-08 1.29365E-07-8.31435E-08
 -1      2266 5.08176E-08 1.04906E-07-6.75927E-08
 -1      2267 5.63788E-08 4.83202E-08-2.63781E-08
 -1      2268 3.52338E-08 1.34641E-08-3.79232E-09
 -1      2269 1.65121E-08 2.31186E-09 1.36939E-09
 -1      2270-4.85339E-08 5.40311E-08-2.30169E-08
 -1      2271-4.30535E-08 9.21019E-08-4.23709E-08
 -1      2272-2.70587E-08 1.18420E-07-5.32427E-08
 -1      2273-1.23874E-08 1.29125E-07-5.73558E-08
 -1      2274-3.80804E-09 1.31397E-07-5.76170E-08
 -1      2275-1.02681E-10 1.31027E-07-5.70879E-08
 -1      2276 1.29412E-09 1.30476E-07-5.67893E-08
 -1      2277 1.92659E-09 1.30249E-07-5.67516E-08
 -1      2278 2.34347E-09 1.30235E-07-5.68109E-08
 -1      2279 2.67590E-09 1.30289E-07-5.68753E-08
 -1      2280 2.97209E-09 1.30338E-07-5.69222E-08
 -1      2281 3.31504E-09 1.30334E-07-5.69459E-08
 -1      2282 3.83636E-09 1.30165E-07-5.68997E-08
 -1      2283 4.60070E-09 1.29610E-07-5.66363E-08
 -1      2284 5.23322E-09 1.28480E-07-5.59478E-08
 -1      2285 4.60589E-09 1.27257E-07-5.50378E-08
 -1      2286 2.51897E-09 1.28051E-07-5.54958E-08
 -1      2287 4.79817E-09 1.33586E-07-5.94445E-08
 -1      2288 2.24170E-08 1.37148E-07-6.30584E-08
 -1      2289 4.88671E-08 1.10766E-07-5.07149E-08
 -1      2290 5.42684E-08 5.21337E-08-2.11214E-08
 -1      2291 3.56464E-08 1.49410E-08-3.50065E-09
 -1      2292 1.75983E-08 2.68561E-09 1.22411E-09
 -1      2293-8.49110E-08-9.29697E-08-5.13345E-08
 -1      2294-7.01019E-08-1.58766E-07-8.81313E-08
 -1      2295-4.48556E-08-2.04531E-07-1.11798E-07
 -1      2296-2.11230E-08-2.23134E-07-1.19269E-07
 -1      2297-6.90785E-09-2.27236E-07-1.18882E-07
 -1      2298-3.47962E-10-2.26739E-07-1.17244E-07
 -1      2299 2.42058E-09-2.25882E-07-1.16431E-07
 -1      2300 3.78289E-09-2.25546E-07-1.16298E-07
 -1      2301 4.65660E-09-2.25554E-07-1.16404E-07
 -1      2302 5.31304E-09-2.25666E-07-1.16528E-07
 -1      2303 5.87217E-09-2.25761E-07-1.16625E-07
 -1      2304 6.48529E-09-2.25754E-07-1.16691E-07
 -1      2305 7.36239E-09-2.25458E-07-1.16634E-07
 -1      2306 8.61103E-09-2.24495E-07-1.16119E-07
 -1      2307 9.72426E-09-2.22537E-07-1.14614E-07
 -1      2308 9.14015E-09-2.20380E-07-1.12449E-07
 -1      2309 6.60939E-09-2.21518E-07-1.13370E-07
 -1      2310 1.07831E-08-2.30745E-07-1.23107E-07
 -1      2311 3.78780E-08-2.37819E-07-1.33181E-07
 -1      2312 7.77492E-08-1.92823E-07-1.06878E-07
 -1      2313 8.60110E-08-8.93350E-08-4.17418E-08
 -1      2314 5.81127E-08-2.56931E-08-3.58270E-09
 -1      2315 3.20463E-08-4.81979E-09 3.64801E-09
 -1      2316-8.97642E-08-8.36701E-08-6.68757E-08
 -1      2317-7.16459E-08-1.45692E-07-1.18119E-07
 -1      2318-4.38624E-08-1.87501E-07-1.49124E-07
 -1      2319-1.95958E-08-2.04109E-07-1.57865E-07
 -1      2320-5.80979E-09-2.07470E-07-1.56905E-07
 -1      2321 3.12205E-10-2.06789E-07-1.54661E-07
 -1      2322 2.87020E-09-2.05885E-07-1.53521E-07
 -1      2323 4.16191E-09-2.05506E-07-1.53243E-07
 -1      2324 5.01090E-09-2.05470E-07-1.53288E-07
 -1      2325 5.65087E-09-2.05546E-07-1.53388E-07
 -1      2326 6.19059E-09-2.05620E-07-1.53478E-07
 -1      2327 6.77669E-09-2.05614E-07-1.53547E-07
 -1      2328 7.62382E-09-2.05360E-07-1.53485E-07
 -1      2329 8.88030E-09-2.04514E-07-1.52906E-07
 -1      2330 1.01277E-08-2.02758E-07-1.51137E-07
 -1      2331 9.71854E-09-2.00769E-07-1.48332E-07
 -1      2332 6.64433E-09-2.01768E-07-1.48800E-07
 -1      2333 8.86895E-09-2.10394E-07-1.60895E-07
 -1      2334 3.61263E-08-2.18281E-07-1.77102E-07
 -1      2335 8.08815E-08-1.77958E-07-1.44125E-07
 -1      2336 8.93102E-08-8.01296E-08-5.21797E-08
 -1      2337 5.70092E-08-2.23492E-08-3.59436E-09
 -1      2338 3.00637E-08-3.95106E-09 4.03346E-09
 -1      2339-1.01028E-07-7.09098E-08-9.07387E-08
 -1      2340-7.88940E-08-1.25631E-07-1.64037E-07
 -1      2341-4.59179E-08-1.61550E-07-2.06808E-07
 -1      2342-1.88277E-08-1.75558E-07-2.18252E-07
 -1      2343-4.60911E-09-1.78246E-07-2.16854E-07
 -1      2344 1.21610E-09-1.77542E-07-2.13882E-07
 -1      2345 3.50752E-09-1.76700E-07-2.12337E-07
 -1      2346 4.67289E-09-1.76333E-07-2.11894E-07
 -1      2347 5.47442E-09-1.76276E-07-2.11887E-07
 -1      2348 6.09409E-09-1.76326E-07-2.11975E-07
 -1      2349 6.61853E-09-1.76382E-07-2.12069E-07
 -1      2350 7.19254E-09-1.76377E-07-2.12144E-07
 -1      2351 8.05321E-09-1.76167E-07-2.12060E-07
 -1      2352 9.40765E-09-1.75462E-07-2.11342E-07
 -1      2353 1.08897E-08-1.73979E-07-2.09117E-07
 -1      2354 1.05474E-08-1.72273E-07-2.05349E-07
 -1      2355 6.13981E-09-1.73086E-07-2.05241E-07
 -1      2356 5.67937E-09-1.80540E-07-2.20870E-07
 -1      2357 3.60293E-08-1.88387E-07-2.45571E-07
 -1      2358 9.19067E-08-1.54551E-07-2.02091E-07
 -1      2359 1.01548E-07-6.78379E-08-7.00233E-08
 -1      2360 6.00238E-08-1.85298E-08-4.79615E-09
 -1      2361 2.88491E-08-3.17546E-09 4.42552E-09
 -1      2362-1.13261E-07-5.20960E-08-1.13557E-07
 -1      2363-8.72679E-08-9.34788E-08-2.08472E-07
 -1      2364-4.88886E-08-1.20191E-07-2.62829E-07
 -1      2365-1.85129E-08-1.30464E-07-2.76987E-07
 -1      2366-3.54715E-09-1.32376E-07-2.75209E-07
 -1      2367 2.09352E-09-1.31805E-07-2.71559E-07
 -1      2368 4.14125E-09-1.31152E-07-2.69639E-07
 -1      2369 5.17804E-09-1.30863E-07-2.69051E-07
 -1      2370 5.93002E-09-1.30808E-07-2.69002E-07
 -1      2371 6.53094E-09-1.30838E-07-2.69086E-07
 -1      2372 7.04435E-09-1.30876E-07-2.69187E-07
 -1      2373 7.61470E-09-1.30872E-07-2.69268E-07
 -1      2374 8.50493E-09-1.30720E-07-2.69161E-07
 -1      2375 9.97762E-09-1.30207E-07-2.68304E-07
 -1      2376 1.16957E-08-1.29120E-07-2.65630E-07
 -1      2377 1.13500E-08-1.27860E-07-2.60915E-07
 -1      2378 5.49397E-09-1.28432E-07-2.60244E-07
 -1      2379 2.55527E-09-1.33992E-07-2.79384E-07
 -1      2380 3.66604E-08-1.40415E-07-3.12516E-07
 -1      2381 1.04287E-07-1.15807E-07-2.59107E-07
 -1      2382 1.15416E-07-4.99161E-08-8.75351E-08
 -1      2383 6.42942E-08-1.34251E-08-5.92410E-09
 -1      2384 2.82064E-08-2.26692E-09 4.86597E-09
 -1      2385-1.22297E-07-2.76486E-08-1.29545E-07
 -1      2386-9.35754E-08-4.99782E-08-2.39860E-07
 -1      2387-5.12746E-08-6.42792E-08-3.02527E-07
 -1      2388-1.84231E-08-6.97353E-08-3.18646E-07
 -1      2389-2.82548E-09-7.07369E-08-3.16613E-07
 -1      2390 2.71961E-09-7.04203E-08-3.12491E-07
 -1      2391 4.60028E-09-7.00643E-08-3.10311E-07
 -1      2392 5.54468E-09-6.99044E-08-3.09623E-07
 -1      2393 6.26051E-09-6.98717E-08-3.09547E-07
 -1      2394 6.84839E-09-6.98856E-08-3.09629E-07
 -1      2395 7.35513E-09-6.99053E-08-3.09736E-07
 -1      2396 7.92545E-09-6.99029E-08-3.09822E-07
 -1      2397 8.84144E-09-6.98228E-08-3.09700E-07
 -1      2398 1.04044E-08-6.95513E-08-3.08743E-07
 -1      2399 1.22901E-08-6.89750E-08-3.05747E-07
 -1      2400 1.19153E-08-6.83064E-08-3.00362E-07
 -1      2401 4.99151E-09-6.86023E-08-2.99295E-07
 -1      2402 3.62508E-10-7.15881E-08-3.20986E-07
 -1      2403 3.73192E-08-7.52007E-08-3.60197E-07
 -1      2404 1.13485E-07-6.22301E-08-2.99925E-07
 -1      2405 1.25783E-07-2.65687E-08-1.00077E-07
 -1      2406 6.77264E-08-7.07756E-09-6.68659E-09
 -1      2407 2.79265E-08-1.18817E-09 5.20663E-09
 -1      2408-1.25588E-07-5.92484E-16-1.35228E-07
 -1      2409-9.58883E-08-6.34009E-16-2.51062E-07
 -1      2410-5.21702E-08-4.21772E-16-3.16725E-07
 -1      2411-1.84104E-08-3.14699E-16-3.33554E-07
 -1      2412-2.57089E-09-2.78793E-16-3.31432E-07
 -1      2413 2.94549E-09-2.63960E-16-3.27142E-07
 -1      2414 4.76715E-09-2.63034E-16-3.24870E-07
 -1      2415 5.67826E-09-2.85369E-16-3.24146E-07
 -1      2416 6.38095E-09-3.12315E-16-3.24061E-07
 -1      2417 6.96419E-09-3.57319E-16-3.24143E-07
 -1      2418 7.46871E-09-3.86913E-16-3.24252E-07
 -1      2419 8.03938E-09-4.10255E-16-3.24340E-07
 -1      2420 8.96529E-09-4.33056E-16-3.24212E-07
 -1      2421 1.05616E-08-4.65796E-16-3.23219E-07
 -1      2422 1.25072E-08-4.82480E-16-3.20109E-07
 -1      2423 1.21171E-08-4.91952E-16-3.14484E-07
 -1      2424 4.80465E-09-5.02079E-16-3.13276E-07
 -1      2425-4.17565E-10-5.43123E-16-3.35896E-07
 -1      2426 3.75860E-08-6.40563E-16-3.77301E-07
 -1      2427 1.16834E-07-5.39463E-16-3.14608E-07
 -1      2428 1.29572E-07-1.57545E-16-1.04601E-07
 -1      2429 6.90176E-08-1.05121E-17-6.95224E-09
 -1      2430 2.78528E-08-9.01512E-18 5.33364E-09
 -1      2431-1.22297E-07 2.76486E-08-1.29545E-07
 -1      2432-9.35754E-08 4.99782E-08-2.39860E-07
 -1      2433-5.12746E-08 6.42792E-08-3.02527E-07
 -1      2434-1.84231E-08 6.97353E-08-3.18646E-07
 -1      2435-2.82548E-09 7.07369E-08-3.16613E-07
 -1      2436 2.71961E-09 7.04203E-08-3.12491E-07
 -1      2437 4.60028E-09 7.00643E-08-3.10311E-07
 -1      2438 5.54468E-09 6.99044E-08-3.09623E-07
 -1      2439 6.26051E-09 6.98717E-08-3.09547E-07
 -1      2440 6.84839E-09 6.98856E-08-3.09629E-07
 -1      2441 7.35513E-09 6.99053E-08-3.09736E-07
 -1      2442 7.92545E-09 6.99029E-08-3.09822E-07
 -1      2443 8.84144E-09 6.98228E-08-3.09700E-07
 -1      2444 1.04044E-08 6.95513E-08-3.08743E-07
 -1      2445 1.22901E-08 6.89750E-08-3.05747E-07
 -1      2446 1.19153E-08 6.83064E-08-3.00362E-07
 -1      2447 4.99151E-09 6.86023E-08-2.99295E-07
 -1      2448 3.62508E-10 7.15881E-08-3.20986E-07
 -1      2449 3.73192E-08 7.52007E-08-3.60197E-07
 -1      2450 1.13485E-07 6.22301E-08-2.99925E-07
 -1      2451 1.25783E-07 2.65687E-08-1.00077E-07
 -1      2452 6.77264E-08 7.07756E-09-6.68659E-09
 -1      2453 2.79265E-08 1.18817E-09 5.20663E-09
 -1      2454-1.13261E-07 5.20960E-08-1.13557E-07
 -1      2455-8.72679E-08 9.34788E-08-2.08472E-07
 -1      2456-4.88886E-08 1.20191E-07-2.62829E-07
 -1      2457-1.85129E-08 1.30464E-07-2.76987E-07
 -1      2458-3.54715E-09 1.32376E-07-2.75209E-07
 -1      2459 2.09352E-09 1.31805E-07-2.71559E-07
 -1      2460 4.14125E-09 1.31152E-07-2.69639E-07
 -1      2461 5.17804E-09 1.30863E-07-2.69051E-07
 -1      2462 5.93002E-09 1.30808E-07-2.69002E-07
 -1      2463 6.53094E-09 1.30838E-07-2.69086E-07
 -1      2464 7.04435E-09 1.30876E-07-2.69187E-07
 -1      2465 7.61470E-09 1.30872E-07-2.69268E-07
 -1      2466 8.50493E-09 1.30720E-07-2.69161E-07
 -1      2467 9.97762E-09 1.30207E-07-2.68304E-07
 -1      2468 1.16957E-08 1.29120E-07-2.65630E-07
 -1      2469 1.13500E-08 1.27860E-07-2.60915E-07
 -1      2470 5.49397E-09 1.28432E-07-2.60244E-07
 -1      2471 2.55527E-09 1.33992E-07-2.79384E-07
 -1      2472 3.66604E-08 1.40415E-07-3.12516E-07
 -1      2473 1.04287E-07 1.15807E-07-2.59107E-07
 -1      2474 1.15416E-07 4.99161E-08-8.75351E-08
 -1      2475 6.42942E-08 1.34251E-08-5.92410E-09
 -1      2476 2.82064E-08 2.26692E-09 4.86597E-09
 -1      2477-1.01028E-07 7.09098E-08-9.07387E-08
 -1      2478-7.88940E-08 1.25631E-07-1.64037E-07
 -1      2479-4.59179E-08 1.61550E-07-2.06808E-07
 -1      2480-1.88277E-08 1.75558E-07-2.18252E-07
 -1      2481-4.60911E-09 1.78246E-07-2.16854E-07
 -1      2482 1.21610E-09 1.77542E-07-2.13882E-07
 -1      2483 3.50752E-09 1.76700E-07-2.12337E-07
 -1      2484 4.67289E-09 1.76333E-07-2.11894E-07
 -1      2485 5.47442E-09 1.76276E-07-2.11887E-07
 -1      2486 6.09409E-09 1.76326E-07-2.11975E-07
 -1      2487 6.61853E-09 1.76382E-07-2.12069E-07
 -1      2488 7.19254E-09 1.76377E-07-2.12144E-07
 -1      2489 8.05321E-09 1.76167E-07-2.12060E-07
 -1      2490 9.40765E-09 1.75462E-07-2.11342E-07
 -1      2491 1.08897E-08 1.73979E-07-2.09117E-07
 -1      2492 1.05474E-08 1.72273E-07-2.05349E-07
 -1      2493 6.13981E-09 1.73086E-07-2.05241E-07
 -1      2494 5.67937E-09 1.80540E-07-2.20870E-07
 -1      2495 3.60293E-08 1.88387E-07-2.45571E-07
 -1      2496 9.19067E-08 1.54551E-07-2.02091E-07
 -1      2497 1.01548E-07 6.78379E-08-7.00233E-08
 -1      2498 6.00238E-08 1.85298E-08-4.79615E-09
 -1      2499 2.88491E-08 3.17546E-09 4.42552E-09
 -1      2500-8.97642E-08 8.36701E-08-6.68757E-08
 -1      2501-7.16459E-08 1.45692E-07-1.18119E-07
 -1      2502-4.38624E-08 1.87501E-07-1.49124E-07
 -1      2503-1.95958E-08 2.04109E-07-1.57865E-07
 -1      2504-5.80979E-09 2.07470E-07-1.56905E-07
 -1      2505 3.12205E-10 2.06789E-07-1.54661E-07
 -1      2506 2.87020E-09 2.05885E-07-1.53521E-07
 -1      2507 4.16191E-09 2.05506E-07-1.53243E-07
 -1      2508 5.01090E-09 2.05470E-07-1.53288E-07
 -1      2509 5.65087E-09 2.05546E-07-1.53388E-07
 -1      2510 6.19059E-09 2.05620E-07-1.53478E-07
 -1      2511 6.77669E-09 2.05614E-07-1.53547E-07
 -1      2512 7.62382E-09 2.05360E-07-1.53485E-07
 -1      2513 8.88030E-09 2.04514E-07-1.52906E-07
 -1      2514 1.01277E-08 2.02758E-07-1.51137E-07
 -1      2515 9.71854E-09 2.00769E-07-1.48332E-07
 -1      2516 6.64433E-09 2.01768E-07-1.48800E-07
 -1      2517 8.86895E-09 2.10394E-07-1.60895E-07
 -1      2518 3.61263E-08 2.18281E-07-1.77102E-07
 -1      2519 8.08815E-08 1.77958E-07-1.44125E-07
 -1      2520 8.93102E-08 8.01296E-08-5.21797E-08
 -1      2521 5.70092E-08 2.23492E-08-3.59436E-09
 -1      2522 3.00637E-08 3.95106E-09 4.03346E-09
 -1      2523-8.49110E-08 9.29697E-08-5.13345E-08
 -1      2524-7.01019E-08 1.58766E-07-8.81313E-08
 -1      2525-4.48556E-08 2.04531E-07-1.11798E-07
 -1      2526-2.11230E-08 2.23134E-07-1.19269E-07
 -1      2527-6.90785E-09 2.27236E-07-1.18882E-07
 -1      2528-3.47962E-10 2.26739E-07-1.17244E-07
 -1      2529 2.42058E-09 2.25882E-07-1.16431E-07
 -1      2530 3.78289E-09 2.25546E-07-1.16298E-07
 -1      2531 4.65660E-09 2.25554E-07-1.16404E-07
 -1      2532 5.31304E-09 2.25666E-07-1.16528E-07
 -1      2533 5.87217E-09 2.25761E-07-1.16625E-07
 -1      2534 6.48529E-09 2.25754E-07-1.16691E-07
 -1      2535 7.36239E-09 2.25458E-07-1.16634E-07
 -1      2536 8.61103E-09 2.24495E-07-1.16119E-07
 -1      2537 9.72426E-09 2.22537E-07-1.14614E-07
 -1      2538 9.14015E-09 2.20380E-07-1.12449E-07
 -1      2539 6.60939E-09 2.21518E-07-1.13370E-07
 -1      2540 1.07831E-08 2.30745E-07-1.23107E-07
 -1      2541 3.78780E-08 2.37819E-07-1.33181E-07
 -1      2542 7.77492E-08 1.92823E-07-1.06878E-07
 -1      2543 8.60110E-08 8.93350E-08-4.17418E-08
 -1      2544 5.81127E-08 2.56931E-08-3.58270E-09
 -1      2545 3.20463E-08 4.81979E-09 3.64801E-09
 -1      2546-1.01752E-07-1.04249E-07-7.38518E-08
 -1      2547-8.18454E-08-1.81345E-07-1.23195E-07
 -1      2548-5.24493E-08-2.33960E-07-1.56089E-07
 -1      2549-2.57038E-08-2.55060E-07-1.65271E-07
 -1      2550-9.06121E-09-2.59711E-07-1.63475E-07
 -1      2551-6.96507E-10-2.59237E-07-1.60530E-07
 -1      2552 3.32784E-09-2.58389E-07-1.59144E-07
 -1      2553 5.48233E-09-2.58111E-07-1.58881E-07
 -1      2554 6.83745E-09-2.58189E-07-1.59000E-07
 -1      2555 7.79931E-09-2.58355E-07-1.59157E-07
 -1      2556 8.57786E-09-2.58483E-07-1.59288E-07
 -1      2557 9.37523E-09-2.58484E-07-1.59400E-07
 -1      2558 1.04271E-08-2.58153E-07-1.59369E-07
 -1      2559 1.18733E-08-2.57054E-07-1.58700E-07
 -1      2560 1.33410E-08-2.54773E-07-1.56540E-07
 -1      2561 1.35343E-08-2.52108E-07-1.53216E-07
 -1      2562 1.21147E-08-2.52926E-07-1.54408E-07
 -1      2563 1.70081E-08-2.63166E-07-1.69764E-07
 -1      2564 4.50285E-08-2.74400E-07-1.87066E-07
 -1      2565 8.69126E-08-2.24549E-07-1.49837E-07
 -1      2566 9.54200E-08-9.90692E-08-5.48121E-08
 -1      2567 6.65214E-08-2.78146E-08-4.04615E-10
 -1      2568 4.11378E-08-5.16930E-09 6.73291E-09
 -1      2569-1.08335E-07-9.66135E-08-1.05324E-07
 -1      2570-8.39862E-08-1.72263E-07-1.82542E-07
 -1      2571-5.08841E-08-2.21570E-07-2.29694E-07
 -1      2572-2.34233E-08-2.40744E-07-2.41699E-07
 -1      2573-7.43288E-09-2.44569E-07-2.39124E-07
 -1      2574 3.38851E-10-2.43814E-07-2.35196E-07
 -1      2575 4.08862E-09-2.42855E-07-2.33263E-07
 -1      2576 6.15091E-09-2.42499E-07-2.32760E-07
 -1      2577 7.47355E-09-2.42515E-07-2.32788E-07
 -1      2578 8.41350E-09-2.42639E-07-2.32915E-07
 -1      2579 9.16652E-09-2.42744E-07-2.33042E-07
 -1      2580 9.92829E-09-2.42747E-07-2.33157E-07
 -1      2581 1.09397E-08-2.42455E-07-2.33103E-07
 -1      2582 1.23901E-08-2.41465E-07-2.32281E-07
 -1      2583 1.40223E-08-2.39369E-07-2.29599E-07
 -1      2584 1.45171E-08-2.36834E-07-2.25082E-07
 -1      2585 1.25348E-08-2.37504E-07-2.25286E-07
 -1      2586 1.43906E-08-2.47190E-07-2.44666E-07
 -1      2587 4.22764E-08-2.60231E-07-2.73945E-07
 -1      2588 9.20339E-08-2.15099E-07-2.23800E-07
 -1      2589 1.00604E-07-9.03585E-08-7.54544E-08
 -1      2590 6.45734E-08-2.45437E-08-1.26900E-09
 -1      2591 3.83409E-08-4.29877E-09 7.04382E-09
 -1      2592-1.22625E-07-8.25917E-08-1.46264E-07
 -1      2593-9.26657E-08-1.50744E-07-2.62213E-07
 -1      2594-5.25470E-08-1.93485E-07-3.29008E-07
 -1      2595-2.17968E-08-2.09611E-07-3.44965E-07
 -1      2596-5.56439E-09-2.12589E-07-3.41427E-07
 -1      2597 1.73604E-09-2.11752E-07-3.36262E-07
 -1      2598 5.13896E-09-2.10827E-07-3.33670E-07
 -1      2599 7.04732E-09-2.10462E-07-3.32910E-07
 -1      2600 8.31534E-09-2.10440E-07-3.32858E-07
 -1      2601 9.23144E-09-2.10527E-07-3.32971E-07
 -1      2602 9.96444E-09-2.10609E-07-3.33106E-07
 -1      2603 1.07066E-08-2.10611E-07-3.33233E-07
 -1      2604 1.17250E-08-2.10371E-07-3.33148E-07
 -1      2605 1.32823E-08-2.09543E-07-3.32106E-07
 -1      2606 1.51985E-08-2.07764E-07-3.28683E-07
 -1      2607 1.59293E-08-2.05556E-07-3.22474E-07
 -1      2608 1.25406E-08-2.06017E-07-3.21220E-07
 -1      2609 1.00866E-08-2.14384E-07-3.46100E-07
 -1      2610 4.08385E-08-2.27780E-07-3.92701E-07
 -1      2611 1.06645E-07-1.90497E-07-3.26258E-07
 -1      2612 1.16459E-07-7.62430E-08-1.02715E-07
 -1      2613 6.68259E-08-2.01257E-08-1.92499E-09
 -1      2614 3.61754E-08-3.42272E-09 7.73081E-09
 -1      2615-1.37987E-07-6.06194E-08-1.85468E-07
 -1      2616-1.02710E-07-1.12483E-07-3.39966E-07
 -1      2617-5.53095E-08-1.44362E-07-4.26374E-07
 -1      2618-2.07244E-08-1.56146E-07-4.46321E-07
 -1      2619-3.87251E-09-1.58230E-07-4.41886E-07
 -1      2620 3.09486E-09-1.57537E-07-4.35543E-07
 -1      2621 6.18020E-09-1.56810E-07-4.32332E-07
 -1      2622 7.93342E-09-1.56513E-07-4.31340E-07
 -1      2623 9.14556E-09-1.56480E-07-4.31226E-07
 -1      2624 1.00406E-08-1.56535E-07-4.31334E-07
 -1      2625 1.07592E-08-1.56591E-07-4.31482E-07
 -1      2626 1.14923E-08-1.56593E-07-4.31622E-07
 -1      2627 1.25376E-08-1.56419E-07-4.31506E-07
 -1      2628 1.42268E-08-1.55818E-07-4.30244E-07
 -1      2629 1.64279E-08-1.54516E-07-4.26082E-07
 -1      2630 1.73079E-08-1.52888E-07-4.18202E-07
 -1      2631 1.23702E-08-1.53170E-07-4.15504E-07
 -1      2632 5.86230E-09-1.59442E-07-4.45966E-07
 -1      2633 4.01811E-08-1.70371E-07-5.10038E-07
 -1      2634 1.22812E-07-1.43797E-07-4.28601E-07
 -1      2635 1.34297E-07-5.59044E-08-1.29593E-07
 -1      2636 7.05738E-08-1.44253E-08-2.33609E-09
 -1      2637 3.46814E-08-2.42910E-09 8.53458E-09
 -1      2638-1.49117E-07-3.19591E-08-2.12378E-07
 -1      2639-1.10165E-07-5.98352E-08-3.93884E-07
 -1      2640-5.75866E-08-7.68728E-08-4.94279E-07
 -1      2641-2.01293E-08-8.31141E-08-5.17118E-07
 -1      2642-2.71552E-09-8.42021E-08-5.12089E-07
 -1      2643 4.06187E-09-8.38199E-08-5.04937E-07
 -1      2644 6.93188E-09-8.34231E-08-5.01302E-07
 -1      2645 8.57495E-09-8.32573E-08-5.00152E-07
 -1      2646 9.74670E-09-8.32350E-08-4.99998E-07
 -1      2647 1.06275E-08-8.32613E-08-5.00104E-07
 -1      2648 1.13374E-08-8.32900E-08-5.00263E-07
 -1      2649 1.20674E-08-8.32908E-08-5.00414E-07
 -1      2650 1.31374E-08-8.31994E-08-5.00275E-07
 -1      2651 1.49263E-08-8.28830E-08-4.98856E-07
 -1      2652 1.73275E-08-8.21969E-08-4.94174E-07
 -1      2653 1.82732E-08-8.13410E-08-4.85132E-07
 -1      2654 1.21781E-08-8.14836E-08-4.81448E-07
 -1      2655 2.96279E-09-8.48688E-08-5.16034E-07
 -1      2656 3.99922E-08-9.08933E-08-5.92375E-07
 -1      2657 1.34504E-07-7.71315E-08-5.00942E-07
 -1      2658 1.47377E-07-2.96700E-08-1.48881E-07
 -1      2659 7.37344E-08-7.55728E-09-2.54313E-09
 -1      2660 3.38341E-08-1.27077E-09 9.15832E-09
 -1      2661-1.53096E-07-1.09092E-15-2.21755E-07
 -1      2662-1.12858E-07-9.16556E-16-4.12753E-07
 -1      2663-5.84446E-08-5.57665E-16-5.18143E-07
 -1      2664-1.99425E-08-4.04992E-16-5.42033E-07
 -1      2665-2.30806E-09-3.47772E-16-5.36804E-07
 -1      2666 4.40900E-09-3.09358E-16-5.29370E-07
 -1      2667 7.20390E-09-2.87677E-16-5.25586E-07
 -1      2668 8.80766E-09-3.02463E-16-5.24381E-07
 -1      2669 9.96485E-09-3.16324E-16-5.24213E-07
 -1      2670 1.08406E-08-3.63027E-16-5.24319E-07
 -1      2671 1.15477E-08-3.85818E-16-5.24482E-07
 -1      2672 1.22769E-08-4.03946E-16-5.24636E-07
 -1      2673 1.33567E-08-4.19534E-16-5.24489E-07
 -1      2674 1.51817E-08-4.55035E-16-5.23014E-07
 -1      2675 1.76539E-08-4.61752E-16-5.18148E-07
 -1      2676 1.86144E-08-4.63155E-16-5.08699E-07
 -1      2677 1.20930E-08-4.61233E-16-5.04679E-07
 -1      2678 1.95824E-09-4.90822E-16-5.40777E-07
 -1      2679 3.99784E-08-6.39999E-16-6.21423E-07
 -1      2680 1.38656E-07-5.58375E-16-5.26556E-07
 -1      2681 1.52066E-07-7.40023E-17-1.55836E-07
 -1      2682 7.49470E-08 3.57118E-17-2.61248E-09
 -1      2683 3.35667E-08-2.19414E-18 9.39119E-09
 -1      2684-1.49117E-07 3.19591E-08-2.12378E-07
 -1      2685-1.10165E-07 5.98352E-08-3.93884E-07
 -1      2686-5.75866E-08 7.68728E-08-4.94279E-07
 -1      2687-2.01293E-08 8.31141E-08-5.17118E-07
 -1      2688-2.71552E-09 8.42021E-08-5.12089E-07
 -1      2689 4.06187E-09 8.38199E-08-5.04937E-07
 -1      2690 6.93188E-09 8.34231E-08-5.01302E-07
 -1      2691 8.57495E-09 8.32573E-08-5.00152E-07
 -1      2692 9.74670E-09 8.32350E-08-4.99998E-07
 -1      2693 1.06275E-08 8.32613E-08-5.00104E-07
 -1      2694 1.13374E-08 8.32900E-08-5.00263E-07
 -1      2695 1.20674E-08 8.32908E-08-5.00414E-07
 -1      2696 1.31374E-08 8.31994E-08-5.00275E-07
 -1      2697 1.49263E-08 8.28830E-08-4.98856E-07
 -1      2698 1.73275E-08 8.21969E-08-4.94174E-07
 -1      2699 1.82732E-08 8.13410E-08-4.85132E-07
 -1      2700 1.21781E-08 8.14836E-08-4.81448E-07
 -1      2701 2.96279E-09 8.48688E-08-5.16034E-07
 -1      2702 3.99922E-08 9.08933E-08-5.92375E-07
 -1      2703 1.34504E-07 7.71315E-08-5.00942E-07
 -1      2704 1.47377E-07 2.96700E-08-1.48881E-07
 -1      2705 7.37344E-08 7.55728E-09-2.54313E-09
 -1      2706 3.38341E-08 1.27077E-09 9.15832E-09
 -1      2707-1.37987E-07 6.06194E-08-1.85468E-07
 -1      2708-1.02710E-07 1.12483E-07-3.39966E-07
 -1      2709-5.53095E-08 1.44362E-07-4.26374E-07
 -1      2710-2.07244E-08 1.56146E-07-4.46321E-07
 -1      2711-3.87251E-09 1.58230E-07-4.41886E-07
 -1      2712 3.09486E-09 1.57537E-07-4.35543E-07
 -1      2713 6.18020E-09 1.56810E-07-4.32332E-07
 -1      2714 7.93342E-09 1.56513E-07-4.31340E-07
 -1      2715 9.14555E-09 1.56480E-07-4.31226E-07
 -1      2716 1.00406E-08 1.56535E-07-4.31334E-07
 -1      2717 1.07592E-08 1.56591E-07-4.31482E-07
 -1      2718 1.14923E-08 1.56593E-07-4.31622E-07
 -1      2719 1.25376E-08 1.56419E-07-4.31506E-07
 -1      2720 1.42268E-08 1.55818E-07-4.30244E-07
 -1      2721 1.64279E-08 1.54516E-07-4.26082E-07
 -1      2722 1.73079E-08 1.52888E-07-4.18202E-07
 -1      2723 1.23702E-08 1.53170E-07-4.15504E-07
 -1      2724 5.86230E-09 1.59442E-07-4.45966E-07
 -1      2725 4.01811E-08 1.70371E-07-5.10038E-07
 -1      2726 1.22812E-07 1.43797E-07-4.28601E-07
 -1      2727 1.34297E-07 5.59044E-08-1.29593E-07
 -1      2728 7.05738E-08 1.44253E-08-2.33609E-09
 -1      2729 3.46814E-08 2.42910E-09 8.53458E-09
 -1      2730-1.22625E-07 8.25917E-08-1.46264E-07
 -1      2731-9.26657E-08 1.50744E-07-2.62213E-07
 -1      2732-5.25470E-08 1.93485E-07-3.29008E-07
 -1      2733-2.17968E-08 2.09611E-07-3.44965E-07
 -1      2734-5.56439E-09 2.12589E-07-3.41427E-07
 -1      2735 1.73604E-09 2.11752E-07-3.36262E-07
 -1      2736 5.13896E-09 2.10827E-07-3.33670E-07
 -1      2737 7.04732E-09 2.10462E-07-3.32910E-07
 -1      2738 8.31534E-09 2.10440E-07-3.32858E-07
 -1      2739 9.23144E-09 2.10527E-07-3.32971E-07
 -1      2740 9.96444E-09 2.10609E-07-3.33106E-07
 -1      2741 1.07066E-08 2.10611E-07-3.33233E-07
 -1      2742 1.17250E-08 2.10371E-07-3.33148E-07
 -1      2743 1.32823E-08 2.09543E-07-3.32106E-07
 -1      2744 1.51985E-08 2.07764E-07-3.28683E-07
 -1      2745 1.59293E-08 2.05556E-07-3.22474E-07
 -1      2746 1.25406E-08 2.06017E-07-3.21220E-07
 -1      2747 1.00866E-08 2.14384E-07-3.46100E-07
 -1      2748 4.08385E-08 2.27780E-07-3.92701E-07
 -1      2749 1.06645E-07 1.90497E-07-3.26258E-07
 -1      2750 1.16459E-07 7.62430E-08-1.02715E-07
 -1      2751 6.68259E-08 2.01257E-08-1.92499E-09
 -1      2752 3.61754E-08 3.42272E-09 7.73081E-09
 -1      2753-1.08335E-07 9.66135E-08-1.05324E-07
 -1      2754-8.39862E-08 1.72263E-07-1.82542E-07
 -1      2755-5.08841E-08 2.21570E-07-2.29694E-07
 -1      2756-2.34233E-08 2.40744E-07-2.41699E-07
 -1      2757-7.43288E-09 2.44569E-07-2.39124E-07
 -1      2758 3.38850E-10 2.43814E-07-2.35196E-07
 -1      2759 4.08862E-09 2.42855E-07-2.33263E-07
 -1      2760 6.15091E-09 2.42499E-07-2.32760E-07
 -1      2761 7.47355E-09 2.42515E-07-2.32788E-07
 -1      2762 8.41350E-09 2.42639E-07-2.32915E-07
 -1      2763 9.16652E-09 2.42744E-07-2.33042E-07
 -1      2764 9.92829E-09 2.42747E-07-2.33157E-07
 -1      2765 1.09397E-08 2.42455E-07-2.33103E-07
 -1      2766 1.23901E-08 2.41465E-07-2.32281E-07
 -1      2767 1.40223E-08 2.39369E-07-2.29599E-07
 -1      2768 1.45171E-08 2.36834E-07-2.25082E-07
 -1      2769 1.25348E-08 2.37504E-07-2.25286E-07
 -1      2770 1.43906E-08 2.47190E-07-2.44666E-07
 -1      2771 4.22764E-08 2.60231E-07-2.73945E-07
 -1      2772 9.20339E-08 2.15099E-07-2.23800E-07
 -1      2773 1.00604E-07 9.03585E-08-7.54544E-08
 -1      2774 6.45734E-08 2.45437E-08-1.26900E-09
 -1      2775 3.83409E-08 4.29877E-09 7.04382E-09
 -1      2776-1.01752E-07 1.04249E-07-7.38518E-08
 -1      2777-8.18454E-08 1.81345E-07-1.23195E-07
 -1      2778-5.24493E-08 2.33960E-07-1.56089E-07
 -1      2779-2.57038E-08 2.55060E-07-1.65271E-07
 -1      2780-9.06121E-09 2.59711E-07-1.63475E-07
 -1      2781-6.96507E-10 2.59237E-07-1.60530E-07
 -1      2782 3.32784E-09 2.58389E-07-1.59144E-07
 -1      2783 5.48233E-09 2.58111E-07-1.58881E-07
 -1      2784 6.83745E-09 2.58189E-07-1.59000E-07
 -1      2785 7.79931E-09 2.58355E-07-1.59157E-07
 -1      2786 8.57786E-09 2.58483E-07-1.59288E-07
 -1      2787 9.37523E-09 2.58484E-07-1.59400E-07
 -1      2788 1.04271E-08 2.58153E-07-1.59369E-07
 -1      2789 1.18733E-08 2.57054E-07-1.58700E-07
 -1      2790 1.33410E-08 2.54773E-07-1.56540E-07
 -1      2791 1.35343E-08 2.52108E-07-1.53216E-07
 -1      2792 1.21147E-08 2.52926E-07-1.54408E-07
 -1      2793 1.70081E-08 2.63166E-07-1.69764E-07
 -1      2794 4.50285E-08 2.74400E-07-1.87066E-07
 -1      2795 8.69126E-08 2.24549E-07-1.49837E-07
 -1      2796 9.54200E-08 9.90692E-08-5.48121E-08
 -1      2797 6.65214E-08 2.78146E-08-4.04615E-10
 -1      2798 4.11378E-08 5.16930E-09 6.73291E-09
 -1      2799-9.93503E-08-8.71627E-08-8.80067E-08
 -1      2800-7.89719E-08-1.56328E-07-1.44117E-07
 -1      2801-5.11870E-08-2.02628E-07-1.82102E-07
 -1      2802-2.67075E-08-2.21260E-07-1.91679E-07
 -1      2803-1.04930E-08-2.25498E-07-1.88417E-07
 -1      2804-1.19520E-09-2.25310E-07-1.84328E-07
 -1      2805 3.95566E-09-2.24809E-07-1.82433E-07
 -1      2806 6.91172E-09-2.24760E-07-1.82017E-07
 -1      2807 8.73279E-09-2.24960E-07-1.82107E-07
 -1      2808 9.96026E-09-2.25181E-07-1.82264E-07
 -1      2809 1.09070E-08-2.25332E-07-1.82410E-07
 -1      2810 1.18078E-08-2.25351E-07-1.82556E-07
 -1      2811 1.28727E-08-2.25064E-07-1.82563E-07
 -1      2812 1.42458E-08-2.24078E-07-1.81828E-07
 -1      2813 1.58642E-08-2.21986E-07-1.79277E-07
 -1      2814 1.73242E-08-2.19386E-07-1.75193E-07
 -1      2815 1.85450E-08-2.19637E-07-1.76489E-07
 -1      2816 2.38194E-08-2.28011E-07-1.96153E-07
 -1      2817 4.51562E-08-2.41383E-07-2.18997E-07
 -1      2818 7.75774E-08-2.00441E-07-1.74381E-07
 -1      2819 8.40184E-08-8.23666E-08-6.14155E-08
 -1      2820 6.25182E-08-2.27695E-08 3.70915E-09
 -1      2821 4.54897E-08-4.03152E-09 9.43147E-09
 -1      2822-1.05817E-07-8.53124E-08-1.37598E-07
 -1      2823-8.05536E-08-1.58970E-07-2.37592E-07
 -1      2824-4.84246E-08-2.04208E-07-2.97399E-07
 -1      2825-2.35178E-08-2.21429E-07-3.11275E-07
 -1      2826-8.27752E-09-2.24809E-07-3.07015E-07
 -1      2827 3.15723E-10-2.24200E-07-3.01557E-07
 -1      2828 5.16085E-09-2.23484E-07-2.98888E-07
 -1      2829 8.01961E-09-2.23302E-07-2.98143E-07
 -1      2830 9.80618E-09-2.23419E-07-2.98116E-07
 -1      2831 1.10088E-08-2.23592E-07-2.98242E-07
 -1      2832 1.19257E-08-2.23719E-07-2.98388E-07
 -1      2833 1.27839E-08-2.23739E-07-2.98539E-07
 -1      2834 1.37949E-08-2.23480E-07-2.98501E-07
 -1      2835 1.51541E-08-2.22565E-07-2.97514E-07
 -1      2836 1.69230E-08-2.20587E-07-2.94158E-07
 -1      2837 1.87714E-08-2.17967E-07-2.88286E-07
 -1      2838 1.97675E-08-2.17996E-07-2.87787E-07
 -1      2839 2.12033E-08-2.25756E-07-3.12656E-07
 -1      2840 4.12124E-08-2.43390E-07-3.55672E-07
 -1      2841 8.35768E-08-2.06782E-07-2.91854E-07
 -1      2842 8.95190E-08-7.57432E-08-9.17063E-08
 -1      2843 5.88146E-08-2.04211E-08 2.21045E-09
 -1      2844 4.20718E-08-3.41020E-09 9.39008E-09
 -1      2845-1.20413E-07-7.57795E-08-2.00923E-07
 -1      2846-8.86631E-08-1.46325E-07-3.64373E-07
 -1      2847-4.82650E-08-1.86899E-07-4.53535E-07
 -1      2848-2.05633E-08-2.01553E-07-4.72429E-07
 -1      2849-5.58723E-09-2.04079E-07-4.66465E-07
 -1      2850 2.37036E-09-2.03277E-07-4.59126E-07
 -1      2851 6.82289E-09-2.02506E-07-4.55494E-07
 -1      2852 9.52933E-09-2.02263E-07-4.54388E-07
 -1      2853 1.12663E-08-2.02318E-07-4.54258E-07
 -1      2854 1.24467E-08-2.02445E-07-4.54371E-07
 -1      2855 1.33405E-08-2.02547E-07-4.54533E-07
 -1      2856 1.41710E-08-2.02566E-07-4.54704E-07
 -1      2857 1.51697E-08-2.02349E-07-4.54625E-07
 -1      2858 1.66175E-08-2.01568E-07-4.53316E-07
 -1      2859 1.86627E-08-1.99850E-07-4.48853E-07
 -1      2860 2.08852E-08-1.97470E-07-4.40373E-07
 -1      2861 2.11235E-08-1.97260E-07-4.36957E-07
 -1      2862 1.66532E-08-2.03941E-07-4.68343E-07
 -1      2863 3.70853E-08-2.23232E-07-5.43692E-07
 -1      2864 1.00297E-07-1.94233E-07-4.59061E-07
 -1      2865 1.06693E-07-6.40964E-08-1.26547E-07
 -1      2866 5.78818E-08-1.68190E-08 2.81297E-09
 -1      2867 3.89880E-08-2.73944E-09 1.00059E-08
 -1      2868-1.36161E-07-5.54335E-08-2.60752E-07
 -1      2869-9.83148E-08-1.09494E-07-4.87800E-07
 -1      2870-4.92997E-08-1.39975E-07-6.06390E-07
 -1      2871-1.82068E-08-1.50714E-07-6.30242E-07
 -1      2872-3.09770E-09-1.52475E-07-6.22613E-07
 -1      2873 4.37697E-09-1.51808E-07-6.13460E-07
 -1      2874 8.47066E-09-1.51186E-07-6.08916E-07
 -1      2875 1.10248E-08-1.50971E-07-6.07482E-07
 -1      2876 1.27122E-08-1.50991E-07-6.07270E-07
 -1      2877 1.38743E-08-1.51074E-07-6.07381E-07
 -1      2878 1.47518E-08-1.51144E-07-6.07566E-07
 -1      2879 1.55662E-08-1.51157E-07-6.07761E-07
 -1      2880 1.65751E-08-1.51000E-07-6.07644E-07
 -1      2881 1.81383E-08-1.50432E-07-6.06019E-07
 -1      2882 2.04609E-08-1.49179E-07-6.00463E-07
 -1      2883 2.29654E-08-1.47450E-07-5.89422E-07
 -1      2884 2.22766E-08-1.47221E-07-5.83078E-07
 -1      2885 1.21970E-08-1.52369E-07-6.21273E-07
 -1      2886 3.35388E-08-1.67633E-07-7.29333E-07
 -1      2887 1.18689E-07-1.48232E-07-6.27543E-07
 -1      2888 1.26250E-07-4.69705E-08-1.60318E-07
 -1      2889 5.84894E-08-1.20176E-08 4.16641E-09
 -1      2890 3.66022E-08-1.96180E-09 1.08586E-08
 -1      2891-1.46832E-07-2.82208E-08-2.98928E-07
 -1      2892-1.05084E-07-5.62678E-08-5.67515E-07
 -1      2893-5.03434E-08-7.23330E-08-7.06345E-07
 -1      2894-1.67559E-08-7.80056E-08-7.33794E-07
 -1      2895-1.41600E-09-7.89628E-08-7.25158E-07
 -1      2896 5.77657E-09-7.86226E-08-7.14839E-07
 -1      2897 9.63764E-09-7.82915E-08-7.09703E-07
 -1      2898 1.20869E-08-7.81710E-08-7.08054E-07
 -1      2899 1.37396E-08-7.81755E-08-7.07790E-07
 -1      2900 1.48898E-08-7.82158E-08-7.07901E-07
 -1      2901 1.57578E-08-7.82516E-08-7.08103E-07
 -1      2902 1.65639E-08-7.82575E-08-7.08315E-07
 -1      2903 1.75870E-08-7.81747E-08-7.08170E-07
 -1      2904 1.92320E-08-7.78796E-08-7.06330E-07
 -1      2905 2.17373E-08-7.72334E-08-7.00047E-07
 -1      2906 2.43951E-08-7.63814E-08-6.87352E-07
 -1      2907 2.28835E-08-7.62763E-08-6.79134E-07
 -1      2908 9.40403E-09-7.91984E-08-7.22739E-07
 -1      2909 3.16513E-08-8.68284E-08-8.51673E-07
 -1      2910 1.30803E-07-7.72968E-08-7.39568E-07
 -1      2911 1.39622E-07-2.49801E-08-1.84786E-07
 -1      2912 5.96525E-08-6.25291E-09 5.25400E-09
 -1      2913 3.51417E-08-1.04306E-09 1.15629E-08
 -1      2914-1.50383E-07-1.80368E-15-3.11251E-07
 -1      2915-1.07367E-07-1.14490E-15-5.93338E-07
 -1      2916-5.07474E-08-6.34127E-16-7.39117E-07
 -1      2917-1.62760E-08-4.35672E-16-7.67874E-07
 -1      2918-8.31090E-10-3.53338E-16-7.58934E-07
 -1      2919 6.27186E-09-2.76987E-16-7.48239E-07
 -1      2920 1.00553E-08-2.16853E-16-7.42906E-07
 -1      2921 1.24683E-08-2.10755E-16-7.41185E-07
 -1      2922 1.41087E-08-1.86205E-16-7.40903E-07
 -1      2923 1.52548E-08-2.17402E-16-7.41015E-07
 -1      2924 1.61197E-08-2.14223E-16-7.41222E-07
 -1      2925 1.69234E-08-2.16248E-16-7.41438E-07
 -1      2926 1.79523E-08-2.07413E-16-7.41284E-07
 -1      2927 1.96255E-08-2.35482E-16-7.39371E-07
 -1      2928 2.21903E-08-2.11868E-16-7.32846E-07
 -1      2929 2.48945E-08-1.97410E-16-7.19612E-07
 -1      2930 2.30426E-08-1.74761E-16-7.10799E-07
 -1      2931 8.51831E-09-1.65051E-16-7.56511E-07
 -1      2932 3.11982E-08-3.34771E-16-8.92017E-07
 -1      2933 1.34685E-07-3.15050E-16-7.76573E-07
 -1      2934 1.44036E-07 1.12419E-16-1.93714E-07
 -1      2935 6.02430E-08 1.04597E-16 5.62998E-09
 -1      2936 3.46483E-08 8.88848E-18 1.18458E-08
 -1      2937-1.46832E-07 2.82208E-08-2.98928E-07
 -1      2938-1.05084E-07 5.62678E-08-5.67515E-07
 -1      2939-5.03434E-08 7.23330E-08-7.06345E-07
 -1      2940-1.67559E-08 7.80056E-08-7.33794E-07
 -1      2941-1.41600E-09 7.89627E-08-7.25158E-07
 -1      2942 5.77657E-09 7.86226E-08-7.14839E-07
 -1      2943 9.63764E-09 7.82915E-08-7.09703E-07
 -1      2944 1.20869E-08 7.81710E-08-7.08054E-07
 -1      2945 1.37396E-08 7.81755E-08-7.07790E-07
 -1      2946 1.48898E-08 7.82158E-08-7.07901E-07
 -1      2947 1.57578E-08 7.82516E-08-7.08103E-07
 -1      2948 1.65639E-08 7.82575E-08-7.08315E-07
 -1      2949 1.75870E-08 7.81747E-08-7.08170E-07
 -1      2950 1.92320E-08 7.78796E-08-7.06330E-07
 -1      2951 2.17373E-08 7.72334E-08-7.00047E-07
 -1      2952 2.43951E-08 7.63814E-08-6.87352E-07
 -1      2953 2.28835E-08 7.62763E-08-6.79134E-07
 -1      2954 9.40403E-09 7.91984E-08-7.22739E-07
 -1      2955 3.16513E-08 8.68284E-08-8.51673E-07
 -1      2956 1.30803E-07 7.72968E-08-7.39568E-07
 -1      2957 1.39622E-07 2.49801E-08-1.84786E-07
 -1      2958 5.96525E-08 6.25291E-09 5.25400E-09
 -1      2959 3.51417E-08 1.04306E-09 1.15629E-08
 -1      2960-1.36161E-07 5.54335E-08-2.60752E-07
 -1      2961-9.83148E-08 1.09494E-07-4.87800E-07
 -1      2962-4.92997E-08 1.39975E-07-6.06390E-07
 -1      2963-1.82068E-08 1.50714E-07-6.30242E-07
 -1      2964-3.09770E-09 1.52475E-07-6.22613E-07
 -1      2965 4.37697E-09 1.51808E-07-6.13460E-07
 -1      2966 8.47066E-09 1.51186E-07-6.08916E-07
 -1      2967 1.10248E-08 1.50971E-07-6.07482E-07
 -1      2968 1.27122E-08 1.50991E-07-6.07270E-07
 -1      2969 1.38743E-08 1.51074E-07-6.07381E-07
 -1      2970 1.47518E-08 1.51144E-07-6.07566E-07
 -1      2971 1.55662E-08 1.51157E-07-6.07761E-07
 -1      2972 1.65751E-08 1.51000E-07-6.07644E-07
 -1      2973 1.81383E-08 1.50432E-07-6.06019E-07
 -1      2974 2.04609E-08 1.49179E-07-6.00463E-07
 -1      2975 2.29654E-08 1.47450E-07-5.89422E-07
 -1      2976 2.22766E-08 1.47221E-07-5.83078E-07
 -1      2977 1.21970E-08 1.52369E-07-6.21273E-07
 -1      2978 3.35388E-08 1.67633E-07-7.29333E-07
 -1      2979 1.18689E-07 1.48232E-07-6.27543E-07
 -1      2980 1.26250E-07 4.69705E-08-1.60318E-07
 -1      2981 5.84894E-08 1.20176E-08 4.16641E-09
 -1      2982 3.66022E-08 1.96180E-09 1.08586E-08
 -1      2983-1.20413E-07 7.57795E-08-2.00923E-07
 -1      2984-8.86631E-08 1.46325E-07-3.64373E-07
 -1      2985-4.82650E-08 1.86899E-07-4.53535E-07
 -1      2986-2.05633E-08 2.01553E-07-4.72429E-07
 -1      2987-5.58723E-09 2.04079E-07-4.66465E-07
 -1      2988 2.37036E-09 2.03277E-07-4.59126E-07
 -1      2989 6.82289E-09 2.02506E-07-4.55494E-07
 -1      2990 9.52933E-09 2.02263E-07-4.54388E-07
 -1      2991 1.12663E-08 2.02318E-07-4.54258E-07
 -1      2992 1.24467E-08 2.02445E-07-4.54371E-07
 -1      2993 1.33405E-08 2.02547E-07-4.54533E-07
 -1      2994 1.41710E-08 2.02566E-07-4.54704E-07
 -1      2995 1.51697E-08 2.02349E-07-4.54625E-07
 -1      2996 1.66175E-08 2.01568E-07-4.53316E-07
 -1      2997 1.86627E-08 1.99850E-07-4.48853E-07
 -1      2998 2.08852E-08 1.97470E-07-4.40373E-07
 -1      2999 2.11235E-08 1.97260E-07-4.36957E-07
 -1      3000 1.66532E-08 2.03941E-07-4.68343E-07
 -1      3001 3.70853E-08 2.23232E-07-5.43692E-07
 -1      3002 1.00297E-07 1.94233E-07-4.59061E-07
 -1      3003 1.06693E-07 6.40964E-08-1.26547E-07
 -1      3004 5.78818E-08 1.68190E-08 2.81297E-09
 -1      3005 3.89880E-08 2.73944E-09 1.00059E-08
 -1      3006-1.05817E-07 8.53124E-08-1.37598E-07
 -1      3007-8.05536E-08 1.58970E-07-2.37592E-07
 -1      3008-4.84246E-08 2.04208E-07-2.97399E-07
 -1      3009-2.35178E-08 2.21429E-07-3.11275E-07
 -1      3010-8.27752E-09 2.24809E-07-3.07015E-07
 -1      3011 3.15723E-10 2.24200E-07-3.01557E-07
 -1      3012 5.16085E-09 2.23484E-07-2.98888E-07
 -1      3013 8.01961E-09 2.23302E-07-2.98143E-07
 -1      3014 9.80618E-09 2.23419E-07-2.98116E-07
 -1      3015 1.10088E-08 2.23592E-07-2.98242E-07
 -1      3016 1.19257E-08 2.23719E-07-2.98388E-07
 -1      3017 1.27839E-08 2.23739E-07-2.98539E-07
 -1      3018 1.37949E-08 2.23480E-07-2.98501E-07
 -1      3019 1.51541E-08 2.22565E-07-2.97514E-07
 -1      3020 1.69230E-08 2.20587E-07-2.94158E-07
 -1      3021 1.87714E-08 2.17967E-07-2.88286E-07
 -1      3022 1.97675E-08 2.17996E-07-2.87787E-07
 -1      3023 2.12033E-08 2.25756E-07-3.12656E-07
 -1      3024 4.12124E-08 2.43390E-07-3.55672E-07
 -1      3025 8.35768E-08 2.06782E-07-2.91854E-07
 -1      3026 8.95190E-08 7.57432E-08-9.17063E-08
 -1      3027 5.88146E-08 2.04211E-08 2.21045E-09
 -1      3028 4.20718E-08 3.41020E-09 9.39008E-09
 -1      3029-9.93503E-08 8.71627E-08-8.80067E-08
 -1      3030-7.89719E-08 1.56328E-07-1.44117E-07
 -1      3031-5.11870E-08 2.02628E-07-1.82102E-07
 -1      3032-2.67075E-08 2.21260E-07-1.91679E-07
 -1      3033-1.04930E-08 2.25498E-07-1.88417E-07
 -1      3034-1.19520E-09 2.25310E-07-1.84328E-07
 -1      3035 3.95566E-09 2.24809E-07-1.82433E-07
 -1      3036 6.91172E-09 2.24760E-07-1.82017E-07
 -1      3037 8.73279E-09 2.24960E-07-1.82107E-07
 -1      3038 9.96026E-09 2.25181E-07-1.82264E-07
 -1      3039 1.09070E-08 2.25332E-07-1.82410E-07
 -1      3040 1.18078E-08 2.25351E-07-1.82556E-07
 -1      3041 1.28727E-08 2.25064E-07-1.82563E-07
 -1      3042 1.42458E-08 2.24078E-07-1.81828E-07
 -1      3043 1.58642E-08 2.21986E-07-1.79277E-07
 -1      3044 1.73242E-08 2.19386E-07-1.75193E-07
 -1      3045 1.85450E-08 2.19637E-07-1.76489E-07
 -1      3046 2.38194E-08 2.28011E-07-1.96153E-07
 -1      3047 4.51562E-08 2.41383E-07-2.18997E-07
 -1      3048 7.75774E-08 2.00441E-07-1.74381E-07
 -1      3049 8.40184E-08 8.23666E-08-6.14155E-08
 -1      3050 6.25182E-08 2.27695E-08 3.70915E-09
 -1      3051 4.54897E-08 4.03152E-09 9.43147E-09
 -1      3052-8.24410E-08-4.15017E-08-9.34640E-08
 -1      3053-6.47333E-08-7.76491E-08-1.49767E-07
 -1      3054-4.38998E-08-1.04554E-07-1.89203E-07
 -1      3055-2.57943E-08-1.16923E-07-1.98563E-07
 -1      3056-1.17832E-08-1.20559E-07-1.94394E-07
 -1      3057-2.01180E-09-1.21178E-07-1.89587E-07
 -1      3058 4.16764E-09-1.21389E-07-1.87300E-07
 -1      3059 7.85629E-09-1.21723E-07-1.86712E-07
 -1      3060 1.00647E-08-1.22083E-07-1.86728E-07
 -1      3061 1.14867E-08-1.22356E-07-1.86854E-07
 -1      3062 1.25438E-08-1.22517E-07-1.86993E-07
 -1      3063 1.34863E-08-1.22554E-07-1.87153E-07
 -1      3064 1.44521E-08-1.22367E-07-1.87185E-07
 -1      3065 1.55237E-08-1.21701E-07-1.86444E-07
 -1      3066 1.69688E-08-1.20324E-07-1.83785E-07
 -1      3067 1.96939E-08-1.18704E-07-1.79570E-07
 -1      3068 2.49308E-08-1.18879E-07-1.81051E-07
 -1      3069 3.21931E-08-1.22728E-07-2.03196E-07
 -1      3070 4.15836E-08-1.29881E-07-2.27201E-07
 -1      3071 5.27154E-08-1.09675E-07-1.78299E-07
 -1      3072 5.54186E-08-4.47107E-08-6.45377E-08
 -1      3073 5.04725E-08-1.38063E-08 6.40268E-09
 -1      3074 4.74467E-08-2.26096E-09 1.08512E-08
 -1      3075-8.27172E-08-4.61958E-08-1.56691E-07
 -1      3076-6.09768E-08-9.29778E-08-2.68838E-07
 -1      3077-3.82448E-08-1.20681E-07-3.35438E-07
 -1      3078-2.15023E-08-1.32226E-07-3.49930E-07
 -1      3079-8.97731E-09-1.35003E-07-3.44646E-07
 -1      3080 5.62077E-11-1.35088E-07-3.38209E-07
 -1      3081 5.98386E-09-1.34982E-07-3.34999E-07
 -1      3082 9.61426E-09-1.35126E-07-3.34018E-07
 -1      3083 1.18036E-08-1.35380E-07-3.33900E-07
 -1      3084 1.32045E-08-1.35599E-07-3.33994E-07
 -1      3085 1.42304E-08-1.35737E-07-3.34136E-07
 -1      3086 1.51228E-08-1.35771E-07-3.34302E-07
 -1      3087 1.60087E-08-1.35599E-07-3.34270E-07
 -1      3088 1.69995E-08-1.34953E-07-3.33207E-07
 -1      3089 1.84771E-08-1.33637E-07-3.29531E-07
 -1      3090 2.14930E-08-1.31827E-07-3.23156E-07
 -1      3091 2.71733E-08-1.31816E-07-3.22109E-07
 -1      3092 3.21432E-08-1.34324E-07-3.49735E-07
 -1      3093 3.79042E-08-1.48379E-07-4.01161E-07
 -1      3094 5.17545E-08-1.32689E-07-3.27936E-07
 -1      3095 5.25328E-08-3.88393E-08-1.01090E-07
 -1      3096 4.38139E-08-1.31977E-08 4.77407E-09
 -1      3097 4.38093E-08-1.95850E-09 1.01814E-08
 -1      3098-9.11262E-08-4.56392E-08-2.50189E-07
 -1      3099-6.30433E-08-9.82026E-08-4.64550E-07
 -1      3100-3.35843E-08-1.24501E-07-5.71766E-07
 -1      3101-1.67361E-08-1.34418E-07-5.91987E-07
 -1      3102-5.17749E-09-1.36343E-07-5.83918E-07
 -1      3103 3.08629E-09-1.36064E-07-5.74682E-07
 -1      3104 8.67169E-09-1.35764E-07-5.70124E-07
 -1      3105 1.22015E-08-1.35777E-07-5.68655E-07
 -1      3106 1.43664E-08-1.35942E-07-5.68412E-07
 -1      3107 1.57543E-08-1.36107E-07-5.68498E-07
 -1      3108 1.67573E-08-1.36220E-07-5.68669E-07
 -1      3109 1.76100E-08-1.36251E-07-5.68868E-07
 -1      3110 1.84542E-08-1.36106E-07-5.68782E-07
 -1      3111 1.94323E-08-1.35532E-07-5.67271E-07
 -1      3112 2.11266E-08-1.34362E-07-5.62009E-07
 -1      3113 2.43030E-08-1.32549E-07-5.51696E-07
 -1      3114 3.06692E-08-1.32261E-07-5.46002E-07
 -1      3115 3.07718E-08-1.33580E-07-5.77776E-07
 -1      3116 3.10009E-08-1.52066E-07-6.87343E-07
 -1      3117 6.37243E-08-1.44637E-07-5.94105E-07
 -1      3118 6.20568E-08-2.98360E-08-1.35492E-07
 -1      3119 3.63858E-08-1.17397E-08 6.25403E-09
 -1      3120 4.09017E-08-1.54142E-09 1.01784E-08
 -1      3121-1.01185E-07-2.99285E-08-3.37672E-07
 -1      3122-6.72271E-08-6.67743E-08-6.55759E-07
 -1      3123-3.03306E-08-8.57154E-08-8.04415E-07
 -1      3124-1.26071E-08-9.28774E-08-8.30221E-07
 -1      3125-1.60134E-09-9.43810E-08-8.19462E-07
 -1      3126 6.07320E-09-9.42193E-08-8.07527E-07
 -1      3127 1.13459E-08-9.39851E-08-8.01684E-07
 -1      3128 1.47728E-08-9.39652E-08-7.99767E-07
 -1      3129 1.69120E-08-9.40638E-08-7.99423E-07
 -1      3130 1.82908E-08-9.41724E-08-7.99517E-07
 -1      3131 1.92781E-08-9.42491E-08-7.99728E-07
 -1      3132 2.01046E-08-9.42697E-08-7.99969E-07
 -1      3133 2.09302E-08-9.41609E-08-7.99836E-07
 -1      3134 2.19360E-08-9.37648E-08-7.97891E-07
 -1      3135 2.38301E-08-9.29527E-08-7.91058E-07
 -1      3136 2.71286E-08-9.18988E-08-7.76960E-07
 -1      3137 3.38245E-08-9.16335E-08-7.66526E-07
 -1      3138 2.96275E-08-9.32899E-08-8.03488E-07
 -1      3139 2.42194E-08-1.04740E-07-9.70680E-07
 -1      3140 7.80675E-08-1.02664E-07-8.68116E-07
 -1      3141 7.53138E-08-2.18270E-08-1.67834E-07
 -1      3142 3.04535E-08-8.34808E-09 8.94994E-09
 -1      3143 3.88168E-08-1.26483E-09 1.04980E-08
 -1      3144-1.05756E-07-1.18053E-08-3.82071E-07
 -1      3145-6.88471E-08-2.69369E-08-7.54270E-07
 -1      3146-2.84351E-08-3.59259E-08-9.28235E-07
 -1      3147-1.00766E-08-3.96352E-08-9.58081E-07
 -1      3148 6.58490E-10-4.05801E-08-9.46121E-07
 -1      3149 8.01614E-09-4.05998E-08-9.32805E-07
 -1      3150 1.31147E-08-4.05103E-08-9.26261E-07
 -1      3151 1.64793E-08-4.05019E-08-9.24089E-07
 -1      3152 1.86034E-08-4.05481E-08-9.23683E-07
 -1      3153 1.99771E-08-4.06001E-08-9.23778E-07
 -1      3154 2.09553E-08-4.06366E-08-9.24010E-07
 -1      3155 2.17678E-08-4.06444E-08-9.24270E-07
 -1      3156 2.25806E-08-4.05855E-08-9.24102E-07
 -1      3157 2.36137E-08-4.03951E-08-9.21903E-07
 -1      3158 2.55491E-08-4.00207E-08-9.14185E-07
 -1      3159 2.89894E-08-3.96960E-08-8.98223E-07
 -1      3160 3.53748E-08-3.96363E-08-8.85021E-07
 -1      3161 2.95253E-08-4.10536E-08-9.28662E-07
 -1      3162 2.20279E-08-4.43584E-08-1.12326E-06
 -1      3163 8.33923E-08-4.34227E-08-1.01597E-06
 -1      3164 8.09344E-08-1.22859E-08-1.94925E-07
 -1      3165 2.82890E-08-4.11537E-09 1.15215E-08
 -1      3166 3.71884E-08-7.94097E-10 1.08752E-08
 -1      3167-1.07135E-07-2.60806E-15-3.93662E-07
 -1      3168-6.93519E-08-1.21515E-15-7.80230E-07
 -1      3169-2.78808E-08-6.65151E-16-9.62077E-07
 -1      3170-9.31375E-09-3.82788E-16-9.93403E-07
 -1      3171 1.35279E-09-2.73710E-16-9.81178E-07
 -1      3172 8.60924E-09-1.15059E-16-9.67496E-07
 -1      3173 1.36516E-08-2.45136E-17-9.60752E-07
 -1      3174 1.69956E-08 4.09068E-17-9.58504E-07
 -1      3175 1.91142E-08 1.09335E-16-9.58077E-07
 -1      3176 2.04863E-08 1.81533E-16-9.58172E-07
 -1      3177 2.14617E-08 1.88091E-16-9.58408E-07
 -1      3178 2.22691E-08 2.31514E-16-9.58672E-07
 -1      3179 2.30798E-08 2.89748E-16-9.58492E-07
 -1      3180 2.41176E-08 2.87181E-16-9.56211E-07
 -1      3181 2.60711E-08 3.70097E-16-9.48246E-07
 -1      3182 2.95391E-08 4.15430E-16-9.31783E-07
 -1      3183 3.57979E-08 4.76804E-16-9.17815E-07
 -1      3184 2.94994E-08 5.39617E-16-9.64373E-07
 -1      3185 2.13779E-08 4.78807E-16-1.16572E-06
 -1      3186 8.47599E-08 4.19451E-16-1.05640E-06
 -1      3187 8.24906E-08 4.03780E-16-2.05522E-07
 -1      3188 2.76967E-08 1.75769E-16 1.24906E-08
 -1      3189 3.66479E-08 1.78672E-17 1.10613E-08
 -1      3190-1.05756E-07 1.18053E-08-3.82071E-07
 -1      3191-6.88471E-08 2.69369E-08-7.54270E-07
 -1      3192-2.84351E-08 3.59258E-08-9.28235E-07
 -1      3193-1.00766E-08 3.96352E-08-9.58081E-07
 -1      3194 6.58490E-10 4.05801E-08-9.46121E-07
 -1      3195 8.01614E-09 4.05998E-08-9.32805E-07
 -1      3196 1.31147E-08 4.05103E-08-9.26261E-07
 -1      3197 1.64793E-08 4.05019E-08-9.24089E-07
 -1      3198 1.86034E-08 4.05481E-08-9.23683E-07
 -1      3199 1.99771E-08 4.06001E-08-9.23778E-07
 -1      3200 2.09553E-08 4.06366E-08-9.24010E-07
 -1      3201 2.17678E-08 4.06444E-08-9.24270E-07
 -1      3202 2.25806E-08 4.05855E-08-9.24102E-07
 -1      3203 2.36137E-08 4.03951E-08-9.21903E-07
 -1      3204 2.55491E-08 4.00207E-08-9.14185E-07
 -1      3205 2.89894E-08 3.96960E-08-8.98223E-07
 -1      3206 3.53748E-08 3.96363E-08-8.85021E-07
 -1      3207 2.95253E-08 4.10536E-08-9.28662E-07
 -1      3208 2.20279E-08 4.43584E-08-1.12326E-06
 -1      3209 8.33923E-08 4.34227E-08-1.01597E-06
 -1      3210 8.09344E-08 1.22860E-08-1.94925E-07
 -1      3211 2.82890E-08 4.11537E-09 1.15215E-08
 -1      3212 3.71884E-08 7.94097E-10 1.08752E-08
 -1      3213-1.01185E-07 2.99285E-08-3.37672E-07
 -1      3214-6.72271E-08 6.67743E-08-6.55759E-07
 -1      3215-3.03306E-08 8.57154E-08-8.04415E-07
 -1      3216-1.26071E-08 9.28774E-08-8.30221E-07
 -1      3217-1.60134E-09 9.43810E-08-8.19462E-07
 -1      3218 6.07320E-09 9.42193E-08-8.07527E-07
 -1      3219 1.13459E-08 9.39851E-08-8.01684E-07
 -1      3220 1.47728E-08 9.39652E-08-7.99767E-07
 -1      3221 1.69120E-08 9.40638E-08-7.99423E-07
 -1      3222 1.82908E-08 9.41724E-08-7.99517E-07
 -1      3223 1.92781E-08 9.42491E-08-7.99728E-07
 -1      3224 2.01046E-08 9.42697E-08-7.99969E-07
 -1      3225 2.09302E-08 9.41609E-08-7.99836E-07
 -1      3226 2.19360E-08 9.37648E-08-7.97891E-07
 -1      3227 2.38301E-08 9.29527E-08-7.91058E-07
 -1      3228 2.71286E-08 9.18988E-08-7.76960E-07
 -1      3229 3.38245E-08 9.16335E-08-7.66526E-07
 -1      3230 2.96275E-08 9.32899E-08-8.03488E-07
 -1      3231 2.42194E-08 1.04740E-07-9.70680E-07
 -1      3232 7.80675E-08 1.02664E-07-8.68116E-07
 -1      3233 7.53138E-08 2.18270E-08-1.67834E-07
 -1      3234 3.04535E-08 8.34808E-09 8.94994E-09
 -1      3235 3.88168E-08 1.26483E-09 1.04980E-08
 -1      3236-9.11262E-08 4.56392E-08-2.50189E-07
 -1      3237-6.30433E-08 9.82026E-08-4.64550E-07
 -1      3238-3.35843E-08 1.24501E-07-5.71766E-07
 -1      3239-1.67361E-08 1.34418E-07-5.91987E-07
 -1      3240-5.17749E-09 1.36343E-07-5.83918E-07
 -1      3241 3.08629E-09 1.36064E-07-5.74682E-07
 -1      3242 8.67169E-09 1.35764E-07-5.70124E-07
 -1      3243 1.22015E-08 1.35777E-07-5.68655E-07
 -1      3244 1.43664E-08 1.35942E-07-5.68412E-07
 -1      3245 1.57543E-08 1.36107E-07-5.68498E-07
 -1      3246 1.67573E-08 1.36220E-07-5.68669E-07
 -1      3247 1.76100E-08 1.36251E-07-5.68868E-07
 -1      3248 1.84542E-08 1.36106E-07-5.68782E-07
 -1      3249 1.94323E-08 1.35532E-07-5.67271E-07
 -1      3250 2.11266E-08 1.34362E-07-5.62009E-07
 -1      3251 2.43030E-08 1.32549E-07-5.51696E-07
 -1      3252 3.06692E-08 1.32261E-07-5.46002E-07
 -1      3253 3.07718E-08 1.33580E-07-5.77776E-07
 -1      3254 3.10009E-08 1.52066E-07-6.87343E-07
 -1      3255 6.37243E-08 1.44637E-07-5.94105E-07
 -1      3256 6.20568E-08 2.98360E-08-1.35492E-07
 -1      3257 3.63858E-08 1.17397E-08 6.25403E-09
 -1      3258 4.09017E-08 1.54142E-09 1.01784E-08
 -1      3259-8.27172E-08 4.61958E-08-1.56691E-07
 -1      3260-6.09768E-08 9.29778E-08-2.68838E-07
 -1      3261-3.82448E-08 1.20681E-07-3.35438E-07
 -1      3262-2.15023E-08 1.32226E-07-3.49930E-07
 -1      3263-8.97731E-09 1.35003E-07-3.44646E-07
 -1      3264 5.62077E-11 1.35088E-07-3.38209E-07
 -1      3265 5.98386E-09 1.34982E-07-3.34999E-07
 -1      3266 9.61426E-09 1.35126E-07-3.34018E-07
 -1      3267 1.18036E-08 1.35380E-07-3.33900E-07
 -1      3268 1.32045E-08 1.35599E-07-3.33994E-07
 -1      3269 1.42304E-08 1.35737E-07-3.34136E-07
 -1      3270 1.51228E-08 1.35771E-07-3.34302E-07
 -1      3271 1.60087E-08 1.35599E-07-3.34270E-07
 -1      3272 1.69995E-08 1.34953E-07-3.33207E-07
 -1      3273 1.84771E-08 1.33637E-07-3.29531E-07
 -1      3274 2.14930E-08 1.31827E-07-3.23156E-07
 -1      3275 2.71733E-08 1.31816E-07-3.22109E-07
 -1      3276 3.21432E-08 1.34324E-07-3.49735E-07
 -1      3277 3.79042E-08 1.48379E-07-4.01161E-07
 -1      3278 5.17545E-08 1.32689E-07-3.27936E-07
 -1      3279 5.25328E-08 3.88393E-08-1.01090E-07
 -1      3280 4.38139E-08 1.31977E-08 4.77407E-09
 -1      3281 4.38093E-08 1.95850E-09 1.01814E-08
 -1      3282-8.24410E-08 4.15017E-08-9.34640E-08
 -1      3283-6.47333E-08 7.76491E-08-1.49767E-07
 -1      3284-4.38998E-08 1.04554E-07-1.89203E-07
 -1      3285-2.57943E-08 1.16923E-07-1.98563E-07
 -1      3286-1.17832E-08 1.20559E-07-1.94394E-07
 -1      3287-2.01180E-09 1.21178E-07-1.89587E-07
 -1      3288 4.16764E-09 1.21389E-07-1.87300E-07
 -1      3289 7.85629E-09 1.21723E-07-1.86712E-07
 -1      3290 1.00647E-08 1.22083E-07-1.86728E-07
 -1      3291 1.14867E-08 1.22356E-07-1.86854E-07
 -1      3292 1.25438E-08 1.22517E-07-1.86993E-07
 -1      3293 1.34863E-08 1.22554E-07-1.87153E-07
 -1      3294 1.44521E-08 1.22367E-07-1.87185E-07
 -1      3295 1.55237E-08 1.21701E-07-1.86444E-07
 -1      3296 1.69688E-08 1.20324E-07-1.83785E-07
 -1      3297 1.96939E-08 1.18704E-07-1.79570E-07
 -1      3298 2.49308E-08 1.18879E-07-1.81051E-07
 -1      3299 3.21931E-08 1.22728E-07-2.03196E-07
 -1      3300 4.15836E-08 1.29881E-07-2.27201E-07
 -1      3301 5.27154E-08 1.09675E-07-1.78299E-07
 -1      3302 5.54186E-08 4.47107E-08-6.45377E-08
 -1      3303 5.04725E-08 1.38063E-08 6.40268E-09
 -1      3304 4.74467E-08 2.26096E-09 1.08512E-08
 -3
    1PSTEP                        11           4           1          
  100CL  104 5.75000E-01        3304                     0    4           1
 -4  STRESS      6    1
 -5  SXX         1    4    1    1
 -5  SYY         1    4    2    2
 -5  SZZ         1    4    3    3
 -5  SXY         1    4    1    2
 -5  SYZ         1    4    2    3
 -5  SZX         1    4    3    1
 -1         1 3.03947E+04 1.24997E+04 1.23976E+04 2.43741E+03-6.39964E-01-8.32057E+01
 -1         2 5.19981E+04 4.39690E+01-2.23545E+04-1.28062E+04-2.06500E+03-1.28721E+04
 -1         3 2.94477E+04 1.21113E+04 1.20257E+04 1.56179E+03-4.29644E-02-7.77866E+01
 -1         4 3.23014E+04-5.09673E+03-2.69990E+04-7.48879E+03-6.49442E+02-5.84730E+03
 -1         5 2.92017E+04 1.20066E+04 1.19314E+04 7.67704E+02 1.41401E-01-7.02060E+01
 -1         6 3.04951E+04-4.04014E+03-2.71166E+04-1.28584E+03-1.74267E+02-6.00944E+03
 -1         7 2.91475E+04 1.19826E+04 1.19115E+04 4.95454E-05-4.65209E-08-6.76844E+01
 -1         8 3.00867E+04-3.87759E+03-2.71826E+04 7.13787E-07-2.67022E-07-5.93417E+03
 -1         9 2.92017E+04 1.20066E+04 1.19314E+04-7.67704E+02-1.41401E-01-7.02060E+01
 -1        10 3.04951E+04-4.04014E+03-2.71166E+04 1.28584E+03 1.74267E+02-6.00944E+03
 -1        11 2.94477E+04 1.21113E+04 1.20257E+04-1.56179E+03 4.29642E-02-7.77866E+01
 -1        12 3.23014E+04-5.09673E+03-2.69990E+04 7.48879E+03 6.49442E+02-5.84730E+03
 -1        13 3.03947E+04 1.24997E+04 1.23976E+04-2.43741E+03 6.39963E-01-8.32057E+01
 -1        14 5.19981E+04 4.39690E+01-2.23545E+04 1.28062E+04 2.06500E+03-1.28721E+04
 -1        15 3.07209E+04 1.26292E+04 1.25429E+04 2.44200E+03-2.34742E+01-2.19212E+03
 -1        16 3.33675E+04-2.00773E+03-2.77266E+04-6.24736E+03-1.04007E+03-8.42567E+03
 -1        17 2.97777E+04 1.22423E+04 1.21736E+04 1.57252E+03-1.36815E+01-2.15808E+03
 -1        18 2.39720E+04-5.54846E+03-3.04490E+04-4.24679E+03-3.45099E+02-4.62641E+03
 -1        19 2.95384E+04 1.21399E+04 1.20825E+04 7.76342E+02-5.87133E+00-2.10517E+03
 -1        20 2.12587E+04-6.87599E+03-3.10181E+04-1.40672E+03-2.05603E+02-4.41282E+03
 -1        21 2.94870E+04 1.21169E+04 1.20639E+04 4.86080E-05-4.85610E-07-2.08090E+03
 -1        22 2.08042E+04-7.19962E+03-3.10429E+04-6.72787E-07-1.70375E-07-4.38389E+03
 -1        23 2.95384E+04 1.21399E+04 1.20825E+04-7.76342E+02 5.87133E+00-2.10517E+03
 -1        24 2.12587E+04-6.87599E+03-3.10181E+04 1.40672E+03 2.05603E+02-4.41282E+03
 -1        25 2.97777E+04 1.22423E+04 1.21736E+04-1.57252E+03 1.36815E+01-2.15808E+03
 -1        26 2.39720E+04-5.54846E+03-3.04490E+04 4.24679E+03 3.45099E+02-4.62641E+03
 -1        27 3.07209E+04 1.26292E+04 1.25429E+04-2.44200E+03 2.34742E+01-2.19212E+03
 -1        28 3.33675E+04-2.00773E+03-2.77266E+04 6.24736E+03 1.04007E+03-8.42567E+03
 -1        29 3.13401E+04 1.28762E+04 1.28366E+04 2.44418E+03-4.71217E+01-4.43429E+03
 -1        30 3.07168E+04-1.24337E+03-2.99102E+04-6.85947E+03-2.52023E+02-3.34215E+03
 -1        31 3.04207E+04 1.24987E+04 1.24798E+04 1.60636E+03-2.73250E+01-4.34030E+03
 -1        32 2.07710E+04-5.70425E+03-3.39086E+04-4.20559E+03 2.00706E+02-2.72020E+03
 -1        33 3.02134E+04 1.24074E+04 1.24027E+04 8.06383E+02-1.16806E+01-4.20609E+03
 -1        34 1.91301E+04-7.07130E+03-3.31417E+04-1.17599E+03 2.75538E+02-2.32337E+03
 -1        35 3.01754E+04 1.23890E+04 1.23894E+04 4.70988E-05-8.99524E-07-4.14626E+03
 -1        36 1.86874E+04-7.81799E+03-3.27829E+04-3.75720E-07 4.41402E-08-2.27730E+03
 -1        37 3.02134E+04 1.24074E+04 1.24027E+04-8.06383E+02 1.16806E+01-4.20609E+03
 -1        38 1.91301E+04-7.07130E+03-3.31417E+04 1.17599E+03-2.75538E+02-2.32337E+03
 -1        39 3.04207E+04 1.24987E+04 1.24798E+04-1.60636E+03 2.73250E+01-4.34030E+03
 -1        40 2.07710E+04-5.70425E+03-3.39086E+04 4.20559E+03-2.00706E+02-2.72020E+03
 -1        41 3.13401E+04 1.28762E+04 1.28366E+04-2.44418E+03 4.71217E+01-4.43429E+03
 -1        42 3.07168E+04-1.24337E+03-2.99102E+04 6.85947E+03 2.52023E+02-3.34215E+03
 -1        43 3.24357E+04 1.33132E+04 1.33571E+04 2.42594E+03-7.21093E+01-6.97589E+03
 -1        44 2.81926E+04-2.43807E+03-3.54708E+04-6.97119E+03 6.79800E+02-2.49562E+03
 -1        45 3.15876E+04 1.29631E+04 1.30360E+04 1.65416E+03-4.18236E+01-6.73780E+03
 -1        46 1.92808E+04-6.48026E+03-3.74171E+04-4.22214E+03 1.45926E+03-2.10424E+03
 -1        47 3.14513E+04 1.28971E+04 1.29850E+04 8.49622E+02-1.82632E+01-6.44146E+03
 -1        48 1.80214E+04-8.17307E+03-3.50576E+04-1.18514E+03 1.26251E+03-1.90133E+03
 -1        49 3.14400E+04 1.28882E+04 1.29796E+04 4.52578E-05-1.28195E-06-6.31871E+03
 -1        50 1.77069E+04-9.12502E+03-3.41834E+04-7.06793E-08-1.56107E-07-1.82610E+03
 -1        51 3.14513E+04 1.28971E+04 1.29850E+04-8.49622E+02 1.82632E+01-6.44146E+03
 -1        52 1.80214E+04-8.17307E+03-3.50576E+04 1.18514E+03-1.26251E+03-1.90133E+03
 -1        53 3.15876E+04 1.29631E+04 1.30360E+04-1.65416E+03 4.18236E+01-6.73780E+03
 -1        54 1.92808E+04-6.48026E+03-3.74171E+04 4.22214E+03-1.45926E+03-2.10424E+03
 -1        55 3.24357E+04 1.33132E+04 1.33571E+04-2.42594E+03 7.21093E+01-6.97589E+03
 -1        56 2.81926E+04-2.43807E+03-3.54708E+04 6.97119E+03-6.79800E+02-2.49562E+03
 -1        57 3.44186E+04 1.41007E+04 1.42721E+04 2.32122E+03-9.74982E+01-1.00959E+04
 -1        58 2.47737E+04-5.67964E+03-4.65159E+04-7.41518E+03 2.29319E+03-2.03870E+03
 -1        59 3.37492E+04 1.38172E+04 1.40472E+04 1.66225E+03-5.82204E+01-9.48739E+03
 -1        60 1.93161E+04-7.05539E+03-3.99594E+04-4.28049E+03 3.15638E+03-1.29800E+03
 -1        61 3.37422E+04 1.37999E+04 1.40255E+04 8.47635E+02-2.78965E+01-8.90832E+03
 -1        62 1.80764E+04-9.74323E+03-3.59682E+04-1.20724E+03 2.06995E+03-1.14133E+03
 -1        63 3.37541E+04 1.38012E+04 1.40165E+04 4.29750E-05-1.64441E-06-8.70817E+03
 -1        64 1.71806E+04-1.13343E+04-3.58847E+04 1.51204E-07-2.67979E-07-1.07041E+03
 -1        65 3.37422E+04 1.37999E+04 1.40255E+04-8.47635E+02 2.78965E+01-8.90832E+03
 -1        66 1.80764E+04-9.74323E+03-3.59682E+04 1.20724E+03-2.06995E+03-1.14133E+03
 -1        67 3.37492E+04 1.38172E+04 1.40472E+04-1.66225E+03 5.82204E+01-9.48739E+03
 -1        68 1.93161E+04-7.05539E+03-3.99594E+04 4.28049E+03-3.15638E+03-1.29800E+03
 -1        69 3.44186E+04 1.41007E+04 1.42721E+04-2.32122E+03 9.74982E+01-1.00959E+04
 -1        70 2.47737E+04-5.67964E+03-4.65159E+04 7.41518E+03-2.29319E+03-2.03870E+03
 -1        71 3.83634E+04 1.56476E+04 1.59947E+04 1.90644E+03-1.37518E+02-1.43088E+04
 -1        72 1.81044E+04-1.57679E+04-6.91614E+04-7.27069E+03 3.66151E+03 3.35267E+03
 -1        73 3.82848E+04 1.55865E+04 1.60676E+04 1.38663E+03-7.51096E+01-1.26884E+04
 -1        74 2.38399E+04-6.85147E+03-3.94675E+04-4.57601E+03 3.31496E+03 2.32174E+03
 -1        75 3.82793E+04 1.55815E+04 1.59723E+04 5.67973E+02-3.11111E+01-1.18007E+04
 -1        76 1.98796E+04-1.09012E+04-3.88050E+04-2.08178E+03 1.63016E+03 2.44267E+03
 -1        77 3.82567E+04 1.55742E+04 1.59480E+04 3.98420E-05-1.99584E-06-1.16355E+04
 -1        78 1.98855E+04-9.62730E+03-3.79118E+04-8.05459E-08-1.90269E-07 2.47409E+03
 -1        79 3.82793E+04 1.55815E+04 1.59723E+04-5.67973E+02 3.11111E+01-1.18007E+04
 -1        80 1.98796E+04-1.09012E+04-3.88050E+04 2.08178E+03-1.63016E+03 2.44267E+03
 -1        81 3.82848E+04 1.55865E+04 1.60676E+04-1.38663E+03 7.51096E+01-1.26884E+04
 -1        82 2.38399E+04-6.85147E+03-3.94675E+04 4.57601E+03-3.31496E+03 2.32174E+03
 -1        83 3.83634E+04 1.56476E+04 1.59947E+04-1.90644E+03 1.37518E+02-1.43088E+04
 -1        84 1.81044E+04-1.57679E+04-6.91614E+04 7.27069E+03-3.66151E+03 3.35267E+03
 -1        85 5.06092E+04 2.02707E+04 2.13706E+04-4.12818E+02 8.18391E+01-2.10737E+04
 -1        86 4.94697E+04-5.59167E+02-6.74077E+04-2.18135E+04 1.61037E+04 1.92454E+03
 -1        87 4.98103E+04 1.99508E+04 2.08455E+04-1.41610E+02 1.60827E+01-1.66968E+04
 -1        88 4.80369E+04 1.38545E+04-2.60241E+04-1.31995E+04 8.66147E+03 2.81594E+03
 -1        89 4.91794E+04 1.97497E+04 2.05331E+04 9.70329E-01-1.11223E+01-1.59623E+04
 -1        90 4.05120E+04 8.09506E+03-3.06837E+04-4.08483E+03 7.16509E+02 3.46867E+03
 -1        91 4.89806E+04 1.96753E+04 2.04369E+04 3.49090E-05-2.23150E-06-1.57495E+04
 -1        92 3.92925E+04 6.65261E+03-3.05003E+04-8.76872E-07-1.66237E-07 3.64947E+03
 -1        93 4.91794E+04 1.97497E+04 2.05331E+04-9.70257E-01 1.11223E+01-1.59623E+04
 -1        94 4.05120E+04 8.09506E+03-3.06837E+04 4.08483E+03-7.16509E+02 3.46867E+03
 -1        95 4.98103E+04 1.99508E+04 2.08455E+04 1.41610E+02-1.60827E+01-1.66968E+04
 -1        96 4.80369E+04 1.38545E+04-2.60241E+04 1.31995E+04-8.66147E+03 2.81594E+03
 -1        97 5.06092E+04 2.02707E+04 2.13706E+04 4.12818E+02-8.18391E+01-2.10737E+04
 -1        98 4.94697E+04-5.59167E+02-6.74077E+04 2.18135E+04-1.61037E+04 1.92454E+03
 -1        99 2.30432E+04-2.45948E+03-9.05262E+03 4.84245E+01 2.11821E+01 1.45114E+02
 -1       100 2.30432E+04-2.45948E+03-9.05262E+03-4.84247E+01-2.11822E+01 1.45115E+02
 -1       101 2.74078E+04-3.79730E+02-1.48523E+04-6.93285E+01 5.89975E+00 3.36624E+02
 -1       102 2.74078E+04-3.79730E+02-1.48523E+04 6.93285E+01-5.89975E+00 3.36624E+02
 -1       103 2.87228E+04-2.57039E+02-1.64107E+04-7.06603E+01 2.43059E+01 3.36092E+02
 -1       104 2.87228E+04-2.57039E+02-1.64107E+04 7.06603E+01-2.43059E+01 3.36092E+02
 -1       105 2.84003E+04 8.19440E+00-1.61877E+04-2.48088E+01 4.70866E+01 2.30581E+02
 -1       106 2.84003E+04 8.19439E+00-1.61877E+04 2.48088E+01-4.70866E+01 2.30581E+02
 -1       107 2.79547E+04-9.88050E+00-1.59157E+04-4.90076E+00 5.59165E+01 1.66929E+02
 -1       108 2.79547E+04-9.88051E+00-1.59157E+04 4.90079E+00-5.59165E+01 1.66929E+02
 -1       109 2.78107E+04-2.86738E+01-1.57620E+04 1.41985E+00 5.86159E+01 1.46547E+02
 -1       110 2.78107E+04-2.86738E+01-1.57620E+04-1.41983E+00-5.86159E+01 1.46547E+02
 -1       111 2.78295E+04-4.14274E+01-1.57072E+04 2.72833E+00 5.84116E+01 1.42904E+02
 -1       112 2.78295E+04-4.14274E+01-1.57072E+04-2.72831E+00-5.84116E+01 1.42904E+02
 -1       113 2.79054E+04-4.55730E+01-1.56939E+04 2.38958E+00 5.80035E+01 1.43388E+02
 -1       114 2.79054E+04-4.55730E+01-1.56939E+04-2.38956E+00-5.80035E+01 1.43388E+02
 -1       115 2.79937E+04-4.68846E+01-1.56941E+04 2.06797E+00 5.76769E+01 1.44327E+02
 -1       116 2.79938E+04-4.68846E+01-1.56941E+04-2.06795E+00-5.76769E+01 1.44327E+02
 -1       117 2.80830E+04-4.68697E+01-1.56966E+04 1.91739E+00 5.74814E+01 1.44774E+02
 -1       118 2.80830E+04-4.68697E+01-1.56966E+04-1.91738E+00-5.74814E+01 1.44774E+02
 -1       119 2.81727E+04-4.65986E+01-1.56996E+04 1.97265E+00 5.73235E+01 1.44636E+02
 -1       120 2.81727E+04-4.65986E+01-1.56996E+04-1.97264E+00-5.73235E+01 1.44636E+02
 -1       121 2.82649E+04-4.67446E+01-1.57032E+04 2.31489E+00 5.70768E+01 1.43789E+02
 -1       122 2.82649E+04-4.67446E+01-1.57032E+04-2.31487E+00-5.70768E+01 1.43789E+02
 -1       123 2.83560E+04-4.92078E+01-1.57029E+04 2.82371E+00 5.66621E+01 1.41961E+02
 -1       124 2.83560E+04-4.92078E+01-1.57029E+04-2.82370E+00-5.66621E+01 1.41961E+02
 -1       125 2.84256E+04-5.55699E+01-1.56756E+04 3.65030E+00 5.60321E+01 1.40965E+02
 -1       126 2.84256E+04-5.55699E+01-1.56756E+04-3.65029E+00-5.60321E+01 1.40965E+02
 -1       127 2.83775E+04-8.28616E+01-1.55768E+04-4.51491E-01 5.61244E+01 1.44654E+02
 -1       128 2.83775E+04-8.28616E+01-1.55768E+04 4.51501E-01-5.61244E+01 1.44654E+02
 -1       129 2.80025E+04-1.16017E+02-1.52802E+04-1.27597E+01 6.28074E+01 1.83801E+02
 -1       130 2.80025E+04-1.16017E+02-1.52802E+04 1.27597E+01-6.28074E+01 1.83801E+02
 -1       131 2.71143E+04-1.20409E+02-1.48485E+04-3.41127E+01 7.97378E+01 3.16506E+02
 -1       132 2.71143E+04-1.20409E+02-1.48485E+04 3.41127E+01-7.97378E+01 3.16506E+02
 -1       133 2.70974E+04 5.16522E+02-1.43719E+04-3.10400E+02 1.20859E+02 2.54579E+02
 -1       134 2.70974E+04 5.16522E+02-1.43719E+04 3.10400E+02-1.20859E+02 2.54579E+02
 -1       135 4.04298E+04 4.04047E+03-1.68668E+04 2.02706E+03 2.03727E+02 1.78028E+03
 -1       136 4.04298E+04 4.04047E+03-1.68668E+04-2.02706E+03-2.03727E+02 1.78028E+03
 -1       137 2.30747E+04-2.54802E+03-9.50161E+03 5.28701E+01 7.30069E+01-1.32961E+03
 -1       138 2.30747E+04-2.54802E+03-9.50161E+03-5.28700E+01-7.30069E+01-1.32961E+03
 -1       139 2.73322E+04-4.30770E+02-1.51930E+04-6.47293E+01 7.91080E+01-1.30863E+02
 -1       140 2.73322E+04-4.30770E+02-1.51930E+04 6.47293E+01-7.91080E+01-1.30863E+02
 -1       141 2.85686E+04-3.08232E+02-1.65712E+04-6.72317E+01 9.15468E+01 3.80154E+02
 -1       142 2.85686E+04-3.08232E+02-1.65712E+04 6.72318E+01-9.15468E+01 3.80154E+02
 -1       143 2.82439E+04-5.41255E+01-1.63335E+04-2.30118E+01 9.69238E+01 3.35139E+02
 -1       144 2.82439E+04-5.41255E+01-1.63335E+04 2.30119E+01-9.69238E+01 3.35139E+02
 -1       145 2.78381E+04-7.94194E+01-1.60809E+04-3.24515E+00 9.97277E+01 2.14860E+02
 -1       146 2.78381E+04-7.94194E+01-1.60809E+04 3.24518E+00-9.97277E+01 2.14860E+02
 -1       147 2.77233E+04-9.61230E+01-1.59363E+04 2.16410E+00 1.00050E+02 1.53430E+02
 -1       148 2.77233E+04-9.61230E+01-1.59363E+04-2.16407E+00-1.00050E+02 1.53430E+02
 -1       149 2.77516E+04-1.06975E+02-1.58834E+04 3.18615E+00 9.98185E+01 1.32515E+02
 -1       150 2.77516E+04-1.06975E+02-1.58834E+04-3.18613E+00-9.98185E+01 1.32515E+02
 -1       151 2.78292E+04-1.10569E+02-1.58709E+04 2.79680E+00 9.96505E+01 1.28200E+02
 -1       152 2.78292E+04-1.10569E+02-1.58709E+04-2.79678E+00-9.96505E+01 1.28200E+02
 -1       153 2.79174E+04-1.11597E+02-1.58709E+04 2.49041E+00 9.95427E+01 1.28561E+02
 -1       154 2.79174E+04-1.11597E+02-1.58709E+04-2.49039E+00-9.95427E+01 1.28561E+02
 -1       155 2.80062E+04-1.11484E+02-1.58731E+04 2.34827E+00 9.94818E+01 1.29122E+02
 -1       156 2.80062E+04-1.11484E+02-1.58731E+04-2.34826E+00-9.94818E+01 1.29122E+02
 -1       157 2.80954E+04-1.11144E+02-1.58758E+04 2.40757E+00 9.94404E+01 1.28700E+02
 -1       158 2.80954E+04-1.11144E+02-1.58758E+04-2.40755E+00-9.94404E+01 1.28700E+02
 -1       159 2.81866E+04-1.11289E+02-1.58793E+04 2.69441E+00 9.93481E+01 1.27267E+02
 -1       160 2.81866E+04-1.11289E+02-1.58793E+04-2.69440E+00-9.93481E+01 1.27267E+02
 -1       161 2.82776E+04-1.13123E+02-1.58787E+04 3.26796E+00 9.92888E+01 1.26705E+02
 -1       162 2.82776E+04-1.13123E+02-1.58787E+04-3.26795E+00-9.92888E+01 1.26705E+02
 -1       163 2.83473E+04-1.20654E+02-1.58546E+04 3.91104E+00 9.86246E+01 1.34791E+02
 -1       164 2.83473E+04-1.20654E+02-1.58546E+04-3.91103E+00-9.86246E+01 1.34791E+02
 -1       165 2.83239E+04-1.36094E+02-1.57516E+04 1.00237E+00 9.98537E+01 1.72937E+02
 -1       166 2.83239E+04-1.36094E+02-1.57516E+04-1.00236E+00-9.98537E+01 1.72937E+02
 -1       167 2.79862E+04-2.01626E+02-1.55108E+04-7.32514E+00 9.41276E+01 2.88666E+02
 -1       168 2.79862E+04-2.01626E+02-1.55108E+04 7.32515E+00-9.41276E+01 2.88666E+02
 -1       169 2.71228E+04-1.25262E+02-1.49975E+04-6.00706E+01 1.28725E+02 4.97313E+02
 -1       170 2.71228E+04-1.25262E+02-1.49975E+04 6.00706E+01-1.28725E+02 4.97313E+02
 -1       171 2.77202E+04 3.71520E+02-1.46808E+04-7.92166E+01 3.22739E+01 2.40567E+02
 -1       172 2.77202E+04 3.71520E+02-1.46808E+04 7.92166E+01-3.22739E+01 2.40567E+02
 -1       173 3.26561E+04 1.80788E+03-1.78696E+04 2.69066E+02 4.33706E+02-3.96367E+02
 -1       174 3.26561E+04 1.80788E+03-1.78696E+04-2.69066E+02-4.33706E+02-3.96367E+02
 -1       175 2.29372E+04-2.84572E+03-1.10200E+04 7.42329E+01 1.76045E+02-2.67462E+03
 -1       176 2.29372E+04-2.84572E+03-1.10200E+04-7.42329E+01-1.76045E+02-2.67462E+03
 -1       177 2.70539E+04-6.04378E+02-1.62691E+04-5.72485E+01 2.09574E+02-2.73801E+02
 -1       178 2.70539E+04-6.04378E+02-1.62691E+04 5.72485E+01-2.09574E+02-2.73801E+02
 -1       179 2.80919E+04-4.40079E+02-1.71243E+04-6.28204E+01 2.36699E+02 5.96977E+02
 -1       180 2.80919E+04-4.40079E+02-1.71243E+04 6.28204E+01-2.36699E+02 5.96977E+02
 -1       181 2.77535E+04-2.39930E+02-1.68755E+04-1.81994E+01 2.49572E+02 4.64951E+02
 -1       182 2.77535E+04-2.39930E+02-1.68755E+04 1.81994E+01-2.49572E+02 4.64951E+02
 -1       183 2.74688E+04-2.82327E+02-1.66839E+04-5.30974E-01 2.54548E+02 2.50051E+02
 -1       184 2.74688E+04-2.82327E+02-1.66839E+04 5.30995E-01-2.54548E+02 2.50051E+02
 -1       185 2.74323E+04-2.92646E+02-1.65610E+04 2.95940E+00 2.54850E+02 1.43334E+02
 -1       186 2.74323E+04-2.92646E+02-1.65610E+04-2.95938E+00-2.54850E+02 1.43334E+02
 -1       187 2.74856E+04-2.99475E+02-1.65149E+04 3.20920E+00 2.54530E+02 1.06982E+02
 -1       188 2.74856E+04-2.99475E+02-1.65149E+04-3.20918E+00-2.54530E+02 1.06982E+02
 -1       189 2.75678E+04-3.01774E+02-1.65044E+04 2.71267E+00 2.54297E+02 1.00010E+02
 -1       190 2.75678E+04-3.01774E+02-1.65044E+04-2.71265E+00-2.54297E+02 1.00010E+02
 -1       191 2.76555E+04-3.02327E+02-1.65042E+04 2.40848E+00 2.54159E+02 1.00804E+02
 -1       192 2.76555E+04-3.02327E+02-1.65042E+04-2.40846E+00-2.54159E+02 1.00804E+02
 -1       193 2.77428E+04-3.02172E+02-1.65058E+04 2.28376E+00 2.54113E+02 1.01836E+02
 -1       194 2.77428E+04-3.02172E+02-1.65058E+04-2.28374E+00-2.54113E+02 1.01836E+02
 -1       195 2.78302E+04-3.01916E+02-1.65080E+04 2.32648E+00 2.54078E+02 1.01045E+02
 -1       196 2.78302E+04-3.01916E+02-1.65080E+04-2.32646E+00-2.54078E+02 1.01045E+02
 -1       197 2.79193E+04-3.01822E+02-1.65106E+04 2.57609E+00 2.53996E+02 9.83956E+01
 -1       198 2.79193E+04-3.01822E+02-1.65106E+04-2.57607E+00-2.53997E+02 9.83956E+01
 -1       199 2.80091E+04-3.03368E+02-1.65103E+04 3.13227E+00 2.53712E+02 9.71359E+01
 -1       200 2.80091E+04-3.03368E+02-1.65103E+04-3.13225E+00-2.53712E+02 9.71359E+01
 -1       201 2.80875E+04-3.06902E+02-1.64889E+04 3.90275E+00 2.53443E+02 1.11205E+02
 -1       202 2.80875E+04-3.06902E+02-1.64889E+04-3.90274E+00-2.53443E+02 1.11205E+02
 -1       203 2.81188E+04-3.17622E+02-1.63973E+04 3.70618E+00 2.52239E+02 1.79487E+02
 -1       204 2.81188E+04-3.17622E+02-1.63973E+04-3.70616E+00-2.52239E+02 1.79487E+02
 -1       205 2.79114E+04-3.65336E+02-1.62133E+04-6.71257E+00 2.53996E+02 3.84645E+02
 -1       206 2.79114E+04-3.65336E+02-1.62133E+04 6.71258E+00-2.53996E+02 3.84645E+02
 -1       207 2.73148E+04-3.59624E+02-1.57772E+04-3.26373E+01 2.69383E+02 7.53847E+02
 -1       208 2.73148E+04-3.59623E+02-1.57772E+04 3.26373E+01-2.69383E+02 7.53847E+02
 -1       209 2.68259E+04-1.47976E+02-1.56704E+04-1.72432E+02 2.54696E+02 6.37976E+02
 -1       210 2.68259E+04-1.47976E+02-1.56704E+04 1.72432E+02-2.54696E+02 6.37976E+02
 -1       211 3.16554E+04 1.89088E+03-1.60195E+04 3.27689E+02 5.02026E+02-1.77827E+03
 -1       212 3.16554E+04 1.89088E+03-1.60195E+04-3.27689E+02-5.02026E+02-1.77827E+03
 -1       213 2.24483E+04-3.51872E+03-1.41501E+04 1.27945E+02 3.85560E+02-3.88599E+03
 -1       214 2.24483E+04-3.51872E+03-1.41501E+04-1.27945E+02-3.85560E+02-3.88599E+03
 -1       215 2.63835E+04-9.77489E+02-1.82866E+04-4.49564E+01 4.40086E+02-2.01509E+02
 -1       216 2.63835E+04-9.77489E+02-1.82866E+04 4.49564E+01-4.40086E+02-2.01509E+02
 -1       217 2.70670E+04-7.83821E+02-1.83959E+04-5.52525E+01 4.92799E+02 7.54497E+02
 -1       218 2.70670E+04-7.83821E+02-1.83959E+04 5.52526E+01-4.92799E+02 7.54497E+02
 -1       219 2.67704E+04-6.95778E+02-1.82282E+04-9.49976E+00 5.13521E+02 5.08516E+02
 -1       220 2.67704E+04-6.95778E+02-1.82282E+04 9.49978E+00-5.13521E+02 5.08516E+02
 -1       221 2.67083E+04-7.48952E+02-1.81148E+04 3.89983E+00 5.18854E+02 2.51977E+02
 -1       222 2.67083E+04-7.48952E+02-1.81148E+04-3.89981E+00-5.18854E+02 2.51977E+02
 -1       223 2.67839E+04-7.46396E+02-1.80137E+04 3.87559E+00 5.18194E+02 1.22108E+02
 -1       224 2.67839E+04-7.46396E+02-1.80137E+04-3.87556E+00-5.18194E+02 1.22108E+02
 -1       225 2.68692E+04-7.49099E+02-1.79805E+04 3.29080E+00 5.17859E+02 7.99960E+01
 -1       226 2.68692E+04-7.49099E+02-1.79805E+04-3.29078E+00-5.17859E+02 7.99960E+01
 -1       227 2.69578E+04-7.49140E+02-1.79717E+04 2.59605E+00 5.17403E+02 7.22379E+01
 -1       228 2.69578E+04-7.49140E+02-1.79717E+04-2.59603E+00-5.17403E+02 7.22379E+01
 -1       229 2.70439E+04-7.49169E+02-1.79712E+04 2.31774E+00 5.17236E+02 7.35262E+01
 -1       230 2.70439E+04-7.49169E+02-1.79712E+04-2.31772E+00-5.17236E+02 7.35262E+01
 -1       231 2.71289E+04-7.49046E+02-1.79722E+04 2.22151E+00 5.17178E+02 7.48426E+01
 -1       232 2.71289E+04-7.49046E+02-1.79722E+04-2.22149E+00-5.17178E+02 7.48426E+01
 -1       233 2.72136E+04-7.48900E+02-1.79735E+04 2.24002E+00 5.17143E+02 7.38762E+01
 -1       234 2.72136E+04-7.48900E+02-1.79735E+04-2.24001E+00-5.17143E+02 7.38762E+01
 -1       235 2.72992E+04-7.48826E+02-1.79752E+04 2.42317E+00 5.17041E+02 7.05024E+01
 -1       236 2.72992E+04-7.48826E+02-1.79752E+04-2.42315E+00-5.17041E+02 7.05024E+01
 -1       237 2.73869E+04-7.48918E+02-1.79743E+04 2.91206E+00 5.16657E+02 6.85862E+01
 -1       238 2.73869E+04-7.48918E+02-1.79743E+04-2.91204E+00-5.16657E+02 6.85862E+01
 -1       239 2.74778E+04-7.49598E+02-1.79580E+04 4.16141E+00 5.16112E+02 8.42301E+01
 -1       240 2.74778E+04-7.49598E+02-1.79580E+04-4.16140E+00-5.16112E+02 8.42301E+01
 -1       241 2.75693E+04-7.49433E+02-1.78874E+04 5.42358E+00 5.14827E+02 1.67244E+02
 -1       242 2.75693E+04-7.49433E+02-1.78874E+04-5.42357E+00-5.14827E+02 1.67244E+02
 -1       243 2.76226E+04-7.63511E+02-1.77269E+04 4.43396E+00 5.14439E+02 4.03339E+02
 -1       244 2.76226E+04-7.63511E+02-1.77269E+04-4.43395E+00-5.14439E+02 4.03339E+02
 -1       245 2.72068E+04-9.06291E+02-1.76320E+04-3.04789E+01 5.28385E+02 8.95357E+02
 -1       246 2.72068E+04-9.06291E+02-1.76320E+04 3.04789E+01-5.28385E+02 8.95357E+02
 -1       247 2.64241E+04-7.08496E+02-1.69698E+04-1.59043E+02 5.51412E+02 9.22170E+02
 -1       248 2.64241E+04-7.08496E+02-1.69698E+04 1.59043E+02-5.51412E+02 9.22170E+02
 -1       249 3.13947E+04 1.67893E+03-1.56991E+04 2.99459E+02 7.86750E+02-1.41723E+03
 -1       250 3.13947E+04 1.67893E+03-1.56991E+04-2.99459E+02-7.86750E+02-1.41723E+03
 -1       251 2.10244E+04-5.12975E+03-2.03452E+04 2.33468E+02 7.91501E+02-4.68458E+03
 -1       252 2.10244E+04-5.12975E+03-2.03452E+04-2.33468E+02-7.91501E+02-4.68458E+03
 -1       253 2.49381E+04-1.69076E+03-2.15854E+04-4.16519E+01 8.38418E+02 1.58040E+02
 -1       254 2.49381E+04-1.69076E+03-2.15854E+04 4.16520E+01-8.38418E+02 1.58040E+02
 -1       255 2.50057E+04-1.69016E+03-2.11718E+04-4.39029E+01 9.26665E+02 6.88142E+02
 -1       256 2.50057E+04-1.69016E+03-2.11718E+04 4.39029E+01-9.26665E+02 6.88142E+02
 -1       257 2.49704E+04-1.76130E+03-2.12707E+04 6.88973E+00 9.56861E+02 4.62105E+02
 -1       258 2.49704E+04-1.76130E+03-2.12707E+04-6.88971E+00-9.56861E+02 4.62105E+02
 -1       259 2.52465E+04-1.77984E+03-2.11572E+04 8.18564E+00 9.56043E+02 2.06688E+02
 -1       260 2.52465E+04-1.77984E+03-2.11572E+04-8.18562E+00-9.56043E+02 2.06688E+02
 -1       261 2.54269E+04-1.76924E+03-2.10952E+04 4.88664E+00 9.56047E+02 9.02838E+01
 -1       262 2.54269E+04-1.76924E+03-2.10952E+04-4.88662E+00-9.56047E+02 9.02838E+01
 -1       263 2.55488E+04-1.76610E+03-2.10704E+04 3.21028E+00 9.55007E+02 5.19515E+01
 -1       264 2.55488E+04-1.76610E+03-2.10704E+04-3.21026E+00-9.55007E+02 5.19515E+01
 -1       265 2.56407E+04-1.76350E+03-2.10635E+04 2.34154E+00 9.54457E+02 4.56643E+01
 -1       266 2.56407E+04-1.76350E+03-2.10635E+04-2.34152E+00-9.54457E+02 4.56643E+01
 -1       267 2.57240E+04-1.76316E+03-2.10626E+04 2.13297E+00 9.54246E+02 4.71116E+01
 -1       268 2.57240E+04-1.76316E+03-2.10626E+04-2.13295E+00-9.54246E+02 4.71116E+01
 -1       269 2.58060E+04-1.76308E+03-2.10628E+04 2.08337E+00 9.54180E+02 4.84174E+01
 -1       270 2.58060E+04-1.76308E+03-2.10628E+04-2.08335E+00-9.54180E+02 4.84174E+01
 -1       271 2.58877E+04-1.76314E+03-2.10633E+04 2.07216E+00 9.54147E+02 4.75022E+01
 -1       272 2.58877E+04-1.76314E+03-2.10633E+04-2.07214E+00-9.54147E+02 4.75022E+01
 -1       273 2.59689E+04-1.76308E+03-2.10639E+04 2.14068E+00 9.54025E+02 4.42872E+01
 -1       274 2.59689E+04-1.76308E+03-2.10639E+04-2.14067E+00-9.54025E+02 4.42872E+01
 -1       275 2.60517E+04-1.76216E+03-2.10627E+04 2.53104E+00 9.53648E+02 4.18286E+01
 -1       276 2.60517E+04-1.76216E+03-2.10627E+04-2.53103E+00-9.53648E+02 4.18286E+01
 -1       277 2.61530E+04-1.75771E+03-2.10490E+04 4.17461E+00 9.52475E+02 5.60511E+01
 -1       278 2.61530E+04-1.75771E+03-2.10490E+04-4.17460E+00-9.52475E+02 5.60511E+01
 -1       279 2.63056E+04-1.75078E+03-2.10039E+04 7.22964E+00 9.51989E+02 1.27625E+02
 -1       280 2.63056E+04-1.75078E+03-2.10039E+04-7.22963E+00-9.51989E+02 1.27625E+02
 -1       281 2.66006E+04-1.72552E+03-2.08720E+04 1.57985E+01 9.47346E+02 3.56201E+02
 -1       282 2.66006E+04-1.72552E+03-2.08720E+04-1.57985E+01-9.47346E+02 3.56201E+02
 -1       283 2.67261E+04-1.90063E+03-2.09153E+04-8.33669E+00 9.53199E+02 7.80035E+02
 -1       284 2.67261E+04-1.90063E+03-2.09153E+04 8.33670E+00-9.53199E+02 7.80035E+02
 -1       285 2.59615E+04-1.95670E+03-2.06114E+04-1.56617E+02 1.02877E+03 1.16973E+03
 -1       286 2.59615E+04-1.95670E+03-2.06114E+04 1.56617E+02-1.02877E+03 1.16973E+03
 -1       287 3.23752E+04 1.17854E+03-1.59537E+04 4.62981E+02 1.17609E+03-1.03484E+03
 -1       288 3.23752E+04 1.17854E+03-1.59537E+04-4.62981E+02-1.17609E+03-1.03484E+03
 -1       289 1.74434E+04-8.99120E+03-3.22441E+04 5.11653E+02 8.31896E+02-3.05717E+03
 -1       290 1.74434E+04-8.99120E+03-3.22441E+04-5.11653E+02-8.31896E+02-3.05717E+03
 -1       291 2.19575E+04-3.19040E+03-2.61616E+04-1.72367E+02 7.37364E+02-1.00476E+02
 -1       292 2.19575E+04-3.19040E+03-2.61616E+04 1.72367E+02-7.37364E+02-1.00476E+02
 -1       293 2.08192E+04-4.30666E+03-2.74670E+04 1.63332E+01 9.66231E+02 4.36168E+02
 -1       294 2.08192E+04-4.30666E+03-2.74670E+04-1.63332E+01-9.66231E+02 4.36168E+02
 -1       295 2.18431E+04-4.25821E+03-2.72828E+04 2.20087E+01 9.56748E+02 2.71693E+02
 -1       296 2.18431E+04-4.25821E+03-2.72828E+04-2.20087E+01-9.56748E+02 2.71693E+02
 -1       297 2.23485E+04-4.24940E+03-2.72381E+04 1.37116E+01 9.64130E+02 1.21969E+02
 -1       298 2.23485E+04-4.24940E+03-2.72381E+04-1.37116E+01-9.64130E+02 1.21969E+02
 -1       299 2.26434E+04-4.23411E+03-2.71895E+04 5.73930E+00 9.62222E+02 4.94320E+01
 -1       300 2.26434E+04-4.23411E+03-2.71895E+04-5.73928E+00-9.62222E+02 4.94320E+01
 -1       301 2.27859E+04-4.22151E+03-2.71705E+04 2.82691E+00 9.61045E+02 2.55473E+01
 -1       302 2.27859E+04-4.22151E+03-2.71705E+04-2.82688E+00-9.61045E+02 2.55473E+01
 -1       303 2.28759E+04-4.21805E+03-2.71644E+04 1.85717E+00 9.60404E+02 2.13596E+01
 -1       304 2.28759E+04-4.21805E+03-2.71644E+04-1.85715E+00-9.60404E+02 2.13596E+01
 -1       305 2.29547E+04-4.21716E+03-2.71630E+04 1.78333E+00 9.60166E+02 2.21407E+01
 -1       306 2.29547E+04-4.21716E+03-2.71630E+04-1.78332E+00-9.60166E+02 2.21407E+01
 -1       307 2.30338E+04-4.21727E+03-2.71625E+04 1.80006E+00 9.60115E+02 2.29020E+01
 -1       308 2.30338E+04-4.21727E+03-2.71625E+04-1.80005E+00-9.60115E+02 2.29020E+01
 -1       309 2.31127E+04-4.21759E+03-2.71623E+04 1.75775E+00 9.60098E+02 2.23476E+01
 -1       310 2.31127E+04-4.21759E+03-2.71623E+04-1.75774E+00-9.60098E+02 2.23476E+01
 -1       311 2.31887E+04-4.21750E+03-2.71621E+04 1.64755E+00 9.59993E+02 2.04043E+01
 -1       312 2.31887E+04-4.21750E+03-2.71621E+04-1.64753E+00-9.59993E+02 2.04043E+01
 -1       313 2.32640E+04-4.21657E+03-2.71601E+04 1.88424E+00 9.59503E+02 1.92585E+01
 -1       314 2.32640E+04-4.21657E+03-2.71601E+04-1.88422E+00-9.59503E+02 1.92585E+01
 -1       315 2.33617E+04-4.20696E+03-2.71499E+04 3.56008E+00 9.58641E+02 2.80644E+01
 -1       316 2.33617E+04-4.20696E+03-2.71499E+04-3.56007E+00-9.58641E+02 2.80644E+01
 -1       317 2.35757E+04-4.18904E+03-2.71061E+04 1.04045E+01 9.54907E+02 7.50210E+01
 -1       318 2.35757E+04-4.18904E+03-2.71061E+04-1.04045E+01-9.54907E+02 7.50210E+01
 -1       319 2.39783E+04-4.16993E+03-2.70785E+04 1.97248E+01 9.62659E+02 2.08246E+02
 -1       320 2.39783E+04-4.16993E+03-2.70785E+04-1.97248E+01-9.62659E+02 2.08246E+02
 -1       321 2.50126E+04-4.10934E+03-2.67594E+04 6.78336E+01 9.16923E+02 4.96674E+02
 -1       322 2.50126E+04-4.10934E+03-2.67594E+04-6.78336E+01-9.16923E+02 4.96674E+02
 -1       323 2.49730E+04-4.78044E+03-2.80509E+04-2.46122E+02 1.13619E+03 7.22102E+02
 -1       324 2.49730E+04-4.78044E+03-2.80509E+04 2.46122E+02-1.13619E+03 7.22102E+02
 -1       325 3.48423E+04 5.11818E+01-1.79838E+04 8.18224E+02 9.64931E+02-1.90616E+03
 -1       326 3.48423E+04 5.11818E+01-1.79838E+04-8.18224E+02-9.64931E+02-1.90616E+03
 -1       327 1.83891E+04-4.60763E+03-3.64238E+04-9.71990E+02 5.35951E+03-2.58406E+03
 -1       328 1.83891E+04-4.60763E+03-3.64238E+04 9.71990E+02-5.35951E+03-2.58406E+03
 -1       329 1.88087E+04 1.29482E+03-2.71680E+04-1.41017E+01 3.94815E+03-2.16597E+02
 -1       330 1.88087E+04 1.29482E+03-2.71680E+04 1.41017E+01-3.94815E+03-2.16597E+02
 -1       331 2.05035E+04-5.70237E+02-2.92258E+04 1.32559E+02 4.54315E+03 1.55796E+02
 -1       332 2.05035E+04-5.70237E+02-2.92258E+04-1.32559E+02-4.54315E+03 1.55796E+02
 -1       333 2.23950E+04-4.01238E+01-2.84976E+04 6.56998E+01 4.39853E+03 1.34118E+02
 -1       334 2.23950E+04-4.01238E+01-2.84976E+04-6.56997E+01-4.39853E+03 1.34118E+02
 -1       335 2.31069E+04-1.26346E+02-2.85379E+04 2.71611E+01 4.44064E+03 5.77248E+01
 -1       336 2.31069E+04-1.26346E+02-2.85379E+04-2.71611E+01-4.44064E+03 5.77248E+01
 -1       337 2.34657E+04-7.13862E+01-2.84654E+04 6.59831E+00 4.43014E+03 2.48612E+01
 -1       338 2.34657E+04-7.13863E+01-2.84654E+04-6.59829E+00-4.43014E+03 2.48612E+01
 -1       339 2.35962E+04-6.59987E+01-2.84589E+04 1.21587E+00 4.43177E+03 1.12009E+01
 -1       340 2.35962E+04-6.59987E+01-2.84589E+04-1.21585E+00-4.43177E+03 1.12009E+01
 -1       341 2.36752E+04-6.12296E+01-2.84541E+04 3.67825E-01 4.43060E+03 8.62568E+00
 -1       342 2.36752E+04-6.12296E+01-2.84541E+04-3.67805E-01-4.43060E+03 8.62568E+00
 -1       343 2.37473E+04-6.14750E+01-2.84541E+04 7.29642E-01 4.43041E+03 8.62470E+00
 -1       344 2.37473E+04-6.14750E+01-2.84541E+04-7.29624E-01-4.43041E+03 8.62470E+00
 -1       345 2.38241E+04-6.19103E+01-2.84536E+04 9.64625E-01 4.43017E+03 8.91333E+00
 -1       346 2.38241E+04-6.19103E+01-2.84536E+04-9.64609E-01-4.43017E+03 8.91333E+00
 -1       347 2.39015E+04-6.25479E+01-2.84532E+04 8.12499E-01 4.42995E+03 8.63726E+00
 -1       348 2.39015E+04-6.25479E+01-2.84532E+04-8.12484E-01-4.42995E+03 8.63726E+00
 -1       349 2.39729E+04-6.34113E+01-2.84537E+04 2.88025E-01 4.42985E+03 7.89943E+00
 -1       350 2.39729E+04-6.34113E+01-2.84537E+04-2.88011E-01-4.42985E+03 7.89944E+00
 -1       351 2.40363E+04-6.21933E+01-2.84524E+04-4.19418E-01 4.42873E+03 7.85071E+00
 -1       352 2.40363E+04-6.21933E+01-2.84524E+04 4.19430E-01-4.42873E+03 7.85071E+00
 -1       353 2.41120E+04-5.82226E+01-2.84523E+04 1.88060E+00 4.43047E+03 1.37169E+01
 -1       354 2.41120E+04-5.82226E+01-2.84523E+04-1.88059E+00-4.43047E+03 1.37169E+01
 -1       355 2.43210E+04-2.11578E+01-2.84010E+04 1.19682E+01 4.41867E+03 3.73451E+01
 -1       356 2.43210E+04-2.11578E+01-2.84010E+04-1.19682E+01-4.41867E+03 3.73451E+01
 -1       357 2.48147E+04-4.37926E+01-2.84483E+04 4.93926E+01 4.46255E+03 1.11274E+02
 -1       358 2.48147E+04-4.37925E+01-2.84483E+04-4.93926E+01-4.46255E+03 1.11274E+02
 -1       359 2.62202E+04 1.75657E+02-2.78398E+04 1.64863E+02 4.28874E+03 2.15908E+02
 -1       360 2.62202E+04 1.75657E+02-2.78398E+04-1.64863E+02-4.28874E+03 2.15908E+02
 -1       361 2.85619E+04-1.98186E+02-2.95231E+04 1.75434E+01 4.94401E+03 5.00743E+02
 -1       362 2.85619E+04-1.98186E+02-2.95231E+04-1.75434E+01-4.94401E+03 5.00743E+02
 -1       363 5.31950E+04 6.64897E+03-1.28018E+04 7.48684E+02 2.91289E+03-5.99081E+03
 -1       364 5.31950E+04 6.64897E+03-1.28018E+04-7.48684E+02-2.91289E+03-5.99081E+03
 -1       365 2.35962E+04-1.89563E+03-8.56652E+03 1.05997E+02 4.24678E+01 1.49978E+02
 -1       366 2.86304E+04 5.10910E+03-1.44507E+04-7.50374E+02 2.70694E+03-9.63150E+02
 -1       367 2.78801E+04-5.42562E+02-1.45858E+04-8.49325E+01 3.53818E+01 3.30916E+02
 -1       368 2.66783E+04 8.40529E+03-9.64144E+03-2.21647E+01 2.18971E+03-4.77354E+02
 -1       369 2.85028E+04-3.23826E+02-1.63768E+04-3.60747E+01 4.89992E+01 3.25901E+02
 -1       370 2.88068E+04 7.50336E+03-1.08401E+04 1.04485E+02 2.32027E+03 5.54726E+01
 -1       371 2.82637E+04-1.22593E+02-1.62517E+04-9.53183E+00 6.33742E+01 2.26006E+02
 -1       372 3.07303E+04 7.78808E+03-1.03835E+04 5.58465E+01 2.28491E+03 8.80592E+01
 -1       373 2.78748E+04-1.25451E+02-1.59992E+04-4.36139E+00 6.95649E+01 1.65329E+02
 -1       374 3.14804E+04 7.75090E+03-1.03619E+04 1.57535E+01 2.28580E+03 4.61329E+01
 -1       375 2.77454E+04-1.46062E+02-1.58540E+04-5.74132E-01 7.10480E+01 1.46723E+02
 -1       376 3.18118E+04 7.78016E+03-1.03109E+04 2.05707E+00 2.28477E+03 2.49768E+01
 -1       377 2.77672E+04-1.56789E+02-1.57983E+04 7.53094E-01 7.08955E+01 1.43404E+02
 -1       378 3.19320E+04 7.78533E+03-1.03020E+04-1.01788E+00 2.28490E+03 1.30954E+01
 -1       379 2.78428E+04-1.60888E+02-1.57839E+04 8.66216E-01 7.05839E+01 1.43900E+02
 -1       380 3.20062E+04 7.78763E+03-1.02995E+04-1.06405E+00 2.28487E+03 1.02219E+01
 -1       381 2.79308E+04-1.62100E+02-1.57832E+04 7.64546E-01 7.03369E+01 1.44790E+02
 -1       382 3.20775E+04 7.78722E+03-1.03000E+04-6.44423E-01 2.28482E+03 9.69653E+00
 -1       383 2.80197E+04-1.62140E+02-1.57853E+04 6.99290E-01 7.01836E+01 1.45205E+02
 -1       384 3.21544E+04 7.78657E+03-1.03004E+04-4.26214E-01 2.28475E+03 9.76060E+00
 -1       385 2.81090E+04-1.61916E+02-1.57880E+04 7.32413E-01 7.00622E+01 1.45081E+02
 -1       386 3.22322E+04 7.78581E+03-1.03008E+04-5.34023E-01 2.28466E+03 9.56909E+00
 -1       387 2.82007E+04-1.62114E+02-1.57911E+04 8.98648E-01 6.98702E+01 1.44257E+02
 -1       388 3.23037E+04 7.78490E+03-1.03019E+04-9.99570E-01 2.28464E+03 9.35037E+00
 -1       389 2.82916E+04-1.64130E+02-1.57891E+04 1.05933E+00 6.96450E+01 1.42570E+02
 -1       390 3.23654E+04 7.78529E+03-1.03022E+04-1.73712E+00 2.28444E+03 1.00693E+01
 -1       391 2.83591E+04-1.71086E+02-1.57611E+04 7.60670E-01 6.89309E+01 1.41366E+02
 -1       392 3.24323E+04 7.78729E+03-1.03003E+04-1.45019E+00 2.28528E+03 1.67124E+01
 -1       393 2.83195E+04-1.90340E+02-1.56570E+04-2.75676E+00 7.03494E+01 1.44193E+02
 -1       394 3.26122E+04 7.81410E+03-1.02675E+04 4.38792E+00 2.28187E+03 3.63282E+01
 -1       395 2.79757E+04-2.39657E+02-1.53936E+04-7.16748E+00 6.88050E+01 1.83935E+02
 -1       396 3.31104E+04 7.79022E+03-1.02500E+04 3.30800E+01 2.29962E+03 7.84258E+01
 -1       397 2.72408E+04-1.78974E+02-1.49347E+04-2.09604E+00 1.03553E+02 2.78188E+02
 -1       398 3.43946E+04 7.90363E+03-9.96225E+03 1.49935E+02 2.20028E+03 1.90801E+02
 -1       399 2.75875E+04 3.07816E+02-1.47542E+04-1.72165E+02 5.42929E+01 4.35053E+02
 -1       400 3.87443E+04 8.04252E+03-9.92815E+03 3.49691E+01 2.58151E+03-3.01441E+02
 -1       401 3.18720E+04 2.19769E+03-1.93741E+04 3.58956E+02 2.66426E+02 6.39506E+02
 -1       402 4.87498E+04 1.07467E+04-4.63832E+03-6.81547E+02 9.56528E+02-1.50823E+03
 -1       403 2.39978E+04-1.22756E+03-7.94741E+03 1.90927E+02 3.50316E+01 1.57392E+02
 -1       404 2.71695E+04 2.84107E+03-1.69956E+04-4.75295E+02-2.75968E+02-1.04758E+03
 -1       405 2.79802E+04-1.00940E+03-1.43365E+04-1.53762E+02 3.19012E+01 3.30715E+02
 -1       406 2.57118E+04 6.11867E+03-1.14165E+04-5.96267E+01-1.01864E+02-3.43171E+02
 -1       407 2.86184E+04-3.15387E+02-1.60415E+04-9.31219E+00 4.14707E+01 3.21386E+02
 -1       408 2.76821E+04 5.90194E+03-1.26821E+04 1.05213E+02-1.29409E+02 2.17906E+01
 -1       409 2.82420E+04-2.05738E+02-1.60301E+04-3.19693E+00 4.78913E+01 2.22224E+02
 -1       410 2.95557E+04 5.99619E+03-1.22720E+04 4.03483E+01-1.13599E+02 6.98252E+01
 -1       411 2.79078E+04-2.07592E+02-1.57896E+04-1.90890E+00 5.14163E+01 1.64041E+02
 -1       412 3.03692E+04 5.97856E+03-1.22411E+04 1.12416E+01-1.20256E+02 4.16828E+01
 -1       413 2.77886E+04-2.26903E+02-1.56476E+04-3.81508E-02 5.20228E+01 1.46142E+02
 -1       414 3.06966E+04 5.99847E+03-1.21864E+04 4.24115E-01-1.19430E+02 2.35637E+01
 -1       415 2.78118E+04-2.36687E+02-1.55921E+04 8.39668E-01 5.19566E+01 1.43073E+02
 -1       416 3.08140E+04 6.00365E+03-1.21776E+04-1.03670E+00-1.19648E+02 1.33807E+01
 -1       417 2.78868E+04-2.40926E+02-1.55773E+04 9.63901E-01 5.17745E+01 1.43583E+02
 -1       418 3.08855E+04 6.00514E+03-1.21751E+04-8.36924E-01-1.19678E+02 1.04302E+01
 -1       419 2.79745E+04-2.42231E+02-1.55763E+04 9.07821E-01 5.16452E+01 1.44449E+02
 -1       420 3.09562E+04 6.00481E+03-1.21757E+04-4.29958E-01-1.19665E+02 9.85303E+00
 -1       421 2.80632E+04-2.42384E+02-1.55782E+04 8.72123E-01 5.15635E+01 1.44851E+02
 -1       422 3.10330E+04 6.00430E+03-1.21760E+04-2.46836E-01-1.19654E+02 9.84255E+00
 -1       423 2.81523E+04-2.42251E+02-1.55808E+04 8.92426E-01 5.14953E+01 1.44732E+02
 -1       424 3.11107E+04 6.00373E+03-1.21764E+04-3.21006E-01-1.19633E+02 9.69897E+00
 -1       425 2.82436E+04-2.42534E+02-1.55835E+04 9.84420E-01 5.14102E+01 1.43919E+02
 -1       426 3.11820E+04 6.00305E+03-1.21773E+04-7.30512E-01-1.19634E+02 9.57010E+00
 -1       427 2.83340E+04-2.44666E+02-1.55809E+04 1.11239E+00 5.12228E+01 1.42307E+02
 -1       428 3.12421E+04 6.00301E+03-1.21780E+04-1.31166E+00-1.19557E+02 1.05656E+01
 -1       429 2.83998E+04-2.51364E+02-1.55520E+04 6.27427E-01 5.11344E+01 1.40759E+02
 -1       430 3.13042E+04 6.00474E+03-1.21760E+04-2.10555E+00-1.20076E+02 1.68981E+01
 -1       431 2.83632E+04-2.67222E+02-1.54490E+04-1.51308E+00 5.07661E+01 1.44478E+02
 -1       432 3.14772E+04 6.02806E+03-1.21432E+04 1.98685E+00-1.18082E+02 3.32191E+01
 -1       433 2.80600E+04-3.08498E+02-1.51838E+04-2.46307E+00 5.37462E+01 1.76925E+02
 -1       434 3.19721E+04 6.00572E+03-1.21171E+04 2.31035E+01-1.25170E+02 7.53241E+01
 -1       435 2.74677E+04-3.00603E+02-1.47601E+04 8.13264E+00 5.92655E+01 2.91245E+02
 -1       436 3.36421E+04 6.12844E+03-1.17237E+04 1.05891E+02-1.16589E+02 8.91859E+01
 -1       437 2.68941E+04-5.49459E+00-1.49857E+04-4.85474E+01 6.90838E+01 3.65719E+02
 -1       438 3.63605E+04 5.24196E+03-1.26439E+04 2.08474E+02-1.31569E+02-7.06501E+00
 -1       439 3.07899E+04 3.23716E+03-1.89837E+04-6.69301E+02 9.70771E+01 8.31544E+02
 -1       440 4.65591E+04 1.33290E+04-5.01536E+03-1.60219E+03-9.12542E+01-1.62668E+03
 -1       441 2.41314E+04-1.01812E+03-7.69809E+03 8.51849E-06-3.27871E-06 1.61024E+02
 -1       442 2.70184E+04 2.32484E+03-1.69618E+04 1.43663E-05 4.31779E-06-1.04942E+03
 -1       443 2.80207E+04-1.15190E+03-1.41996E+04 1.89972E-05-1.05482E-06 3.31311E+02
 -1       444 2.56415E+04 5.54400E+03-1.13764E+04 2.11621E-05 1.63008E-06-3.13144E+02
 -1       445 2.86669E+04-3.65263E+02-1.58879E+04 1.74706E-05-3.76480E-06 3.19514E+02
 -1       446 2.76167E+04 5.58862E+03-1.25798E+04 2.10198E-05 6.41190E-07 2.02759E+01
 -1       447 2.82555E+04-2.36033E+02-1.58982E+04 1.63435E-05-3.22222E-06 2.20858E+02
 -1       448 2.94533E+04 5.64915E+03-1.21991E+04 1.99515E-05 3.41294E-07 6.34319E+01
 -1       449 2.79260E+04-2.56871E+02-1.56700E+04 1.54141E-05-3.76427E-06 1.63336E+02
 -1       450 3.02849E+04 5.61787E+03-1.21688E+04 1.84526E-05 1.42538E-08 3.99696E+01
 -1       451 2.78157E+04-2.70792E+02-1.55266E+04 1.40559E-05-4.37117E-06 1.45737E+02
 -1       452 3.06158E+04 5.63955E+03-1.21118E+04 1.67933E-05-2.40137E-07 2.31065E+01
 -1       453 2.78380E+04-2.81282E+02-1.54717E+04 1.29457E-05-3.75103E-06 1.42724E+02
 -1       454 3.07312E+04 5.64297E+03-1.21034E+04 1.50982E-05-4.22906E-07 1.33686E+01
 -1       455 2.79131E+04-2.85223E+02-1.54566E+04 1.22405E-05-3.87789E-06 1.43247E+02
 -1       456 3.08022E+04 5.64448E+03-1.21008E+04 1.34735E-05-5.53482E-07 1.04982E+01
 -1       457 2.80006E+04-2.86617E+02-1.54555E+04 1.11985E-05-3.82171E-06 1.44111E+02
 -1       458 3.08725E+04 5.64408E+03-1.21014E+04 1.19499E-05-6.52499E-07 9.89139E+00
 -1       459 2.80892E+04-2.86787E+02-1.54573E+04 1.01771E-05-3.72843E-06 1.44509E+02
 -1       460 3.09493E+04 5.64364E+03-1.21018E+04 1.05079E-05-7.24592E-07 9.87215E+00
 -1       461 2.81783E+04-2.86681E+02-1.54599E+04 9.20680E-06-3.69552E-06 1.44387E+02
 -1       462 3.10270E+04 5.64314E+03-1.21022E+04 9.11983E-06-7.74156E-07 9.73696E+00
 -1       463 2.82695E+04-2.86974E+02-1.54625E+04 8.23493E-06-3.65435E-06 1.43601E+02
 -1       464 3.10982E+04 5.64255E+03-1.21032E+04 7.76042E-06-8.09236E-07 9.62799E+00
 -1       465 2.83594E+04-2.89285E+02-1.54598E+04 7.15942E-06-3.74458E-06 1.41911E+02
 -1       466 3.11572E+04 5.64208E+03-1.21039E+04 6.40169E-06-8.29746E-07 1.07545E+01
 -1       467 2.84259E+04-2.94960E+02-1.54304E+04 5.99121E-06-3.70963E-06 1.40651E+02
 -1       468 3.12205E+04 5.64543E+03-1.21017E+04 5.02610E-06-8.31089E-07 1.64740E+01
 -1       469 2.83838E+04-3.14148E+02-1.53300E+04 4.83770E-06-3.68527E-06 1.43147E+02
 -1       470 3.13786E+04 5.65709E+03-1.20728E+04 3.64823E-06-8.03774E-07 3.39454E+01
 -1       471 2.81264E+04-3.28365E+02-1.50506E+04 3.56358E-06-3.66702E-06 1.78418E+02
 -1       472 3.19297E+04 5.68313E+03-1.20184E+04 2.32097E-06-7.53605E-07 6.57127E+01
 -1       473 2.74764E+04-4.53245E+02-1.46968E+04 3.05503E-06-3.10351E-06 2.82997E+02
 -1       474 3.35726E+04 5.59981E+03-1.17031E+04 1.19327E-06-6.73522E-07 8.39632E+01
 -1       475 2.67703E+04 1.48202E+02-1.49033E+04-1.71206E-07-5.57210E-06 3.74531E+02
 -1       476 3.59563E+04 4.94219E+03-1.26494E+04 3.60849E-07-5.40584E-07 4.59130E+01
 -1       477 3.03883E+04 3.17585E+03-1.89142E+04-2.02819E-06-2.34124E-07 8.29596E+02
 -1       478 4.60693E+04 1.40125E+04-4.80131E+03-7.08779E-07-3.00170E-07-1.61849E+03
 -1       479 2.39978E+04-1.22756E+03-7.94741E+03-1.90927E+02-3.50316E+01 1.57392E+02
 -1       480 2.71695E+04 2.84107E+03-1.69956E+04 4.75295E+02 2.75968E+02-1.04758E+03
 -1       481 2.79802E+04-1.00940E+03-1.43365E+04 1.53762E+02-3.19012E+01 3.30715E+02
 -1       482 2.57118E+04 6.11867E+03-1.14165E+04 5.96267E+01 1.01864E+02-3.43171E+02
 -1       483 2.86184E+04-3.15387E+02-1.60415E+04 9.31223E+00-4.14708E+01 3.21386E+02
 -1       484 2.76821E+04 5.90194E+03-1.26821E+04-1.05213E+02 1.29409E+02 2.17906E+01
 -1       485 2.82420E+04-2.05738E+02-1.60301E+04 3.19696E+00-4.78913E+01 2.22224E+02
 -1       486 2.95557E+04 5.99619E+03-1.22720E+04-4.03482E+01 1.13599E+02 6.98252E+01
 -1       487 2.79078E+04-2.07592E+02-1.57896E+04 1.90893E+00-5.14163E+01 1.64041E+02
 -1       488 3.03692E+04 5.97856E+03-1.22411E+04-1.12416E+01 1.20256E+02 4.16828E+01
 -1       489 2.77886E+04-2.26903E+02-1.56476E+04 3.81777E-02-5.20228E+01 1.46142E+02
 -1       490 3.06966E+04 5.99847E+03-1.21864E+04-4.24083E-01 1.19430E+02 2.35637E+01
 -1       491 2.78118E+04-2.36687E+02-1.55921E+04-8.39643E-01-5.19566E+01 1.43073E+02
 -1       492 3.08140E+04 6.00365E+03-1.21776E+04 1.03673E+00 1.19648E+02 1.33807E+01
 -1       493 2.78868E+04-2.40926E+02-1.55773E+04-9.63877E-01-5.17745E+01 1.43583E+02
 -1       494 3.08855E+04 6.00514E+03-1.21751E+04 8.36950E-01 1.19678E+02 1.04302E+01
 -1       495 2.79745E+04-2.42231E+02-1.55763E+04-9.07799E-01-5.16453E+01 1.44449E+02
 -1       496 3.09562E+04 6.00481E+03-1.21757E+04 4.29981E-01 1.19665E+02 9.85303E+00
 -1       497 2.80632E+04-2.42384E+02-1.55782E+04-8.72103E-01-5.15635E+01 1.44851E+02
 -1       498 3.10330E+04 6.00430E+03-1.21760E+04 2.46856E-01 1.19654E+02 9.84255E+00
 -1       499 2.81523E+04-2.42251E+02-1.55808E+04-8.92408E-01-5.14953E+01 1.44732E+02
 -1       500 3.11107E+04 6.00373E+03-1.21764E+04 3.21023E-01 1.19633E+02 9.69897E+00
 -1       501 2.82436E+04-2.42534E+02-1.55835E+04-9.84404E-01-5.14102E+01 1.43919E+02
 -1       502 3.11820E+04 6.00305E+03-1.21773E+04 7.30527E-01 1.19634E+02 9.57010E+00
 -1       503 2.83340E+04-2.44666E+02-1.55809E+04-1.11238E+00-5.12228E+01 1.42307E+02
 -1       504 3.12421E+04 6.00301E+03-1.21780E+04 1.31167E+00 1.19557E+02 1.05656E+01
 -1       505 2.83998E+04-2.51364E+02-1.55520E+04-6.27415E-01-5.11344E+01 1.40759E+02
 -1       506 3.13042E+04 6.00474E+03-1.21760E+04 2.10556E+00 1.20076E+02 1.68981E+01
 -1       507 2.83632E+04-2.67222E+02-1.54490E+04 1.51309E+00-5.07661E+01 1.44478E+02
 -1       508 3.14772E+04 6.02806E+03-1.21432E+04-1.98684E+00 1.18082E+02 3.32191E+01
 -1       509 2.80600E+04-3.08498E+02-1.51838E+04 2.46307E+00-5.37462E+01 1.76925E+02
 -1       510 3.19721E+04 6.00572E+03-1.21171E+04-2.31035E+01 1.25170E+02 7.53241E+01
 -1       511 2.74677E+04-3.00603E+02-1.47601E+04-8.13263E+00-5.92655E+01 2.91245E+02
 -1       512 3.36421E+04 6.12844E+03-1.17237E+04-1.05891E+02 1.16589E+02 8.91859E+01
 -1       513 2.68941E+04-5.49460E+00-1.49857E+04 4.85474E+01-6.90838E+01 3.65719E+02
 -1       514 3.63605E+04 5.24196E+03-1.26439E+04-2.08474E+02 1.31569E+02-7.06501E+00
 -1       515 3.07899E+04 3.23716E+03-1.89837E+04 6.69301E+02-9.70771E+01 8.31544E+02
 -1       516 4.65591E+04 1.33290E+04-5.01536E+03 1.60219E+03 9.12542E+01-1.62668E+03
 -1       517 2.35962E+04-1.89563E+03-8.56652E+03-1.05997E+02-4.24678E+01 1.49978E+02
 -1       518 2.86304E+04 5.10910E+03-1.44507E+04 7.50374E+02-2.70694E+03-9.63150E+02
 -1       519 2.78801E+04-5.42562E+02-1.45858E+04 8.49325E+01-3.53818E+01 3.30916E+02
 -1       520 2.66783E+04 8.40529E+03-9.64144E+03 2.21647E+01-2.18971E+03-4.77354E+02
 -1       521 2.85028E+04-3.23826E+02-1.63768E+04 3.60747E+01-4.89992E+01 3.25901E+02
 -1       522 2.88068E+04 7.50336E+03-1.08401E+04-1.04485E+02-2.32027E+03 5.54726E+01
 -1       523 2.82637E+04-1.22593E+02-1.62517E+04 9.53185E+00-6.33742E+01 2.26006E+02
 -1       524 3.07303E+04 7.78808E+03-1.03835E+04-5.58464E+01-2.28491E+03 8.80592E+01
 -1       525 2.78748E+04-1.25451E+02-1.59992E+04 4.36142E+00-6.95649E+01 1.65329E+02
 -1       526 3.14804E+04 7.75090E+03-1.03619E+04-1.57534E+01-2.28580E+03 4.61329E+01
 -1       527 2.77454E+04-1.46062E+02-1.58540E+04 5.74155E-01-7.10480E+01 1.46723E+02
 -1       528 3.18118E+04 7.78016E+03-1.03109E+04-2.05705E+00-2.28477E+03 2.49768E+01
 -1       529 2.77672E+04-1.56789E+02-1.57983E+04-7.53072E-01-7.08955E+01 1.43404E+02
 -1       530 3.19320E+04 7.78533E+03-1.03020E+04 1.01790E+00-2.28490E+03 1.30954E+01
 -1       531 2.78428E+04-1.60888E+02-1.57839E+04-8.66194E-01-7.05839E+01 1.43900E+02
 -1       532 3.20062E+04 7.78763E+03-1.02995E+04 1.06407E+00-2.28487E+03 1.02219E+01
 -1       533 2.79308E+04-1.62100E+02-1.57832E+04-7.64525E-01-7.03369E+01 1.44790E+02
 -1       534 3.20775E+04 7.78722E+03-1.03000E+04 6.44444E-01-2.28482E+03 9.69654E+00
 -1       535 2.80197E+04-1.62140E+02-1.57853E+04-6.99271E-01-7.01836E+01 1.45205E+02
 -1       536 3.21544E+04 7.78657E+03-1.03004E+04 4.26233E-01-2.28475E+03 9.76060E+00
 -1       537 2.81090E+04-1.61916E+02-1.57880E+04-7.32395E-01-7.00622E+01 1.45081E+02
 -1       538 3.22322E+04 7.78581E+03-1.03008E+04 5.34039E-01-2.28466E+03 9.56909E+00
 -1       539 2.82007E+04-1.62114E+02-1.57911E+04-8.98633E-01-6.98702E+01 1.44257E+02
 -1       540 3.23037E+04 7.78490E+03-1.03019E+04 9.99584E-01-2.28464E+03 9.35037E+00
 -1       541 2.82916E+04-1.64130E+02-1.57891E+04-1.05931E+00-6.96450E+01 1.42570E+02
 -1       542 3.23654E+04 7.78529E+03-1.03022E+04 1.73713E+00-2.28444E+03 1.00693E+01
 -1       543 2.83591E+04-1.71086E+02-1.57611E+04-7.60658E-01-6.89309E+01 1.41366E+02
 -1       544 3.24323E+04 7.78729E+03-1.03003E+04 1.45020E+00-2.28528E+03 1.67124E+01
 -1       545 2.83195E+04-1.90340E+02-1.56570E+04 2.75677E+00-7.03494E+01 1.44193E+02
 -1       546 3.26122E+04 7.81410E+03-1.02675E+04-4.38792E+00-2.28187E+03 3.63282E+01
 -1       547 2.79757E+04-2.39657E+02-1.53936E+04 7.16749E+00-6.88051E+01 1.83935E+02
 -1       548 3.31104E+04 7.79022E+03-1.02500E+04-3.30800E+01-2.29962E+03 7.84258E+01
 -1       549 2.72408E+04-1.78974E+02-1.49347E+04 2.09605E+00-1.03553E+02 2.78188E+02
 -1       550 3.43946E+04 7.90363E+03-9.96225E+03-1.49935E+02-2.20028E+03 1.90801E+02
 -1       551 2.75875E+04 3.07816E+02-1.47542E+04 1.72165E+02-5.42929E+01 4.35053E+02
 -1       552 3.87443E+04 8.04252E+03-9.92815E+03-3.49691E+01-2.58151E+03-3.01441E+02
 -1       553 3.18720E+04 2.19769E+03-1.93741E+04-3.58956E+02-2.66426E+02 6.39506E+02
 -1       554 4.87498E+04 1.07467E+04-4.63832E+03 6.81547E+02-9.56528E+02-1.50823E+03
 -1       555 2.36738E+04-1.96059E+03-8.88945E+03 1.17052E+02 1.58026E+02-1.30229E+03
 -1       556 2.78414E+04-5.88305E+02-1.48021E+04-7.89852E+01 1.74629E+02-1.45211E+02
 -1       557 2.83824E+04-3.73186E+02-1.64303E+04-3.48242E+01 1.78503E+02 3.48606E+02
 -1       558 2.81463E+04-1.83040E+02-1.62891E+04-9.00283E+00 1.78829E+02 3.15549E+02
 -1       559 2.77967E+04-1.92652E+02-1.60554E+04-3.81234E+00 1.78254E+02 2.07782E+02
 -1       560 2.76955E+04-2.10850E+02-1.59180E+04-4.29960E-01 1.77594E+02 1.52302E+02
 -1       561 2.77260E+04-2.19867E+02-1.58644E+04 7.42140E-01 1.77258E+02 1.32908E+02
 -1       562 2.78031E+04-2.23409E+02-1.58508E+04 8.39380E-01 1.77142E+02 1.28728E+02
 -1       563 2.78910E+04-2.24336E+02-1.58502E+04 7.48695E-01 1.77076E+02 1.28954E+02
 -1       564 2.79794E+04-2.24260E+02-1.58520E+04 6.90405E-01 1.77036E+02 1.29429E+02
 -1       565 2.80682E+04-2.23978E+02-1.58546E+04 7.24867E-01 1.77006E+02 1.29048E+02
 -1       566 2.81590E+04-2.24075E+02-1.58574E+04 8.68455E-01 1.76972E+02 1.27785E+02
 -1       567 2.82492E+04-2.25916E+02-1.58557E+04 1.03443E+00 1.76944E+02 1.27454E+02
 -1       568 2.83176E+04-2.32458E+02-1.58294E+04 7.33636E-01 1.76673E+02 1.35190E+02
 -1       569 2.82988E+04-2.47074E+02-1.57273E+04-2.40449E+00 1.76691E+02 1.69860E+02
 -1       570 2.79893E+04-3.04726E+02-1.54956E+04-4.13964E+00 1.72373E+02 2.75246E+02
 -1       571 2.73510E+04-2.25806E+02-1.50109E+04-1.49429E+01 1.90591E+02 4.50236E+02
 -1       572 2.77138E+04 1.81349E+02-1.49369E+04-7.54592E+01 1.10315E+02 2.85289E+02
 -1       573 2.83627E+04 1.06005E+03-1.93295E+04-2.84863E+02 4.59329E+02-5.69160E+02
 -1       574 2.41197E+04-1.28985E+03-8.13424E+03 2.00683E+02 1.47973E+02-1.25788E+03
 -1       575 2.79725E+04-1.08090E+03-1.44168E+04-1.48893E+02 1.65317E+02-1.45089E+02
 -1       576 2.85372E+04-3.80432E+02-1.59524E+04-8.74462E+00 1.70047E+02 3.32234E+02
 -1       577 2.81654E+04-2.86531E+02-1.59282E+04-3.15745E+00 1.70982E+02 3.03581E+02
 -1       578 2.78719E+04-2.92991E+02-1.57035E+04-2.08236E+00 1.70865E+02 2.03441E+02
 -1       579 2.77801E+04-3.09898E+02-1.55693E+04-4.06568E-01 1.70338E+02 1.51236E+02
 -1       580 2.78117E+04-3.17866E+02-1.55157E+04 3.86799E-01 1.70088E+02 1.32824E+02
 -1       581 2.78882E+04-3.21460E+02-1.55018E+04 5.13684E-01 1.69981E+02 1.28768E+02
 -1       582 2.79757E+04-3.22425E+02-1.55007E+04 4.64797E-01 1.69927E+02 1.28931E+02
 -1       583 2.80639E+04-3.22412E+02-1.55025E+04 4.35750E-01 1.69894E+02 1.29364E+02
 -1       584 2.81525E+04-3.22181E+02-1.55049E+04 4.54245E-01 1.69870E+02 1.29003E+02
 -1       585 2.82430E+04-3.22323E+02-1.55075E+04 5.37999E-01 1.69843E+02 1.27833E+02
 -1       586 2.83325E+04-3.24360E+02-1.55051E+04 6.52585E-01 1.69780E+02 1.27594E+02
 -1       587 2.83999E+04-3.30204E+02-1.54780E+04 1.33473E-01 1.69716E+02 1.34975E+02
 -1       588 2.83792E+04-3.44487E+02-1.53777E+04-1.42202E+00 1.68854E+02 1.67965E+02
 -1       589 2.81269E+04-3.80031E+02-1.51373E+04-3.75889E+00 1.69531E+02 2.64922E+02
 -1       590 2.75671E+04-4.10783E+02-1.47154E+04 1.56145E+01 1.67993E+02 4.35847E+02
 -1       591 2.72364E+04 9.67363E+00-1.49229E+04-7.27043E+01 1.62418E+02 2.58512E+02
 -1       592 2.71220E+04 1.85346E+03-1.90305E+04-6.05836E+02 2.93533E+02-4.43299E+02
 -1       593 2.42686E+04-1.08356E+03-7.83424E+03 2.13240E-05-2.39999E-06-1.23766E+03
 -1       594 2.80255E+04-1.23491E+03-1.42239E+04 1.76459E-05-2.03868E-06-1.42977E+02
 -1       595 2.85995E+04-4.39327E+02-1.57445E+04 1.73074E-05-2.05746E-06 3.27070E+02
 -1       596 2.81941E+04-3.27508E+02-1.57413E+04 1.61964E-05-1.73194E-06 2.99594E+02
 -1       597 2.79054E+04-3.52420E+02-1.55288E+04 1.52146E-05-2.26572E-06 2.01857E+02
 -1       598 2.78223E+04-3.63866E+02-1.53930E+04 1.40551E-05-2.75553E-06 1.50751E+02
 -1       599 2.78529E+04-3.72551E+02-1.53401E+04 1.30465E-05-2.40198E-06 1.32664E+02
 -1       600 2.79294E+04-3.75875E+02-1.53258E+04 1.22167E-05-2.58017E-06 1.28660E+02
 -1       601 2.80167E+04-3.76914E+02-1.53247E+04 1.12298E-05-2.64974E-06 1.28806E+02
 -1       602 2.81049E+04-3.76918E+02-1.53264E+04 1.02091E-05-2.60875E-06 1.29225E+02
 -1       603 2.81934E+04-3.76697E+02-1.53287E+04 9.22218E-06-2.62367E-06 1.28871E+02
 -1       604 2.82838E+04-3.76905E+02-1.53312E+04 8.22885E-06-2.63246E-06 1.27735E+02
 -1       605 2.83731E+04-3.78870E+02-1.53286E+04 7.15608E-06-2.74848E-06 1.27485E+02
 -1       606 2.84401E+04-3.84778E+02-1.53014E+04 6.01284E-06-2.73416E-06 1.34900E+02
 -1       607 2.84169E+04-3.98426E+02-1.52021E+04 4.83730E-06-2.71683E-06 1.66630E+02
 -1       608 2.82003E+04-4.20982E+02-1.49530E+04 3.70664E-06-2.64824E-06 2.63379E+02
 -1       609 2.76097E+04-5.38517E+02-1.45825E+04 2.62795E-06-2.25207E-06 4.24910E+02
 -1       610 2.70942E+04 6.24837E+01-1.48142E+04 6.81865E-07-3.99597E-06 2.66290E+02
 -1       611 2.68540E+04 1.99237E+03-1.88507E+04-1.19833E-06-4.45794E-07-4.23753E+02
 -1       612 2.41197E+04-1.28985E+03-8.13424E+03-2.00683E+02-1.47973E+02-1.25788E+03
 -1       613 2.79725E+04-1.08090E+03-1.44168E+04 1.48893E+02-1.65317E+02-1.45089E+02
 -1       614 2.85372E+04-3.80432E+02-1.59524E+04 8.74465E+00-1.70047E+02 3.32234E+02
 -1       615 2.81654E+04-2.86531E+02-1.59282E+04 3.15748E+00-1.70982E+02 3.03581E+02
 -1       616 2.78719E+04-2.92991E+02-1.57035E+04 2.08239E+00-1.70865E+02 2.03441E+02
 -1       617 2.77801E+04-3.09898E+02-1.55693E+04 4.06595E-01-1.70338E+02 1.51236E+02
 -1       618 2.78117E+04-3.17866E+02-1.55157E+04-3.86774E-01-1.70088E+02 1.32824E+02
 -1       619 2.78882E+04-3.21460E+02-1.55018E+04-5.13660E-01-1.69981E+02 1.28768E+02
 -1       620 2.79757E+04-3.22425E+02-1.55007E+04-4.64775E-01-1.69927E+02 1.28931E+02
 -1       621 2.80639E+04-3.22412E+02-1.55025E+04-4.35730E-01-1.69894E+02 1.29364E+02
 -1       622 2.81525E+04-3.22181E+02-1.55049E+04-4.54227E-01-1.69870E+02 1.29003E+02
 -1       623 2.82430E+04-3.22323E+02-1.55075E+04-5.37982E-01-1.69843E+02 1.27833E+02
 -1       624 2.83325E+04-3.24360E+02-1.55051E+04-6.52571E-01-1.69780E+02 1.27594E+02
 -1       625 2.83999E+04-3.30204E+02-1.54780E+04-1.33461E-01-1.69716E+02 1.34975E+02
 -1       626 2.83792E+04-3.44487E+02-1.53777E+04 1.42203E+00-1.68854E+02 1.67965E+02
 -1       627 2.81269E+04-3.80031E+02-1.51373E+04 3.75890E+00-1.69531E+02 2.64922E+02
 -1       628 2.75671E+04-4.10783E+02-1.47154E+04-1.56145E+01-1.67993E+02 4.35847E+02
 -1       629 2.72364E+04 9.67363E+00-1.49229E+04 7.27043E+01-1.62418E+02 2.58512E+02
 -1       630 2.71220E+04 1.85346E+03-1.90305E+04 6.05836E+02-2.93533E+02-4.43299E+02
 -1       631 2.36738E+04-1.96059E+03-8.88945E+03-1.17052E+02-1.58026E+02-1.30229E+03
 -1       632 2.78414E+04-5.88305E+02-1.48021E+04 7.89852E+01-1.74629E+02-1.45211E+02
 -1       633 2.83824E+04-3.73186E+02-1.64303E+04 3.48242E+01-1.78503E+02 3.48606E+02
 -1       634 2.81463E+04-1.83040E+02-1.62891E+04 9.00286E+00-1.78829E+02 3.15549E+02
 -1       635 2.77967E+04-1.92652E+02-1.60554E+04 3.81236E+00-1.78254E+02 2.07782E+02
 -1       636 2.76955E+04-2.10850E+02-1.59180E+04 4.29984E-01-1.77594E+02 1.52302E+02
 -1       637 2.77260E+04-2.19867E+02-1.58644E+04-7.42117E-01-1.77258E+02 1.32908E+02
 -1       638 2.78031E+04-2.23409E+02-1.58508E+04-8.39358E-01-1.77142E+02 1.28728E+02
 -1       639 2.78910E+04-2.24336E+02-1.58502E+04-7.48675E-01-1.77076E+02 1.28954E+02
 -1       640 2.79794E+04-2.24260E+02-1.58520E+04-6.90386E-01-1.77036E+02 1.29429E+02
 -1       641 2.80682E+04-2.23978E+02-1.58546E+04-7.24850E-01-1.77006E+02 1.29048E+02
 -1       642 2.81590E+04-2.24075E+02-1.58574E+04-8.68439E-01-1.76972E+02 1.27785E+02
 -1       643 2.82492E+04-2.25916E+02-1.58557E+04-1.03442E+00-1.76944E+02 1.27454E+02
 -1       644 2.83176E+04-2.32458E+02-1.58294E+04-7.33624E-01-1.76673E+02 1.35190E+02
 -1       645 2.82988E+04-2.47074E+02-1.57273E+04 2.40450E+00-1.76691E+02 1.69860E+02
 -1       646 2.79893E+04-3.04726E+02-1.54956E+04 4.13965E+00-1.72373E+02 2.75246E+02
 -1       647 2.73510E+04-2.25806E+02-1.50109E+04 1.49429E+01-1.90591E+02 4.50236E+02
 -1       648 2.77138E+04 1.81349E+02-1.49369E+04 7.54592E+01-1.10315E+02 2.85289E+02
 -1       649 2.83627E+04 1.06005E+03-1.93295E+04 2.84863E+02-4.59329E+02-5.69160E+02
 -1       650 2.36946E+04-2.19455E+03-9.95470E+03 1.58889E+02 3.77528E+02-2.58760E+03
 -1       651 2.77172E+04-6.98671E+02-1.53956E+04-6.98123E+01 4.19403E+02-2.99446E+02
 -1       652 2.80653E+04-4.51043E+02-1.65364E+04-3.30538E+01 4.32897E+02 5.33519E+02
 -1       653 2.78280E+04-3.15841E+02-1.63833E+04-7.23772E+00 4.35672E+02 4.26683E+02
 -1       654 2.75989E+04-3.40099E+02-1.62040E+04-2.56876E+00 4.34406E+02 2.37163E+02
 -1       655 2.75725E+04-3.51872E+02-1.60860E+04-8.61112E-02 4.33027E+02 1.41078E+02
 -1       656 2.76258E+04-3.57313E+02-1.60394E+04 7.56813E-01 4.32564E+02 1.07454E+02
 -1       657 2.77070E+04-3.59677E+02-1.60280E+04 8.08805E-01 4.32423E+02 1.00706E+02
 -1       658 2.77942E+04-3.60165E+02-1.60272E+04 7.18498E-01 4.32382E+02 1.01244E+02
 -1       659 2.78812E+04-3.60067E+02-1.60287E+04 6.69969E-01 4.32375E+02 1.02121E+02
 -1       660 2.79683E+04-3.59854E+02-1.60308E+04 6.97224E-01 4.32374E+02 1.01409E+02
 -1       661 2.80570E+04-3.59803E+02-1.60330E+04 8.18633E-01 4.32370E+02 9.91055E+01
 -1       662 2.81459E+04-3.61164E+02-1.60316E+04 9.93589E-01 4.32277E+02 9.82683E+01
 -1       663 2.82223E+04-3.64833E+02-1.60084E+04 6.51427E-01 4.32200E+02 1.11753E+02
 -1       664 2.82502E+04-3.73452E+02-1.59189E+04-8.78071E-01 4.30424E+02 1.74761E+02
 -1       665 2.80840E+04-4.16125E+02-1.57286E+04-4.87450E+00 4.30067E+02 3.54669E+02
 -1       666 2.76444E+04-4.02576E+02-1.53524E+04-3.89461E-01 4.25955E+02 6.94418E+02
 -1       667 2.72484E+04-2.21276E+02-1.53073E+04-1.25888E+02 4.22218E+02 5.31014E+02
 -1       668 2.75448E+04 1.11009E+03-1.74295E+04-2.47485E+02 6.34308E+02-1.33498E+03
 -1       669 2.42531E+04-1.58011E+03-8.78767E+03 2.36344E+02 3.42862E+02-2.46923E+03
 -1       670 2.79482E+04-1.26107E+03-1.45753E+04-1.39721E+02 3.83805E+02-2.93908E+02
 -1       671 2.83353E+04-5.27304E+02-1.56253E+04-6.05242E+00 3.96247E+02 5.01041E+02
 -1       672 2.79705E+04-4.93643E+02-1.55899E+04-2.09360E+00 4.00470E+02 4.04876E+02
 -1       673 2.77992E+04-5.12182E+02-1.54145E+04-1.41700E+00 3.99749E+02 2.29577E+02
 -1       674 2.77794E+04-5.22667E+02-1.52993E+04-3.23398E-01 3.98735E+02 1.39583E+02
 -1       675 2.78329E+04-5.26976E+02-1.52524E+04 3.55305E-01 3.98347E+02 1.07761E+02
 -1       676 2.79132E+04-5.29373E+02-1.52407E+04 4.71278E-01 3.98204E+02 1.01220E+02
 -1       677 2.80000E+04-5.29855E+02-1.52396E+04 4.33746E-01 3.98157E+02 1.01640E+02
 -1       678 2.80868E+04-5.29795E+02-1.52411E+04 4.13086E-01 3.98143E+02 1.02438E+02
 -1       679 2.81737E+04-5.29591E+02-1.52431E+04 4.26175E-01 3.98137E+02 1.01769E+02
 -1       680 2.82621E+04-5.29625E+02-1.52451E+04 4.97204E-01 3.98113E+02 9.96474E+01
 -1       681 2.83504E+04-5.30897E+02-1.52431E+04 5.64498E-01 3.98056E+02 9.89702E+01
 -1       682 2.84240E+04-5.35104E+02-1.52198E+04 1.66725E-01 3.97784E+02 1.12104E+02
 -1       683 2.84513E+04-5.38921E+02-1.51290E+04-1.43716E+00 3.96887E+02 1.70736E+02
 -1       684 2.83303E+04-5.74089E+02-1.49366E+04-1.54018E+00 3.95393E+02 3.40610E+02
 -1       685 2.79896E+04-6.24030E+02-1.45955E+04 1.53702E+01 3.94869E+02 6.47432E+02
 -1       686 2.69294E+04-5.21487E+02-1.48495E+04-7.11818E+01 3.96482E+02 5.30574E+02
 -1       687 2.68138E+04 1.93332E+03-1.67533E+04-6.08668E+02 5.53482E+02-1.17528E+03
 -1       688 2.44330E+04-1.41528E+03-8.35122E+03 2.37440E-05-1.23830E-06-2.41838E+03
 -1       689 2.80294E+04-1.45949E+03-1.42297E+04 1.98275E-05-2.74756E-06-2.88027E+02
 -1       690 2.84275E+04-6.35991E+02-1.52716E+04 1.72143E-05-1.79997E-06 4.91315E+02
 -1       691 2.80341E+04-5.84726E+02-1.52540E+04 1.64257E-05-1.30100E-06 3.97862E+02
 -1       692 2.78674E+04-6.21740E+02-1.50905E+04 1.53907E-05-1.61617E-06 2.27021E+02
 -1       693 2.78559E+04-6.26320E+02-1.49731E+04 1.43350E-05-1.78783E-06 1.39048E+02
 -1       694 2.79079E+04-6.31462E+02-1.49269E+04 1.33266E-05-1.62780E-06 1.07846E+02
 -1       695 2.79882E+04-6.33550E+02-1.49149E+04 1.23999E-05-1.66972E-06 1.01388E+02
 -1       696 2.80748E+04-6.34099E+02-1.49138E+04 1.14024E-05-1.72130E-06 1.01777E+02
 -1       697 2.81615E+04-6.34039E+02-1.49152E+04 1.03649E-05-1.69195E-06 1.02550E+02
 -1       698 2.82484E+04-6.33852E+02-1.49172E+04 9.33785E-06-1.68729E-06 1.01899E+02
 -1       699 2.83367E+04-6.33890E+02-1.49192E+04 8.29864E-06-1.71048E-06 9.98195E+01
 -1       700 2.84246E+04-6.35254E+02-1.49170E+04 7.20639E-06-1.79645E-06 9.92260E+01
 -1       701 2.84978E+04-6.39064E+02-1.48934E+04 6.05769E-06-1.81666E-06 1.12084E+02
 -1       702 2.85217E+04-6.43394E+02-1.48039E+04 4.88226E-06-1.81406E-06 1.69550E+02
 -1       703 2.84353E+04-6.63231E+02-1.46017E+04 3.75491E-06-1.71086E-06 3.35427E+02
 -1       704 2.80642E+04-8.01561E+02-1.43099E+04 2.52053E-06-1.69712E-06 6.32887E+02
 -1       705 2.68556E+04-5.11970E+02-1.45801E+04 8.47262E-07-2.14502E-06 5.34663E+02
 -1       706 2.65777E+04 1.99375E+03-1.64846E+04-6.45708E-07-1.05836E-06-1.11758E+03
 -1       707 2.42531E+04-1.58011E+03-8.78767E+03-2.36344E+02-3.42862E+02-2.46923E+03
 -1       708 2.79482E+04-1.26107E+03-1.45753E+04 1.39721E+02-3.83805E+02-2.93908E+02
 -1       709 2.83353E+04-5.27304E+02-1.56253E+04 6.05245E+00-3.96247E+02 5.01041E+02
 -1       710 2.79705E+04-4.93643E+02-1.55899E+04 2.09364E+00-4.00470E+02 4.04876E+02
 -1       711 2.77992E+04-5.12182E+02-1.54145E+04 1.41703E+00-3.99749E+02 2.29577E+02
 -1       712 2.77794E+04-5.22667E+02-1.52993E+04 3.23425E-01-3.98735E+02 1.39583E+02
 -1       713 2.78329E+04-5.26976E+02-1.52524E+04-3.55280E-01-3.98347E+02 1.07761E+02
 -1       714 2.79132E+04-5.29373E+02-1.52407E+04-4.71253E-01-3.98204E+02 1.01220E+02
 -1       715 2.80000E+04-5.29855E+02-1.52396E+04-4.33724E-01-3.98157E+02 1.01640E+02
 -1       716 2.80868E+04-5.29795E+02-1.52411E+04-4.13065E-01-3.98143E+02 1.02438E+02
 -1       717 2.81737E+04-5.29591E+02-1.52431E+04-4.26157E-01-3.98137E+02 1.01769E+02
 -1       718 2.82621E+04-5.29625E+02-1.52451E+04-4.97188E-01-3.98113E+02 9.96474E+01
 -1       719 2.83504E+04-5.30897E+02-1.52431E+04-5.64484E-01-3.98056E+02 9.89702E+01
 -1       720 2.84240E+04-5.35104E+02-1.52198E+04-1.66713E-01-3.97784E+02 1.12104E+02
 -1       721 2.84513E+04-5.38921E+02-1.51290E+04 1.43717E+00-3.96887E+02 1.70736E+02
 -1       722 2.83303E+04-5.74089E+02-1.49366E+04 1.54019E+00-3.95393E+02 3.40610E+02
 -1       723 2.79896E+04-6.24030E+02-1.45955E+04-1.53702E+01-3.94869E+02 6.47432E+02
 -1       724 2.69294E+04-5.21487E+02-1.48495E+04 7.11818E+01-3.96482E+02 5.30574E+02
 -1       725 2.68138E+04 1.93332E+03-1.67533E+04 6.08668E+02-5.53482E+02-1.17528E+03
 -1       726 2.36946E+04-2.19455E+03-9.95470E+03-1.58889E+02-3.77528E+02-2.58760E+03
 -1       727 2.77172E+04-6.98671E+02-1.53956E+04 6.98123E+01-4.19403E+02-2.99446E+02
 -1       728 2.80653E+04-4.51043E+02-1.65364E+04 3.30538E+01-4.32897E+02 5.33519E+02
 -1       729 2.78280E+04-3.15841E+02-1.63833E+04 7.23774E+00-4.35672E+02 4.26683E+02
 -1       730 2.75989E+04-3.40099E+02-1.62040E+04 2.56878E+00-4.34406E+02 2.37163E+02
 -1       731 2.75725E+04-3.51872E+02-1.60860E+04 8.61352E-02-4.33027E+02 1.41078E+02
 -1       732 2.76258E+04-3.57313E+02-1.60394E+04-7.56790E-01-4.32564E+02 1.07454E+02
 -1       733 2.77070E+04-3.59677E+02-1.60280E+04-8.08783E-01-4.32423E+02 1.00706E+02
 -1       734 2.77942E+04-3.60165E+02-1.60272E+04-7.18477E-01-4.32382E+02 1.01244E+02
 -1       735 2.78812E+04-3.60067E+02-1.60287E+04-6.69950E-01-4.32375E+02 1.02121E+02
 -1       736 2.79683E+04-3.59854E+02-1.60308E+04-6.97207E-01-4.32374E+02 1.01409E+02
 -1       737 2.80570E+04-3.59803E+02-1.60330E+04-8.18617E-01-4.32370E+02 9.91055E+01
 -1       738 2.81459E+04-3.61164E+02-1.60316E+04-9.93575E-01-4.32277E+02 9.82683E+01
 -1       739 2.82223E+04-3.64833E+02-1.60084E+04-6.51415E-01-4.32200E+02 1.11753E+02
 -1       740 2.82502E+04-3.73452E+02-1.59189E+04 8.78081E-01-4.30424E+02 1.74761E+02
 -1       741 2.80840E+04-4.16125E+02-1.57286E+04 4.87451E+00-4.30067E+02 3.54669E+02
 -1       742 2.76444E+04-4.02576E+02-1.53524E+04 3.89468E-01-4.25955E+02 6.94418E+02
 -1       743 2.72484E+04-2.21276E+02-1.53073E+04 1.25888E+02-4.22218E+02 5.31014E+02
 -1       744 2.75448E+04 1.11009E+03-1.74295E+04 2.47485E+02-6.34308E+02-1.33498E+03
 -1       745 2.36912E+04-2.57118E+03-1.18210E+04 2.44008E+02 7.26714E+02-3.65421E+03
 -1       746 2.75109E+04-7.59588E+02-1.61233E+04-5.60102E+01 7.78908E+02-2.35513E+02
 -1       747 2.75326E+04-4.99624E+02-1.65634E+04-3.00075E+01 8.11172E+02 6.54910E+02
 -1       748 2.73641E+04-4.71963E+02-1.64813E+04-3.23728E+00 8.17759E+02 4.56092E+02
 -1       749 2.73560E+04-5.02341E+02-1.63655E+04-6.44880E-01 8.13882E+02 2.35705E+02
 -1       750 2.74339E+04-5.02782E+02-1.62692E+04 2.65290E-01 8.11798E+02 1.19719E+02
 -1       751 2.75167E+04-5.04538E+02-1.62348E+04 7.98163E-01 8.11122E+02 8.09800E+01
 -1       752 2.76034E+04-5.04808E+02-1.62254E+04 7.53103E-01 8.10906E+02 7.34564E+01
 -1       753 2.76889E+04-5.04844E+02-1.62246E+04 6.83269E-01 8.10859E+02 7.43410E+01
 -1       754 2.77737E+04-5.04769E+02-1.62255E+04 6.47399E-01 8.10860E+02 7.54458E+01
 -1       755 2.78583E+04-5.04665E+02-1.62269E+04 6.64634E-01 8.10871E+02 7.45838E+01
 -1       756 2.79435E+04-5.04634E+02-1.62284E+04 7.49258E-01 8.10866E+02 7.17087E+01
 -1       757 2.80302E+04-5.04709E+02-1.62267E+04 8.83699E-01 8.10787E+02 7.04001E+01
 -1       758 2.81169E+04-5.05807E+02-1.62091E+04 8.00223E-01 8.10405E+02 8.55669E+01
 -1       759 2.82007E+04-5.04755E+02-1.61388E+04-4.76961E-01 8.09131E+02 1.61408E+02
 -1       760 2.82757E+04-5.17860E+02-1.59775E+04 1.14661E+00 8.03790E+02 3.68946E+02
 -1       761 2.80512E+04-6.21348E+02-1.58672E+04-3.44180E+00 8.00398E+02 7.91347E+02
 -1       762 2.74012E+04-5.20068E+02-1.54352E+04-1.16439E+02 8.17347E+02 8.00103E+02
 -1       763 2.80449E+04 1.29139E+03-1.57371E+04-1.74848E+02 9.58068E+02-1.09061E+03
 -1       764 2.44383E+04-2.06495E+03-9.95696E+03 3.00292E+02 5.89921E+02-3.40446E+03
 -1       765 2.79032E+04-1.41648E+03-1.45840E+04-1.26092E+02 6.44841E+02-2.23312E+02
 -1       766 2.79870E+04-6.85651E+02-1.49554E+04-1.77649E+00 6.73125E+02 6.07054E+02
 -1       767 2.77136E+04-7.60808E+02-1.49770E+04 6.35157E-01 6.81133E+02 4.27253E+02
 -1       768 2.77613E+04-7.83585E+02-1.48623E+04-6.01199E-01 6.78721E+02 2.25657E+02
 -1       769 2.78426E+04-7.82487E+02-1.47671E+04-2.47548E-01 6.77178E+02 1.17969E+02
 -1       770 2.79239E+04-7.83371E+02-1.47325E+04 3.05227E-01 6.76604E+02 8.15276E+01
 -1       771 2.80092E+04-7.83587E+02-1.47228E+04 4.03451E-01 6.76393E+02 7.42306E+01
 -1       772 2.80942E+04-7.83660E+02-1.47218E+04 3.91543E-01 6.76336E+02 7.49569E+01
 -1       773 2.81788E+04-7.83595E+02-1.47228E+04 3.83140E-01 6.76328E+02 7.59502E+01
 -1       774 2.82633E+04-7.83508E+02-1.47241E+04 3.92857E-01 6.76331E+02 7.51509E+01
 -1       775 2.83482E+04-7.83499E+02-1.47256E+04 4.20781E-01 6.76313E+02 7.25190E+01
 -1       776 2.84341E+04-7.83705E+02-1.47235E+04 4.78647E-01 6.76217E+02 7.14701E+01
 -1       777 2.85171E+04-7.84800E+02-1.47059E+04 6.83124E-02 6.75808E+02 8.61630E+01
 -1       778 2.85974E+04-7.80623E+02-1.46340E+04-1.36717E+00 6.74941E+02 1.56811E+02
 -1       779 2.87070E+04-7.83947E+02-1.44699E+04 1.38336E+00 6.70149E+02 3.49270E+02
 -1       780 2.86023E+04-9.40640E+02-1.43721E+04 1.47648E+01 6.70895E+02 7.27122E+02
 -1       781 2.73628E+04-9.49951E+02-1.42531E+04-5.87196E+01 6.86292E+02 7.92429E+02
 -1       782 2.74829E+04 1.97622E+03-1.44875E+04-5.34186E+02 8.08818E+02-8.28071E+02
 -1       783 2.46220E+04-2.00126E+03-9.41487E+03 2.45961E-05 5.25205E-07-3.31391E+03
 -1       784 2.79777E+04-1.71106E+03-1.41218E+04 2.08984E-05-2.05291E-06-2.12011E+02
 -1       785 2.80851E+04-8.90777E+02-1.44816E+04 1.77563E-05-1.57212E-06 5.93106E+02
 -1       786 2.77883E+04-9.52760E+02-1.45207E+04 1.68581E-05-1.22954E-06 4.18211E+02
 -1       787 2.78417E+04-9.91547E+02-1.44151E+04 1.58888E-05-1.37167E-06 2.22205E+02
 -1       788 2.79298E+04-9.85054E+02-1.43177E+04 1.48383E-05-1.47817E-06 1.17340E+02
 -1       789 2.80092E+04-9.86630E+02-1.42836E+04 1.37918E-05-1.40683E-06 8.16680E+01
 -1       790 2.80943E+04-9.86567E+02-1.42737E+04 1.27674E-05-1.39351E-06 7.44727E+01
 -1       791 2.81790E+04-9.86691E+02-1.42728E+04 1.17126E-05-1.40604E-06 7.51561E+01
 -1       792 2.82636E+04-9.86619E+02-1.42737E+04 1.06278E-05-1.38533E-06 7.61164E+01
 -1       793 2.83481E+04-9.86537E+02-1.42751E+04 9.54072E-06-1.37044E-06 7.53384E+01
 -1       794 2.84330E+04-9.86516E+02-1.42764E+04 8.44162E-06-1.38774E-06 7.27729E+01
 -1       795 2.85183E+04-9.86874E+02-1.42744E+04 7.30362E-06-1.43357E-06 7.18129E+01
 -1       796 2.86007E+04-9.87344E+02-1.42563E+04 6.12214E-06-1.46139E-06 8.62419E+01
 -1       797 2.86764E+04-9.84403E+02-1.41859E+04 4.92690E-06-1.44891E-06 1.55295E+02
 -1       798 2.88175E+04-9.71433E+02-1.40120E+04 3.76841E-06-1.37900E-06 3.42283E+02
 -1       799 2.86935E+04-1.20985E+03-1.39524E+04 2.53473E-06-1.42313E-06 7.06680E+02
 -1       800 2.73125E+04-1.06461E+03-1.38733E+04 1.02321E-06-1.35545E-06 8.02625E+02
 -1       801 2.72971E+04 1.98317E+03-1.40919E+04-3.12527E-07-8.47049E-07-7.41913E+02
 -1       802 2.44383E+04-2.06495E+03-9.95696E+03-3.00292E+02-5.89921E+02-3.40446E+03
 -1       803 2.79032E+04-1.41648E+03-1.45840E+04 1.26092E+02-6.44841E+02-2.23312E+02
 -1       804 2.79870E+04-6.85651E+02-1.49554E+04 1.77652E+00-6.73125E+02 6.07054E+02
 -1       805 2.77136E+04-7.60808E+02-1.49770E+04-6.35126E-01-6.81133E+02 4.27253E+02
 -1       806 2.77613E+04-7.83585E+02-1.48623E+04 6.01229E-01-6.78721E+02 2.25657E+02
 -1       807 2.78426E+04-7.82487E+02-1.47671E+04 2.47576E-01-6.77178E+02 1.17969E+02
 -1       808 2.79239E+04-7.83371E+02-1.47325E+04-3.05200E-01-6.76604E+02 8.15276E+01
 -1       809 2.80092E+04-7.83587E+02-1.47228E+04-4.03427E-01-6.76393E+02 7.42306E+01
 -1       810 2.80942E+04-7.83660E+02-1.47218E+04-3.91520E-01-6.76336E+02 7.49569E+01
 -1       811 2.81788E+04-7.83595E+02-1.47228E+04-3.83119E-01-6.76328E+02 7.59502E+01
 -1       812 2.82633E+04-7.83508E+02-1.47241E+04-3.92839E-01-6.76331E+02 7.51509E+01
 -1       813 2.83482E+04-7.83499E+02-1.47256E+04-4.20764E-01-6.76313E+02 7.25190E+01
 -1       814 2.84341E+04-7.83705E+02-1.47235E+04-4.78633E-01-6.76217E+02 7.14701E+01
 -1       815 2.85171E+04-7.84800E+02-1.47059E+04-6.83002E-02-6.75808E+02 8.61630E+01
 -1       816 2.85974E+04-7.80623E+02-1.46340E+04 1.36718E+00-6.74941E+02 1.56811E+02
 -1       817 2.87070E+04-7.83947E+02-1.44699E+04-1.38335E+00-6.70149E+02 3.49270E+02
 -1       818 2.86023E+04-9.40640E+02-1.43721E+04-1.47648E+01-6.70895E+02 7.27122E+02
 -1       819 2.73628E+04-9.49951E+02-1.42531E+04 5.87196E+01-6.86292E+02 7.92429E+02
 -1       820 2.74829E+04 1.97622E+03-1.44875E+04 5.34186E+02-8.08818E+02-8.28071E+02
 -1       821 2.36912E+04-2.57118E+03-1.18210E+04-2.44008E+02-7.26714E+02-3.65421E+03
 -1       822 2.75109E+04-7.59588E+02-1.61233E+04 5.60102E+01-7.78908E+02-2.35513E+02
 -1       823 2.75326E+04-4.99624E+02-1.65634E+04 3.00076E+01-8.11172E+02 6.54910E+02
 -1       824 2.73641E+04-4.71963E+02-1.64813E+04 3.23731E+00-8.17759E+02 4.56092E+02
 -1       825 2.73560E+04-5.02341E+02-1.63655E+04 6.44905E-01-8.13882E+02 2.35705E+02
 -1       826 2.74339E+04-5.02782E+02-1.62692E+04-2.65266E-01-8.11798E+02 1.19719E+02
 -1       827 2.75167E+04-5.04538E+02-1.62348E+04-7.98139E-01-8.11122E+02 8.09800E+01
 -1       828 2.76034E+04-5.04808E+02-1.62254E+04-7.53081E-01-8.10906E+02 7.34564E+01
 -1       829 2.76889E+04-5.04844E+02-1.62246E+04-6.83248E-01-8.10859E+02 7.43410E+01
 -1       830 2.77737E+04-5.04769E+02-1.62255E+04-6.47380E-01-8.10860E+02 7.54458E+01
 -1       831 2.78583E+04-5.04665E+02-1.62269E+04-6.64616E-01-8.10871E+02 7.45838E+01
 -1       832 2.79435E+04-5.04634E+02-1.62284E+04-7.49242E-01-8.10866E+02 7.17087E+01
 -1       833 2.80302E+04-5.04709E+02-1.62267E+04-8.83685E-01-8.10787E+02 7.04001E+01
 -1       834 2.81169E+04-5.05807E+02-1.62091E+04-8.00210E-01-8.10405E+02 8.55669E+01
 -1       835 2.82007E+04-5.04755E+02-1.61388E+04 4.76971E-01-8.09131E+02 1.61408E+02
 -1       836 2.82757E+04-5.17860E+02-1.59775E+04-1.14660E+00-8.03790E+02 3.68946E+02
 -1       837 2.80512E+04-6.21348E+02-1.58672E+04 3.44180E+00-8.00398E+02 7.91347E+02
 -1       838 2.74012E+04-5.20068E+02-1.54352E+04 1.16439E+02-8.17347E+02 8.00103E+02
 -1       839 2.80449E+04 1.29139E+03-1.57371E+04 1.74848E+02-9.58068E+02-1.09061E+03
 -1       840 2.38735E+04-2.91103E+03-1.42166E+04 3.75936E+02 1.12953E+03-4.03534E+03
 -1       841 2.74075E+04-3.39147E+02-1.60191E+04-5.67830E+01 1.12048E+03 6.51895E+01
 -1       842 2.69273E+04-2.62563E+02-1.59569E+04-2.28092E+01 1.20182E+03 5.66985E+02
 -1       843 2.70759E+04-3.72081E+02-1.60850E+04 5.66030E+00 1.20172E+03 3.99389E+02
 -1       844 2.73890E+04-3.67910E+02-1.59687E+04 8.41670E-01 1.19681E+03 1.90665E+02
 -1       845 2.75629E+04-3.63888E+02-1.59101E+04 7.31059E-01 1.19397E+03 8.80334E+01
 -1       846 2.76787E+04-3.60006E+02-1.58845E+04 6.30808E-01 1.19321E+03 5.37844E+01
 -1       847 2.77677E+04-3.58227E+02-1.58774E+04 5.53342E-01 1.19288E+03 4.74329E+01
 -1       848 2.78502E+04-3.57937E+02-1.58765E+04 5.20133E-01 1.19283E+03 4.84069E+01
 -1       849 2.79322E+04-3.57943E+02-1.58769E+04 5.12034E-01 1.19283E+03 4.94428E+01
 -1       850 2.80139E+04-3.58047E+02-1.58776E+04 5.10827E-01 1.19283E+03 4.86644E+01
 -1       851 2.80948E+04-3.58055E+02-1.58783E+04 5.43716E-01 1.19285E+03 4.59858E+01
 -1       852 2.81763E+04-3.57354E+02-1.58767E+04 5.71389E-01 1.19269E+03 4.45220E+01
 -1       853 2.82717E+04-3.53863E+02-1.58624E+04 7.85765E-01 1.19229E+03 5.78590E+01
 -1       854 2.84086E+04-3.47799E+02-1.58184E+04-2.77809E-02 1.19080E+03 1.23637E+02
 -1       855 2.87064E+04-3.27427E+02-1.56829E+04 6.27054E+00 1.18447E+03 3.17529E+02
 -1       856 2.90069E+04-4.55045E+02-1.57098E+04 1.03695E+01 1.16851E+03 6.60123E+02
 -1       857 2.86292E+04-5.50267E+02-1.54197E+04-1.29410E+02 1.24435E+03 9.43572E+02
 -1       858 3.00405E+04 1.70899E+03-1.34959E+04 4.53387E+01 1.14269E+03-5.09873E+02
 -1       859 2.46572E+04-2.65621E+03-1.19876E+04 3.58716E+02 6.32129E+02-3.66182E+03
 -1       860 2.77876E+04-1.16523E+03-1.41238E+04-1.20413E+02 7.03204E+02 8.09236E+01
 -1       861 2.74389E+04-6.26506E+02-1.39822E+04 8.84548E+00 7.47228E+02 5.12275E+02
 -1       862 2.75049E+04-8.41257E+02-1.42008E+04 5.96289E+00 7.58103E+02 3.68436E+02
 -1       863 2.78717E+04-8.24816E+02-1.40791E+04 1.65064E-01 7.53603E+02 1.79525E+02
 -1       864 2.80445E+04-8.21952E+02-1.40210E+04-1.79478E-01 7.51961E+02 8.65222E+01
 -1       865 2.81571E+04-8.16488E+02-1.39948E+04 8.81885E-02 7.51222E+02 5.43087E+01
 -1       866 2.82439E+04-8.15082E+02-1.39878E+04 1.84049E-01 7.50964E+02 4.82577E+01
 -1       867 2.83259E+04-8.14719E+02-1.39869E+04 2.27559E-01 7.50895E+02 4.90119E+01
 -1       868 2.84077E+04-8.14752E+02-1.39873E+04 2.37651E-01 7.50894E+02 4.99355E+01
 -1       869 2.84895E+04-8.14854E+02-1.39881E+04 2.36917E-01 7.50903E+02 4.92150E+01
 -1       870 2.85702E+04-8.14867E+02-1.39888E+04 2.22809E-01 7.50896E+02 4.68301E+01
 -1       871 2.86507E+04-8.14285E+02-1.39870E+04 1.55500E-01 7.50756E+02 4.56173E+01
 -1       872 2.87407E+04-8.11207E+02-1.39736E+04-4.99154E-02 7.50258E+02 5.86394E+01
 -1       873 2.88717E+04-8.01479E+02-1.39257E+04-1.58989E+00 7.49632E+02 1.19281E+02
 -1       874 2.91895E+04-7.76683E+02-1.37919E+04 4.45212E+00 7.42098E+02 2.95400E+02
 -1       875 2.96439E+04-9.29478E+02-1.37915E+04 2.28513E+01 7.43092E+02 5.88009E+02
 -1       876 2.86861E+04-1.25369E+03-1.38808E+04-4.31453E+01 7.75810E+02 9.37248E+02
 -1       877 2.95835E+04 2.54005E+03-1.18461E+04-4.33098E+02 8.00852E+02-1.41843E+02
 -1       878 2.46635E+04-2.73134E+03-1.18766E+04 2.34681E-05 1.60999E-06-3.55378E+03
 -1       879 2.77332E+04-1.50950E+03-1.39674E+04 2.09925E-05-1.00399E-06 9.40091E+01
 -1       880 2.74001E+04-9.12531E+02-1.38437E+04 1.85558E-05-1.27849E-06 5.00542E+02
 -1       881 2.74567E+04-1.10553E+03-1.40666E+04 1.76509E-05-1.07048E-06 3.57951E+02
 -1       882 2.78273E+04-1.10740E+03-1.39543E+04 1.66460E-05-1.09745E-06 1.76068E+02
 -1       883 2.80062E+04-1.09900E+03-1.38931E+04 1.55383E-05-1.14454E-06 8.57844E+01
 -1       884 2.81163E+04-1.09431E+03-1.38675E+04 1.43855E-05-1.09730E-06 5.44035E+01
 -1       885 2.82027E+04-1.09266E+03-1.38604E+04 1.32345E-05-1.05437E-06 4.84360E+01
 -1       886 2.82844E+04-1.09234E+03-1.38594E+04 1.20761E-05-1.03335E-06 4.91517E+01
 -1       887 2.83662E+04-1.09235E+03-1.38598E+04 1.09073E-05-1.00747E-06 5.00382E+01
 -1       888 2.84480E+04-1.09246E+03-1.38606E+04 9.73795E-06-9.86757E-07 4.93409E+01
 -1       889 2.85286E+04-1.09242E+03-1.38613E+04 8.55988E-06-9.91503E-07 4.70249E+01
 -1       890 2.86085E+04-1.09206E+03-1.38596E+04 7.35397E-06-1.01644E-06 4.59168E+01
 -1       891 2.86977E+04-1.08819E+03-1.38457E+04 6.11695E-06-1.03730E-06 5.85938E+01
 -1       892 2.88224E+04-1.08050E+03-1.37994E+04 4.87602E-06-1.02682E-06 1.18161E+02
 -1       893 2.91694E+04-1.03811E+03-1.36544E+04 3.67196E-06-9.92901E-07 2.86268E+02
 -1       894 2.96179E+04-1.27222E+03-1.36836E+04 2.48344E-06-1.00892E-06 5.68649E+02
 -1       895 2.84986E+04-1.47425E+03-1.38476E+04 1.13007E-06-8.42592E-07 9.54933E+02
 -1       896 2.92907E+04 2.60182E+03-1.16495E+04-1.49056E-07-5.54193E-07-4.00087E+01
 -1       897 2.46572E+04-2.65621E+03-1.19876E+04-3.58716E+02-6.32129E+02-3.66182E+03
 -1       898 2.77876E+04-1.16523E+03-1.41238E+04 1.20413E+02-7.03204E+02 8.09236E+01
 -1       899 2.74389E+04-6.26506E+02-1.39822E+04-8.84545E+00-7.47228E+02 5.12275E+02
 -1       900 2.75049E+04-8.41257E+02-1.42008E+04-5.96286E+00-7.58103E+02 3.68436E+02
 -1       901 2.78717E+04-8.24816E+02-1.40791E+04-1.65033E-01-7.53603E+02 1.79525E+02
 -1       902 2.80445E+04-8.21952E+02-1.40210E+04 1.79508E-01-7.51961E+02 8.65222E+01
 -1       903 2.81571E+04-8.16488E+02-1.39948E+04-8.81610E-02-7.51222E+02 5.43087E+01
 -1       904 2.82439E+04-8.15082E+02-1.39878E+04-1.84024E-01-7.50964E+02 4.82577E+01
 -1       905 2.83259E+04-8.14719E+02-1.39869E+04-2.27535E-01-7.50895E+02 4.90119E+01
 -1       906 2.84077E+04-8.14752E+02-1.39873E+04-2.37629E-01-7.50894E+02 4.99355E+01
 -1       907 2.84895E+04-8.14854E+02-1.39881E+04-2.36898E-01-7.50903E+02 4.92150E+01
 -1       908 2.85702E+04-8.14867E+02-1.39888E+04-2.22792E-01-7.50896E+02 4.68301E+01
 -1       909 2.86507E+04-8.14285E+02-1.39870E+04-1.55485E-01-7.50756E+02 4.56173E+01
 -1       910 2.87407E+04-8.11207E+02-1.39736E+04 4.99276E-02-7.50258E+02 5.86394E+01
 -1       911 2.88717E+04-8.01479E+02-1.39257E+04 1.58990E+00-7.49632E+02 1.19281E+02
 -1       912 2.91895E+04-7.76683E+02-1.37919E+04-4.45211E+00-7.42098E+02 2.95400E+02
 -1       913 2.96439E+04-9.29478E+02-1.37915E+04-2.28513E+01-7.43092E+02 5.88009E+02
 -1       914 2.86861E+04-1.25369E+03-1.38808E+04 4.31453E+01-7.75810E+02 9.37248E+02
 -1       915 2.95835E+04 2.54005E+03-1.18461E+04 4.33098E+02-8.00852E+02-1.41843E+02
 -1       916 2.38735E+04-2.91103E+03-1.42166E+04-3.75936E+02-1.12953E+03-4.03534E+03
 -1       917 2.74075E+04-3.39147E+02-1.60191E+04 5.67830E+01-1.12048E+03 6.51895E+01
 -1       918 2.69273E+04-2.62563E+02-1.59569E+04 2.28092E+01-1.20182E+03 5.66985E+02
 -1       919 2.70759E+04-3.72081E+02-1.60850E+04-5.66027E+00-1.20172E+03 3.99389E+02
 -1       920 2.73890E+04-3.67910E+02-1.59687E+04-8.41644E-01-1.19681E+03 1.90665E+02
 -1       921 2.75629E+04-3.63888E+02-1.59101E+04-7.31034E-01-1.19397E+03 8.80334E+01
 -1       922 2.76787E+04-3.60006E+02-1.58845E+04-6.30784E-01-1.19321E+03 5.37844E+01
 -1       923 2.77677E+04-3.58227E+02-1.58774E+04-5.53319E-01-1.19288E+03 4.74329E+01
 -1       924 2.78502E+04-3.57937E+02-1.58765E+04-5.20112E-01-1.19283E+03 4.84069E+01
 -1       925 2.79322E+04-3.57943E+02-1.58769E+04-5.12014E-01-1.19283E+03 4.94428E+01
 -1       926 2.80139E+04-3.58047E+02-1.58776E+04-5.10809E-01-1.19283E+03 4.86644E+01
 -1       927 2.80948E+04-3.58055E+02-1.58783E+04-5.43700E-01-1.19285E+03 4.59858E+01
 -1       928 2.81763E+04-3.57354E+02-1.58767E+04-5.71375E-01-1.19269E+03 4.45220E+01
 -1       929 2.82717E+04-3.53863E+02-1.58624E+04-7.85753E-01-1.19229E+03 5.78590E+01
 -1       930 2.84086E+04-3.47799E+02-1.58184E+04 2.77911E-02-1.19080E+03 1.23637E+02
 -1       931 2.87064E+04-3.27427E+02-1.56829E+04-6.27053E+00-1.18447E+03 3.17529E+02
 -1       932 2.90069E+04-4.55045E+02-1.57098E+04-1.03695E+01-1.16851E+03 6.60123E+02
 -1       933 2.86292E+04-5.50267E+02-1.54197E+04 1.29410E+02-1.24435E+03 9.43572E+02
 -1       934 3.00405E+04 1.70899E+03-1.34959E+04-4.53387E+01-1.14269E+03-5.09873E+02
 -1       935 2.44814E+04-2.96471E+03-1.67994E+04 4.47210E+02 9.64549E+02-2.09643E+03
 -1       936 2.73859E+04 1.23721E+03-1.34747E+04-1.40837E+02 9.31848E+02-2.21837E+02
 -1       937 2.63582E+04 4.31825E+02-1.45475E+04 2.66909E+01 1.01309E+03 3.08338E+02
 -1       938 2.75103E+04 4.54513E+02-1.44610E+04 1.46138E+01 1.01085E+03 2.21191E+02
 -1       939 2.80471E+04 4.67379E+02-1.43968E+04 5.32169E+00 1.00556E+03 1.07158E+02
 -1       940 2.83216E+04 4.76644E+02-1.43566E+04 1.01555E+00 1.00400E+03 4.85961E+01
 -1       941 2.84547E+04 4.86778E+02-1.43373E+04 2.38061E-01 1.00319E+03 2.74821E+01
 -1       942 2.85402E+04 4.89201E+02-1.43322E+04 7.17013E-02 1.00296E+03 2.31741E+01
 -1       943 2.86182E+04 4.89743E+02-1.43312E+04 1.53559E-01 1.00290E+03 2.34465E+01
 -1       944 2.86973E+04 4.89500E+02-1.43313E+04 1.94289E-01 1.00290E+03 2.39630E+01
 -1       945 2.87765E+04 4.89099E+02-1.43316E+04 1.73335E-01 1.00290E+03 2.35145E+01
 -1       946 2.88526E+04 4.88994E+02-1.43319E+04 5.71682E-02 1.00290E+03 2.21231E+01
 -1       947 2.89258E+04 4.89632E+02-1.43306E+04 1.56293E-02 1.00280E+03 2.17741E+01
 -1       948 2.90164E+04 4.96613E+02-1.43196E+04-4.05564E-02 1.00238E+03 3.08404E+01
 -1       949 2.92020E+04 5.11537E+02-1.42856E+04 2.76047E+00 1.00102E+03 7.11583E+01
 -1       950 2.96065E+04 5.21458E+02-1.42239E+04 6.85221E+00 9.99963E+02 1.78177E+02
 -1       951 3.06635E+04 5.65208E+02-1.40629E+04 7.03091E+01 9.62043E+02 3.97555E+02
 -1       952 3.16922E+04 1.77073E+02-1.44301E+04-1.89357E+02 1.13364E+03 3.29830E+02
 -1       953 3.50781E+04 3.09933E+03-1.07281E+04 2.23133E+02 6.01234E+02-3.83168E+02
 -1       954 2.45130E+04-3.07951E+03-1.64864E+04 1.88047E+02 2.60704E+02-1.89537E+03
 -1       955 2.73220E+04 5.53367E+02-1.30225E+04-1.17954E+02 3.53666E+02-1.56279E+02
 -1       956 2.63468E+04 5.31946E+01-1.41421E+04 4.16176E+01 3.82676E+02 2.70098E+02
 -1       957 2.74632E+04 3.43797E+01-1.40870E+04 1.66221E+01 3.94880E+02 1.96110E+02
 -1       958 2.80389E+04 2.81283E+01-1.40290E+04 2.79875E+00 3.90198E+02 9.95532E+01
 -1       959 2.83140E+04 4.40759E+01-1.39824E+04 2.06726E-01 3.89223E+02 4.70164E+01
 -1       960 2.84409E+04 5.23090E+01-1.39643E+04-3.98019E-01 3.88684E+02 2.77800E+01
 -1       961 2.85245E+04 5.51458E+01-1.39588E+04-1.93830E-01 3.88444E+02 2.36154E+01
 -1       962 2.86018E+04 5.55806E+01-1.39579E+04-6.85637E-02 3.88403E+02 2.37568E+01
 -1       963 2.86808E+04 5.54001E+01-1.39580E+04 1.26812E-03 3.88405E+02 2.41873E+01
 -1       964 2.87601E+04 5.50756E+01-1.39584E+04-2.96783E-02 3.88418E+02 2.37866E+01
 -1       965 2.88359E+04 5.48823E+01-1.39587E+04-1.44226E-01 3.88419E+02 2.25906E+01
 -1       966 2.89082E+04 5.59525E+01-1.39571E+04-4.14549E-01 3.88329E+02 2.24523E+01
 -1       967 2.89928E+04 6.09860E+01-1.39473E+04-6.67365E-01 3.87716E+02 3.12529E+01
 -1       968 2.91693E+04 8.18615E+01-1.39098E+04-1.72702E-01 3.88280E+02 6.72189E+01
 -1       969 2.95846E+04 8.53456E+01-1.38457E+04 7.12142E+00 3.79483E+02 1.65371E+02
 -1       970 3.08445E+04 1.29867E+02-1.36321E+04 5.75714E+01 3.86490E+02 3.15856E+02
 -1       971 3.11181E+04-7.20801E+02-1.45241E+04 1.14649E+00 4.10976E+02 4.53009E+02
 -1       972 3.38977E+04 4.66589E+03-1.01196E+04-5.96709E+02 3.53740E+02-1.22140E+02
 -1       973 2.50075E+04-1.92628E+03-1.60128E+04 2.05915E-05 1.51442E-06-1.86500E+03
 -1       974 2.76600E+04 1.21409E+03-1.26316E+04 2.04766E-05-1.69399E-07-1.29066E+02
 -1       975 2.67283E+04 8.76896E+02-1.37285E+04 1.95733E-05-8.43413E-07 2.64870E+02
 -1       976 2.78221E+04 8.48101E+02-1.36872E+04 1.86172E-05-6.65527E-07 1.87897E+02
 -1       977 2.84083E+04 8.27381E+02-1.36342E+04 1.74538E-05-6.63160E-07 9.71227E+01
 -1       978 2.86874E+04 8.46678E+02-1.35848E+04 1.61549E-05-6.71100E-07 4.63816E+01
 -1       979 2.88118E+04 8.54138E+02-1.35671E+04 1.47999E-05-6.40277E-07 2.77889E+01
 -1       980 2.88949E+04 8.57018E+02-1.35615E+04 1.34597E-05-6.02242E-07 2.37093E+01
 -1       981 2.89719E+04 8.57435E+02-1.35607E+04 1.21514E-05-5.76393E-07 2.38240E+01
 -1       982 2.90509E+04 8.57231E+02-1.35608E+04 1.08678E-05-5.54603E-07 2.42329E+01
 -1       983 2.91301E+04 8.56889E+02-1.35612E+04 9.60231E-06-5.38075E-07 2.38505E+01
 -1       984 2.92059E+04 8.56715E+02-1.35615E+04 8.34095E-06-5.36312E-07 2.26826E+01
 -1       985 2.92775E+04 8.57572E+02-1.35599E+04 7.06417E-06-5.46184E-07 2.26871E+01
 -1       986 2.93617E+04 8.63453E+02-1.35501E+04 5.76563E-06-5.57303E-07 3.08912E+01
 -1       987 2.95284E+04 8.79715E+02-1.35142E+04 4.46826E-06-5.52794E-07 6.71925E+01
 -1       988 2.99806E+04 9.10000E+02-1.34336E+04 3.21083E-06-5.41728E-07 1.55947E+02
 -1       989 3.12315E+04 8.31380E+02-1.32638E+04 2.08424E-06-5.39436E-07 3.03901E+02
 -1       990 3.13095E+04 1.61065E+02-1.41985E+04 9.60181E-07-4.33803E-07 4.98218E+02
 -1       991 3.37865E+04 5.72631E+03-9.74249E+03-3.14296E-07-2.28199E-07-1.13516E+02
 -1       992 2.45130E+04-3.07951E+03-1.64864E+04-1.88047E+02-2.60704E+02-1.89537E+03
 -1       993 2.73220E+04 5.53367E+02-1.30225E+04 1.17954E+02-3.53666E+02-1.56279E+02
 -1       994 2.63468E+04 5.31946E+01-1.41421E+04-4.16175E+01-3.82676E+02 2.70098E+02
 -1       995 2.74632E+04 3.43797E+01-1.40870E+04-1.66220E+01-3.94880E+02 1.96110E+02
 -1       996 2.80389E+04 2.81283E+01-1.40290E+04-2.79871E+00-3.90198E+02 9.95532E+01
 -1       997 2.83140E+04 4.40759E+01-1.39824E+04-2.06695E-01-3.89223E+02 4.70164E+01
 -1       998 2.84409E+04 5.23090E+01-1.39643E+04 3.98048E-01-3.88684E+02 2.77800E+01
 -1       999 2.85245E+04 5.51458E+01-1.39588E+04 1.93857E-01-3.88444E+02 2.36154E+01
 -1      1000 2.86018E+04 5.55806E+01-1.39579E+04 6.85876E-02-3.88403E+02 2.37568E+01
 -1      1001 2.86808E+04 5.54001E+01-1.39580E+04-1.24660E-03-3.88405E+02 2.41873E+01
 -1      1002 2.87601E+04 5.50756E+01-1.39584E+04 2.96974E-02-3.88418E+02 2.37866E+01
 -1      1003 2.88359E+04 5.48823E+01-1.39587E+04 1.44243E-01-3.88419E+02 2.25906E+01
 -1      1004 2.89082E+04 5.59525E+01-1.39571E+04 4.14563E-01-3.88329E+02 2.24523E+01
 -1      1005 2.89928E+04 6.09860E+01-1.39473E+04 6.67377E-01-3.87716E+02 3.12529E+01
 -1      1006 2.91693E+04 8.18615E+01-1.39098E+04 1.72711E-01-3.88280E+02 6.72189E+01
 -1      1007 2.95846E+04 8.53456E+01-1.38457E+04-7.12142E+00-3.79483E+02 1.65371E+02
 -1      1008 3.08445E+04 1.29867E+02-1.36321E+04-5.75713E+01-3.86490E+02 3.15856E+02
 -1      1009 3.11181E+04-7.20801E+02-1.45241E+04-1.14649E+00-4.10976E+02 4.53009E+02
 -1      1010 3.38977E+04 4.66589E+03-1.01196E+04 5.96709E+02-3.53740E+02-1.22140E+02
 -1      1011 2.44814E+04-2.96471E+03-1.67994E+04-4.47210E+02-9.64549E+02-2.09643E+03
 -1      1012 2.73859E+04 1.23721E+03-1.34747E+04 1.40837E+02-9.31848E+02-2.21837E+02
 -1      1013 2.63582E+04 4.31825E+02-1.45475E+04-2.66909E+01-1.01309E+03 3.08338E+02
 -1      1014 2.75103E+04 4.54513E+02-1.44610E+04-1.46138E+01-1.01085E+03 2.21191E+02
 -1      1015 2.80471E+04 4.67379E+02-1.43968E+04-5.32166E+00-1.00556E+03 1.07158E+02
 -1      1016 2.83216E+04 4.76644E+02-1.43566E+04-1.01552E+00-1.00400E+03 4.85961E+01
 -1      1017 2.84547E+04 4.86778E+02-1.43373E+04-2.38036E-01-1.00319E+03 2.74821E+01
 -1      1018 2.85402E+04 4.89201E+02-1.43322E+04-7.16780E-02-1.00296E+03 2.31741E+01
 -1      1019 2.86182E+04 4.89743E+02-1.43312E+04-1.53537E-01-1.00290E+03 2.34465E+01
 -1      1020 2.86973E+04 4.89500E+02-1.43313E+04-1.94269E-01-1.00290E+03 2.39630E+01
 -1      1021 2.87765E+04 4.89099E+02-1.43316E+04-1.73317E-01-1.00290E+03 2.35145E+01
 -1      1022 2.88526E+04 4.88994E+02-1.43319E+04-5.71523E-02-1.00290E+03 2.21231E+01
 -1      1023 2.89258E+04 4.89632E+02-1.43306E+04-1.56153E-02-1.00280E+03 2.17741E+01
 -1      1024 2.90164E+04 4.96613E+02-1.43196E+04 4.05684E-02-1.00238E+03 3.08404E+01
 -1      1025 2.92020E+04 5.11537E+02-1.42856E+04-2.76046E+00-1.00102E+03 7.11583E+01
 -1      1026 2.96065E+04 5.21458E+02-1.42239E+04-6.85220E+00-9.99963E+02 1.78177E+02
 -1      1027 3.06635E+04 5.65208E+02-1.40629E+04-7.03091E+01-9.62043E+02 3.97555E+02
 -1      1028 3.16922E+04 1.77073E+02-1.44301E+04 1.89357E+02-1.13364E+03 3.29830E+02
 -1      1029 3.50781E+04 3.09933E+03-1.07281E+04-2.23133E+02-6.01234E+02-3.83168E+02
 -1      1030-1.50478E+03-1.50479E+03-3.51115E+03 8.65478E-03-1.10820E+03-1.39425E+03
 -1      1031-1.86597E+02-1.86600E+02-4.35398E+02 1.70514E-04-5.46053E+01 3.01380E+02
 -1      1032-1.07141E+03-1.07142E+03-2.49995E+03 8.49391E-03-9.05824E+02-1.37157E+03
 -1      1033-1.81246E+02-1.81248E+02-4.22911E+02 1.54650E-04-1.28770E+01 2.94115E+02
 -1      1034-1.20773E+03-1.20774E+03-2.81804E+03 1.06092E-02-8.47039E+02-1.49645E+03
 -1      1035-1.73941E+02-1.73943E+02-4.05867E+02 8.36648E-06 5.97251E+00 2.76617E+02
 -1      1036-1.41506E+03-1.41507E+03-3.30180E+03 1.11216E-02-7.47666E+02-1.69378E+03
 -1      1037-1.63361E+02-1.63362E+02-3.81179E+02-9.24754E-05 1.21290E+01 2.58614E+02
 -1      1038-1.61997E+03-1.61999E+03-3.77993E+03 9.36384E-03-5.63800E+02-1.89452E+03
 -1      1039-1.53955E+02-1.53956E+02-3.59232E+02-1.14405E-04 1.13162E+01 2.43659E+02
 -1      1040-1.76403E+03-1.76406E+03-4.11607E+03 5.37562E-03-3.03703E+02-2.04002E+03
 -1      1041-1.47429E+02-1.47431E+02-3.44006E+02-7.39916E-05 6.56717E+00 2.33897E+02
 -1      1042-1.81557E+03-1.81560E+03-4.23633E+03-4.36340E-11 7.74542E-06-2.09276E+03
 -1      1043-1.45102E+02-1.45104E+02-3.38576E+02-3.42304E-12-6.66431E-07 2.30517E+02
 -1      1044-1.76403E+03-1.76406E+03-4.11607E+03-5.37562E-03 3.03703E+02-2.04002E+03
 -1      1045-1.47429E+02-1.47431E+02-3.44006E+02 7.39916E-05-6.56717E+00 2.33897E+02
 -1      1046-1.61997E+03-1.61999E+03-3.77993E+03-9.36384E-03 5.63800E+02-1.89452E+03
 -1      1047-1.53955E+02-1.53956E+02-3.59232E+02 1.14405E-04-1.13162E+01 2.43659E+02
 -1      1048-1.41506E+03-1.41507E+03-3.30180E+03-1.11216E-02 7.47666E+02-1.69378E+03
 -1      1049-1.63361E+02-1.63362E+02-3.81179E+02 9.24754E-05-1.21290E+01 2.58614E+02
 -1      1050-1.20773E+03-1.20774E+03-2.81804E+03-1.06092E-02 8.47039E+02-1.49645E+03
 -1      1051-1.73941E+02-1.73943E+02-4.05867E+02-8.36649E-06-5.97252E+00 2.76617E+02
 -1      1052-1.07141E+03-1.07142E+03-2.49995E+03-8.49391E-03 9.05824E+02-1.37157E+03
 -1      1053-1.81246E+02-1.81248E+02-4.22911E+02-1.54650E-04 1.28770E+01 2.94115E+02
 -1      1054-1.50478E+03-1.50479E+03-3.51115E+03-8.65478E-03 1.10820E+03-1.39425E+03
 -1      1055-1.86597E+02-1.86600E+02-4.35398E+02-1.70514E-04 5.46053E+01 3.01380E+02
 -1      1056-4.28926E+02-1.23805E+02-1.73768E+03-9.95156E+01-4.53571E+02-1.07205E+03
 -1      1057-2.27452E+02-4.58806E+01-2.87124E+02 2.25485E+00-3.26865E+00 2.46878E+02
 -1      1058-3.64048E+02-2.70633E+02-1.66974E+03-1.64760E+02-6.34060E+02-1.02095E+03
 -1      1059-2.13323E+02-7.80913E+01-3.09483E+02 3.98386E+00 6.21184E+00 2.24630E+02
 -1      1060-4.92910E+02-5.45024E+02-2.00917E+03-2.63896E+02-7.96375E+02-1.14196E+03
 -1      1061-2.24022E+02-1.29406E+02-3.15691E+02 2.02293E+00 1.51911E+01 2.08851E+02
 -1      1062-5.57508E+02-5.14877E+02-2.38612E+03-2.82744E+02-7.29476E+02-1.32696E+03
 -1      1063-2.37691E+02-1.58386E+02-3.13417E+02 2.30270E+00 1.82719E+01 1.94101E+02
 -1      1064-5.99448E+02-4.19317E+02-2.72212E+03-2.32244E+02-5.58057E+02-1.51114E+03
 -1      1065-2.51428E+02-1.75232E+02-3.08577E+02 2.08411E+00 1.52887E+01 1.81792E+02
 -1      1066-6.25716E+02-3.40646E+02-2.95292E+03-1.29763E+02-3.01702E+02-1.64309E+03
 -1      1067-2.61646E+02-1.84591E+02-3.04621E+02 1.24027E+00 8.61064E+00 1.73675E+02
 -1      1068-6.34524E+02-3.10985E+02-3.03421E+03-1.27482E-06 1.06372E-05-1.69062E+03
 -1      1069-2.65393E+02-1.87625E+02-3.03107E+02 6.23510E-08-6.56062E-07 1.70850E+02
 -1      1070-6.25716E+02-3.40646E+02-2.95292E+03 1.29763E+02 3.01702E+02-1.64309E+03
 -1      1071-2.61646E+02-1.84591E+02-3.04621E+02-1.24026E+00-8.61064E+00 1.73675E+02
 -1      1072-5.99448E+02-4.19317E+02-2.72212E+03 2.32244E+02 5.58057E+02-1.51114E+03
 -1      1073-2.51428E+02-1.75232E+02-3.08578E+02-2.08411E+00-1.52887E+01 1.81792E+02
 -1      1074-5.57508E+02-5.14877E+02-2.38612E+03 2.82744E+02 7.29476E+02-1.32696E+03
 -1      1075-2.37691E+02-1.58386E+02-3.13417E+02-2.30270E+00-1.82719E+01 1.94101E+02
 -1      1076-4.92909E+02-5.45024E+02-2.00917E+03 2.63896E+02 7.96375E+02-1.14196E+03
 -1      1077-2.24022E+02-1.29406E+02-3.15691E+02-2.02293E+00-1.51911E+01 2.08851E+02
 -1      1078-3.64048E+02-2.70633E+02-1.66974E+03 1.64760E+02 6.34060E+02-1.02095E+03
 -1      1079-2.13323E+02-7.80913E+01-3.09483E+02-3.98386E+00-6.21184E+00 2.24630E+02
 -1      1080-4.28926E+02-1.23805E+02-1.73768E+03 9.95156E+01 4.53571E+02-1.07205E+03
 -1      1081-2.27452E+02-4.58806E+01-2.87124E+02-2.25485E+00 3.26865E+00 2.46878E+02
 -1      1082 4.95349E+01 7.01385E+01 2.12282E+01-2.47735E+02-1.20468E+02-6.01080E+02
 -1      1083-2.60896E+02-7.05040E+01-1.27156E+02 1.51433E+01 2.86299E+01 1.74995E+02
 -1      1084-6.47193E+01-7.98188E+01-7.27006E+02-3.19115E+02-3.66890E+02-5.75908E+02
 -1      1085-2.31304E+02-7.19387E+01-1.47723E+02 9.41477E+00 2.25904E+01 1.47447E+02
 -1      1086-3.22755E+01 5.73188E+01-9.98757E+02-4.41313E+02-5.42663E+02-6.93226E+02
 -1      1087-2.26179E+02-8.84985E+01-1.52159E+02 3.99463E+00 2.72980E+01 1.34463E+02
 -1      1088-3.47285E+01 2.20621E+02-1.31069E+03-4.60670E+02-5.47915E+02-8.65790E+02
 -1      1089-2.41629E+02-1.18682E+02-1.60470E+02 2.32277E+00 2.42538E+01 1.23205E+02
 -1      1090-1.77361E+01 4.49175E+02-1.56657E+03-3.74147E+02-4.28013E+02-1.03383E+03
 -1      1091-2.62071E+02-1.44306E+02-1.67383E+02 1.60104E+00 1.86408E+01 1.13377E+02
 -1      1092 1.98318E+00 6.30610E+02-1.72835E+03-2.07748E+02-2.32112E+02-1.15048E+03
 -1      1093-2.78133E+02-1.60850E+02-1.71555E+02 9.08275E-01 1.01846E+01 1.06577E+02
 -1      1094 1.05868E+01 6.98373E+02-1.78210E+03-5.27361E-07 1.39189E-05-1.19134E+03
 -1      1095-2.84139E+02-1.66547E+02-1.72916E+02 9.95265E-08-5.20077E-07 1.04116E+02
 -1      1096 1.98319E+00 6.30610E+02-1.72835E+03 2.07748E+02 2.32112E+02-1.15048E+03
 -1      1097-2.78133E+02-1.60850E+02-1.71555E+02-9.08275E-01-1.01846E+01 1.06577E+02
 -1      1098-1.77361E+01 4.49175E+02-1.56657E+03 3.74147E+02 4.28013E+02-1.03383E+03
 -1      1099-2.62071E+02-1.44306E+02-1.67383E+02-1.60104E+00-1.86408E+01 1.13377E+02
 -1      1100-3.47285E+01 2.20621E+02-1.31069E+03 4.60670E+02 5.47915E+02-8.65790E+02
 -1      1101-2.41629E+02-1.18682E+02-1.60470E+02-2.32277E+00-2.42538E+01 1.23205E+02
 -1      1102-3.22755E+01 5.73188E+01-9.98757E+02 4.41313E+02 5.42663E+02-6.93226E+02
 -1      1103-2.26179E+02-8.84985E+01-1.52159E+02-3.99463E+00-2.72980E+01 1.34463E+02
 -1      1104-6.47193E+01-7.98188E+01-7.27006E+02 3.19115E+02 3.66890E+02-5.75908E+02
 -1      1105-2.31304E+02-7.19387E+01-1.47723E+02-9.41477E+00-2.25904E+01 1.47447E+02
 -1      1106 4.95349E+01 7.01385E+01 2.12283E+01 2.47735E+02 1.20468E+02-6.01080E+02
 -1      1107-2.60896E+02-7.05040E+01-1.27156E+02-1.51433E+01-2.86299E+01 1.74995E+02
 -1      1108 2.70188E+02 1.88394E+02 8.02052E+02-2.85557E+02-4.76811E+01-2.47042E+02
 -1      1109-2.30603E+02-6.33969E+01-4.21297E+01 1.52460E+01 1.95427E+01 9.72144E+01
 -1      1110 1.42983E+02 5.59459E+01 3.83521E+00-3.89031E+02-1.50331E+02-2.79129E+02
 -1      1111-1.91515E+02-5.39237E+01-3.47367E+01 9.13803E+00 2.27143E+01 8.21227E+01
 -1      1112 1.73584E+02 2.75778E+02-3.46706E+02-5.46951E+02-2.87514E+02-4.12139E+02
 -1      1113-1.81797E+02-6.62313E+01-4.96777E+01 3.15805E+00 2.90664E+01 7.24808E+01
 -1      1114 2.27160E+02 5.77838E+02-5.67212E+02-5.69935E+02-3.33894E+02-6.06112E+02
 -1      1115-1.84263E+02-8.55240E+01-6.10153E+01 4.64214E-01 2.67022E+01 6.43918E+01
 -1      1116 2.77849E+02 8.77348E+02-7.32051E+02-4.59306E+02-2.74878E+02-7.95763E+02
 -1      1117-1.94409E+02-1.07740E+02-7.10412E+01-3.22446E-01 2.03311E+01 5.71824E+01
 -1      1118 3.22891E+02 1.10044E+03-8.12039E+02-2.51107E+02-1.48136E+02-9.17230E+02
 -1      1119-2.04324E+02-1.23884E+02-7.75129E+01-3.42070E-01 1.11310E+01 5.16283E+01
 -1      1120 3.40982E+02 1.18102E+03-8.32608E+02 3.27455E-06 1.97082E-05-9.56261E+02
 -1      1121-2.08692E+02-1.29958E+02-8.02360E+01 8.80662E-08-4.03100E-07 4.95269E+01
 -1      1122 3.22891E+02 1.10044E+03-8.12038E+02 2.51107E+02 1.48136E+02-9.17230E+02
 -1      1123-2.04324E+02-1.23884E+02-7.75129E+01 3.42071E-01-1.11310E+01 5.16283E+01
 -1      1124 2.77849E+02 8.77348E+02-7.32051E+02 4.59306E+02 2.74878E+02-7.95763E+02
 -1      1125-1.94409E+02-1.07740E+02-7.10412E+01 3.22446E-01-2.03311E+01 5.71824E+01
 -1      1126 2.27160E+02 5.77838E+02-5.67212E+02 5.69935E+02 3.33894E+02-6.06112E+02
 -1      1127-1.84263E+02-8.55240E+01-6.10153E+01-4.64214E-01-2.67022E+01 6.43919E+01
 -1      1128 1.73584E+02 2.75778E+02-3.46706E+02 5.46951E+02 2.87514E+02-4.12139E+02
 -1      1129-1.81797E+02-6.62313E+01-4.96777E+01-3.15805E+00-2.90664E+01 7.24808E+01
 -1      1130 1.42983E+02 5.59459E+01 3.83530E+00 3.89031E+02 1.50331E+02-2.79129E+02
 -1      1131-1.91515E+02-5.39237E+01-3.47367E+01-9.13803E+00-2.27143E+01 8.21227E+01
 -1      1132 2.70188E+02 1.88394E+02 8.02052E+02 2.85557E+02 4.76811E+01-2.47042E+02
 -1      1133-2.30603E+02-6.33969E+01-4.21297E+01-1.52460E+01-1.95427E+01 9.72144E+01
 -1      1134 2.80734E+02 1.45641E+02 8.38304E+02-2.40550E+02 1.67411E+01 5.87335E+01
 -1      1135-1.52296E+02-4.55202E+01-9.44335E+00 9.10272E+00 9.96934E+00 3.47490E+01
 -1      1136 2.03916E+02 6.83429E+01 2.63813E+02-3.54375E+02 1.53235E+01-5.59663E+01
 -1      1137-1.14497E+02-3.37115E+01 9.10761E+00 3.70055E+00 1.43093E+01 3.45508E+01
 -1      1138 2.41639E+02 2.80526E+02 1.93788E+01-5.35161E+02-4.28114E+01-1.84458E+02
 -1      1139-9.18542E+01-3.90582E+01 5.94792E+00-1.03497E+00 2.13248E+01 2.92984E+01
 -1      1140 2.99786E+02 5.86776E+02-1.12422E+02-5.79624E+02-1.02636E+02-4.06317E+02
 -1      1141-7.03044E+01-4.52635E+01 1.01406E+01-2.24435E+00 2.03146E+01 1.95965E+01
 -1      1142 3.56994E+02 8.83857E+02-1.73257E+02-4.57147E+02-9.21018E+01-6.25291E+02
 -1      1143-5.48292E+01-5.30754E+01 1.71786E+01-2.47469E+00 1.65310E+01 9.71209E+00
 -1      1144 4.04010E+02 1.07954E+03-1.69206E+02-2.34927E+02-4.35151E+01-7.33492E+02
 -1      1145-4.92422E+01-6.14467E+01 1.93549E+01-1.76768E+00 9.62821E+00 4.56339E+00
 -1      1146 4.22233E+02 1.14290E+03-1.57672E+02 1.54106E-05 2.35548E-05-7.61391E+02
 -1      1147-4.83719E+01-6.52558E+01 1.90108E+01 5.41711E-08-3.10546E-07 2.29390E+00
 -1      1148 4.04010E+02 1.07954E+03-1.69206E+02 2.34927E+02 4.35151E+01-7.33492E+02
 -1      1149-4.92422E+01-6.14467E+01 1.93549E+01 1.76768E+00-9.62821E+00 4.56339E+00
 -1      1150 3.56994E+02 8.83857E+02-1.73257E+02 4.57147E+02 9.21019E+01-6.25291E+02
 -1      1151-5.48292E+01-5.30754E+01 1.71786E+01 2.47469E+00-1.65310E+01 9.71209E+00
 -1      1152 2.99786E+02 5.86776E+02-1.12421E+02 5.79624E+02 1.02636E+02-4.06317E+02
 -1      1153-7.03044E+01-4.52635E+01 1.01406E+01 2.24435E+00-2.03146E+01 1.95965E+01
 -1      1154 2.41639E+02 2.80526E+02 1.93789E+01 5.35161E+02 4.28114E+01-1.84458E+02
 -1      1155-9.18542E+01-3.90582E+01 5.94792E+00 1.03497E+00-2.13248E+01 2.92984E+01
 -1      1156 2.03916E+02 6.83429E+01 2.63813E+02 3.54375E+02-1.53235E+01-5.59663E+01
 -1      1157-1.14497E+02-3.37115E+01 9.10761E+00-3.70055E+00-1.43093E+01 3.45508E+01
 -1      1158 2.80734E+02 1.45641E+02 8.38304E+02 2.40550E+02-1.67412E+01 5.87335E+01
 -1      1159-1.52296E+02-4.55202E+01-9.44335E+00-9.10272E+00-9.96934E+00 3.47490E+01
 -1      1160 2.32906E+02 1.09606E+02 4.92333E+02-9.56764E+01 4.98278E+01 1.87909E+02
 -1      1161-4.56364E+01-1.49709E+01 8.04413E+00-7.33378E-01 3.44723E+00 6.67706E+00
 -1      1162 1.99746E+02 6.30052E+01 2.12164E+02-1.50052E+02 1.01334E+02 5.57243E+01
 -1      1163-2.15625E+01-1.32394E+01 2.15438E+01-5.32059E+00 7.18222E+00 1.41051E+01
 -1      1164 2.36615E+02 1.62737E+02 8.94789E+01-2.98532E+02 1.08860E+02-2.47343E+01
 -1      1165 5.11407E+00-2.01068E+01 3.12210E+01-1.55168E+01 1.53304E+01 1.16635E+01
 -1      1166 2.60846E+02 3.27287E+02 2.11234E+01-3.85586E+02 7.01141E+01-2.61246E+02
 -1      1167 7.30344E+00-3.18995E+01 2.23188E+01-2.10390E+01 1.84312E+01 8.61952E+00
 -1      1168 2.82030E+02 4.86042E+02 1.74782E+01-2.62821E+02 5.14023E+01-4.99490E+02
 -1      1169-5.85389E-02-4.37033E+01 1.12730E+01-1.40688E+01 1.46678E+01 5.39550E+00
 -1      1170 3.04843E+02 5.61790E+02 4.20770E+01-9.40564E+01 3.56441E+01-5.69458E+02
 -1      1171 9.11439E+00-4.86568E+01 2.01674E+01-5.17492E+00 7.33901E+00 9.45397E-01
 -1      1172 3.10148E+02 5.75076E+02 5.52623E+01 4.06175E-05 1.73746E-05-5.71122E+02
 -1      1173 8.98446E+00-5.45154E+01 1.95623E+01 1.32926E-08-1.78338E-07-1.25132E+00
 -1      1174 3.04843E+02 5.61790E+02 4.20771E+01 9.40565E+01-3.56441E+01-5.69458E+02
 -1      1175 9.11440E+00-4.86568E+01 2.01674E+01 5.17492E+00-7.33901E+00 9.45397E-01
 -1      1176 2.82029E+02 4.86042E+02 1.74783E+01 2.62821E+02-5.14023E+01-4.99490E+02
 -1      1177-5.85382E-02-4.37033E+01 1.12730E+01 1.40688E+01-1.46678E+01 5.39550E+00
 -1      1178 2.60846E+02 3.27286E+02 2.11237E+01 3.85586E+02-7.01142E+01-2.61245E+02
 -1      1179 7.30344E+00-3.18995E+01 2.23188E+01 2.10390E+01-1.84312E+01 8.61952E+00
 -1      1180 2.36615E+02 1.62737E+02 8.94789E+01 2.98532E+02-1.08860E+02-2.47342E+01
 -1      1181 5.11407E+00-2.01068E+01 3.12210E+01 1.55168E+01-1.53304E+01 1.16635E+01
 -1      1182 1.99746E+02 6.30053E+01 2.12164E+02 1.50052E+02-1.01335E+02 5.57244E+01
 -1      1183-2.15625E+01-1.32394E+01 2.15438E+01 5.32059E+00-7.18222E+00 1.41051E+01
 -1      1184 2.32906E+02 1.09606E+02 4.92333E+02 9.56764E+01-4.98278E+01 1.87909E+02
 -1      1185-4.56364E+01-1.49709E+01 8.04413E+00 7.33378E-01-3.44723E+00 6.67706E+00
 -1      1186 2.11868E+02 1.00989E+02 2.75090E+02 1.62088E+02 4.68723E+01 1.82166E+02
 -1      1187 3.63178E+01 5.77642E+00 2.60813E+01-1.48776E+01 1.81028E+00 4.50806E+00
 -1      1188 2.35430E+02 9.69150E+01 1.56141E+02 2.41918E+02 1.00364E+02 5.31953E+01
 -1      1189 5.23273E+01 2.34070E+00 3.45644E+01-1.91760E+01 6.06743E+00 1.38187E+01
 -1      1190 3.48601E+02 1.30551E+02 1.04967E+02 3.71256E+02 1.32040E+02 3.82091E+01
 -1      1191 7.29813E+01-5.27321E+00 4.84572E+01-2.41362E+01 1.02418E+01 1.55371E+01
 -1      1192 4.88570E+02 9.47321E+01 6.05878E+01 4.00667E+02 1.20564E+02-3.45906E+02
 -1      1193 8.19402E+01-1.91624E+01 2.71766E+01-2.03324E+01 9.00149E+00 1.19794E+01
 -1      1194 6.39593E+02 5.02984E+01 8.18538E+01 3.00946E+02 9.72895E+01-7.26494E+02
 -1      1195 8.13463E+01-3.10729E+01 6.32250E-01-1.64044E+01 9.77214E+00 7.01576E+00
 -1      1196 7.39511E+02 4.24170E+01 1.17096E+02 1.42183E+02 5.58653E+01-7.08037E+02
 -1      1197 8.19884E+01-2.87754E+01 1.05682E+01-1.01478E+01 6.73926E+00 5.11397E+00
 -1      1198 7.78743E+02 5.39540E+01 1.40650E+02 1.78083E-04 2.32183E-05-6.95003E+02
 -1      1199 7.81838E+01-3.02282E+01 9.88146E+00 2.99109E-08-7.71083E-08 2.99677E+00
 -1      1200 7.39510E+02 4.24168E+01 1.17096E+02-1.42182E+02-5.58653E+01-7.08037E+02
 -1      1201 8.19884E+01-2.87754E+01 1.05682E+01 1.01478E+01-6.73926E+00 5.11397E+00
 -1      1202 6.39593E+02 5.02982E+01 8.18539E+01-3.00946E+02-9.72895E+01-7.26494E+02
 -1      1203 8.13463E+01-3.10729E+01 6.32251E-01 1.64044E+01-9.77214E+00 7.01576E+00
 -1      1204 4.88569E+02 9.47318E+01 6.05878E+01-4.00667E+02-1.20564E+02-3.45905E+02
 -1      1205 8.19402E+01-1.91624E+01 2.71766E+01 2.03324E+01-9.00149E+00 1.19794E+01
 -1      1206 3.48601E+02 1.30551E+02 1.04968E+02-3.71257E+02-1.32040E+02 3.82091E+01
 -1      1207 7.29813E+01-5.27321E+00 4.84572E+01 2.41362E+01-1.02418E+01 1.55371E+01
 -1      1208 2.35430E+02 9.69150E+01 1.56141E+02-2.41918E+02-1.00364E+02 5.31953E+01
 -1      1209 5.23273E+01 2.34070E+00 3.45644E+01 1.91760E+01-6.06743E+00 1.38187E+01
 -1      1210 2.11868E+02 1.00989E+02 2.75090E+02-1.62088E+02-4.68723E+01 1.82166E+02
 -1      1211 3.63178E+01 5.77642E+00 2.60813E+01 1.48776E+01-1.81028E+00 4.50806E+00
 -1      1212-1.43614E+03-1.43614E+03-3.35098E+03 1.13849E-02-1.47480E+03-1.24480E+03
 -1      1213-1.43614E+03-1.43614E+03-3.35098E+03-1.13849E-02 1.47480E+03-1.24480E+03
 -1      1214-2.50212E+03-2.50210E+03-5.83822E+03 1.74022E-02-2.48496E+03-1.16854E+03
 -1      1215-2.50212E+03-2.50210E+03-5.83822E+03-1.74022E-02 2.48496E+03-1.16854E+03
 -1      1216-3.18354E+03-3.18350E+03-7.42816E+03 1.30197E-02-3.18128E+03-7.26417E+02
 -1      1217-3.18354E+03-3.18350E+03-7.42816E+03-1.30197E-02 3.18128E+03-7.26417E+02
 -1      1218-3.47023E+03-3.47018E+03-8.09707E+03 6.06528E-03-3.48399E+03-3.26234E+02
 -1      1219-3.47023E+03-3.47018E+03-8.09707E+03-6.06528E-03 3.48399E+03-3.26234E+02
 -1      1220-3.52206E+03-3.52201E+03-8.21801E+03 1.68473E-03-3.55641E+03-9.75364E+01
 -1      1221-3.52206E+03-3.52201E+03-8.21801E+03-1.68473E-03 3.55641E+03-9.75364E+01
 -1      1222-3.50811E+03-3.50806E+03-8.18547E+03-5.49275E-05-3.55305E+03-3.14583E+00
 -1      1223-3.50811E+03-3.50806E+03-8.18547E+03 5.49275E-05 3.55305E+03-3.14583E+00
 -1      1224-3.49532E+03-3.49527E+03-8.15563E+03-6.07885E-04-3.54148E+03 2.95425E+01
 -1      1225-3.49532E+03-3.49527E+03-8.15563E+03 6.07885E-04 3.54148E+03 2.95425E+01
 -1      1226-3.49336E+03-3.49331E+03-8.15106E+03-8.28437E-04-3.53721E+03 4.31533E+01
 -1      1227-3.49336E+03-3.49331E+03-8.15106E+03 8.28437E-04 3.53721E+03 4.31533E+01
 -1      1228-3.49644E+03-3.49639E+03-8.15825E+03-9.86494E-04-3.53798E+03 5.23187E+01
 -1      1229-3.49644E+03-3.49639E+03-8.15825E+03 9.86494E-04 3.53798E+03 5.23187E+01
 -1      1230-3.50003E+03-3.49998E+03-8.16662E+03-1.12588E-03-3.54015E+03 6.00376E+01
 -1      1231-3.50003E+03-3.49998E+03-8.16662E+03 1.12588E-03 3.54015E+03 6.00376E+01
 -1      1232-3.50257E+03-3.50253E+03-8.17255E+03-1.25694E-03-3.54183E+03 6.72010E+01
 -1      1233-3.50257E+03-3.50253E+03-8.17255E+03 1.25694E-03 3.54183E+03 6.72010E+01
 -1      1234-3.50327E+03-3.50322E+03-8.17417E+03-1.41730E-03-3.54168E+03 7.58631E+01
 -1      1235-3.50327E+03-3.50322E+03-8.17417E+03 1.41730E-03 3.54168E+03 7.58631E+01
 -1      1236-3.49912E+03-3.49908E+03-8.16450E+03-1.67786E-03-3.53665E+03 8.95646E+01
 -1      1237-3.49912E+03-3.49908E+03-8.16450E+03 1.67786E-03 3.53665E+03 8.95646E+01
 -1      1238-3.48254E+03-3.48250E+03-8.12583E+03-2.07604E-03-3.52073E+03 1.09946E+02
 -1      1239-3.48255E+03-3.48250E+03-8.12583E+03 2.07604E-03 3.52073E+03 1.09946E+02
 -1      1240-3.44516E+03-3.44512E+03-8.03860E+03-2.39819E-03-3.48947E+03 1.26215E+02
 -1      1241-3.44516E+03-3.44512E+03-8.03860E+03 2.39819E-03 3.48947E+03 1.26215E+02
 -1      1242-3.40158E+03-3.40154E+03-7.93692E+03-1.99542E-03-3.45749E+03 1.06725E+02
 -1      1243-3.40158E+03-3.40154E+03-7.93692E+03 1.99542E-03 3.45749E+03 1.06725E+02
 -1      1244-3.42902E+03-3.42898E+03-8.00094E+03-5.49613E-04-3.48096E+03 4.25579E+01
 -1      1245-3.42902E+03-3.42898E+03-8.00094E+03 5.49613E-04 3.48096E+03 4.25579E+01
 -1      1246-3.61488E+03-3.61483E+03-8.43460E+03-9.79558E-04-3.61939E+03 8.82061E+01
 -1      1247-3.61488E+03-3.61483E+03-8.43460E+03 9.79558E-04 3.61939E+03 8.82061E+01
 -1      1248-3.73830E+03-3.73824E+03-8.72255E+03-1.14958E-02-3.68280E+03 5.76991E+02
 -1      1249-3.73830E+03-3.73824E+03-8.72255E+03 1.14958E-02 3.68280E+03 5.76991E+02
 -1      1250-3.00405E+03-3.00403E+03-7.00938E+03-2.40337E-02-2.96842E+03 1.35540E+03
 -1      1251-3.00405E+03-3.00403E+03-7.00938E+03 2.40337E-02 2.96842E+03 1.35540E+03
 -1      1252-1.37477E+03-1.37478E+03-3.20780E+03-1.41570E-02-1.43484E+03 1.50838E+03
 -1      1253-1.37477E+03-1.37478E+03-3.20780E+03 1.41570E-02 1.43484E+03 1.50838E+03
 -1      1254-3.42154E+02-3.42167E+02-7.98382E+02-2.87031E-03-4.39140E+02 9.55524E+02
 -1      1255-3.42154E+02-3.42167E+02-7.98382E+02 2.87031E-03 4.39140E+02 9.55524E+02
 -1      1256-5.92262E+00-5.92845E+00-1.38308E+01-9.73812E-05-8.31617E+01 4.48553E+02
 -1      1257-5.92262E+00-5.92845E+00-1.38308E+01 9.73812E-05 8.31617E+01 4.48553E+02
 -1      1258-5.16945E+02-1.36205E+02-1.91297E+03-1.04611E+02-7.03683E+02-1.18535E+03
 -1      1259-5.16945E+02-1.36205E+02-1.91297E+03 1.04611E+02 7.03683E+02-1.18535E+03
 -1      1260-8.40722E+02-2.94228E+02-3.25694E+03-1.09359E+02-1.20380E+03-1.12855E+03
 -1      1261-8.40722E+02-2.94228E+02-3.25694E+03 1.09359E+02 1.20380E+03-1.12855E+03
 -1      1262-9.88968E+02-3.72398E+02-4.14080E+03-6.44786E+01-1.54545E+03-7.01313E+02
 -1      1263-9.88968E+02-3.72398E+02-4.14080E+03 6.44786E+01 1.54545E+03-7.01313E+02
 -1      1264-1.19736E+03-3.98240E+02-4.50130E+03-2.21313E+01-1.67996E+03-3.12019E+02
 -1      1265-1.19736E+03-3.98240E+02-4.50130E+03 2.21313E+01 1.67996E+03-3.12019E+02
 -1      1266-1.35562E+03-4.14584E+02-4.57078E+03-1.84596E+00-1.70846E+03-9.21793E+01
 -1      1267-1.35562E+03-4.14584E+02-4.57078E+03 1.84596E+00 1.70846E+03-9.21793E+01
 -1      1268-1.43908E+03-4.22329E+02-4.55811E+03 3.26579E+00-1.70405E+03-2.48101E+00
 -1      1269-1.43908E+03-4.22329E+02-4.55811E+03-3.26579E+00 1.70405E+03-2.48102E+00
 -1      1270-1.47230E+03-4.26366E+02-4.54812E+03 2.96135E+00-1.69766E+03 2.86202E+01
 -1      1271-1.47230E+03-4.26366E+02-4.54812E+03-2.96135E+00 1.69766E+03 2.86202E+01
 -1      1272-1.48356E+03-4.27844E+02-4.55020E+03 1.88601E+00-1.69525E+03 4.19575E+01
 -1      1273-1.48356E+03-4.27844E+02-4.55020E+03-1.88601E+00 1.69525E+03 4.19575E+01
 -1      1274-1.48828E+03-4.28395E+02-4.55688E+03 1.26679E+00-1.69536E+03 5.11457E+01
 -1      1275-1.48828E+03-4.28395E+02-4.55688E+03-1.26679E+00 1.69536E+03 5.11457E+01
 -1      1276-1.49103E+03-4.28640E+02-4.56291E+03 1.06866E+00-1.69621E+03 5.88499E+01
 -1      1277-1.49103E+03-4.28640E+02-4.56291E+03-1.06866E+00 1.69621E+03 5.88499E+01
 -1      1278-1.49180E+03-4.28653E+02-4.56681E+03 1.12613E+00-1.69692E+03 6.58894E+01
 -1      1279-1.49180E+03-4.28653E+02-4.56681E+03-1.12613E+00 1.69692E+03 6.58894E+01
 -1      1280-1.48920E+03-4.28310E+02-4.56792E+03 1.49506E+00-1.69688E+03 7.42759E+01
 -1      1281-1.48920E+03-4.28310E+02-4.56792E+03-1.49506E+00 1.69688E+03 7.42759E+01
 -1      1282-1.48235E+03-4.27640E+02-4.56269E+03 2.45131E+00-1.69473E+03 8.75516E+01
 -1      1283-1.48235E+03-4.27640E+02-4.56269E+03-2.45131E+00 1.69473E+03 8.75516E+01
 -1      1284-1.47464E+03-4.27027E+02-4.54131E+03 4.08127E+00-1.68762E+03 1.07666E+02
 -1      1285-1.47464E+03-4.27027E+02-4.54131E+03-4.08127E+00 1.68762E+03 1.07666E+02
 -1      1286-1.47644E+03-4.25908E+02-4.49086E+03 5.08320E+00-1.67287E+03 1.24723E+02
 -1      1287-1.47644E+03-4.25908E+02-4.49086E+03-5.08320E+00 1.67287E+03 1.24723E+02
 -1      1288-1.48975E+03-4.19889E+02-4.42503E+03 9.75576E-01-1.65586E+03 1.07163E+02
 -1      1289-1.48975E+03-4.19889E+02-4.42503E+03-9.75576E-01 1.65586E+03 1.07163E+02
 -1      1290-1.46342E+03-4.05008E+02-4.44626E+03-1.14165E+01-1.66272E+03 4.13300E+01
 -1      1291-1.46342E+03-4.05008E+02-4.44626E+03 1.14165E+01 1.66272E+03 4.13300E+01
 -1      1292-1.29653E+03-4.01003E+02-4.69270E+03-1.11300E+01-1.73304E+03 7.38139E+01
 -1      1293-1.29653E+03-4.01003E+02-4.69270E+03 1.11300E+01 1.73304E+03 7.38139E+01
 -1      1294-1.05382E+03-4.40124E+02-4.90298E+03 4.87838E+01-1.79622E+03 5.47362E+02
 -1      1295-1.05382E+03-4.40124E+02-4.90298E+03-4.87838E+01 1.79622E+03 5.47362E+02
 -1      1296-8.98400E+02-3.84039E+02-3.95595E+03 1.46895E+02-1.45955E+03 1.32469E+03
 -1      1297-8.98400E+02-3.84039E+02-3.95595E+03-1.46895E+02 1.45955E+03 1.32469E+03
 -1      1298-7.41696E+02-1.44781E+02-1.74994E+03 1.65452E+02-6.61467E+02 1.47408E+03
 -1      1299-7.41696E+02-1.44781E+02-1.74994E+03-1.65452E+02 6.61467E+02 1.47408E+03
 -1      1300-5.98680E+02-5.66765E+01-4.08054E+02 9.23317E+01-1.84503E+02 9.18732E+02
 -1      1301-5.98680E+02-5.66765E+01-4.08054E+02-9.23317E+01 1.84503E+02 9.18732E+02
 -1      1302-3.00679E+02-4.02526E+01-1.71335E+01 2.16328E+01-3.54561E+01 4.20618E+02
 -1      1303-3.00679E+02-4.02526E+01-1.71335E+01-2.16328E+01 3.54561E+01 4.20618E+02
 -1      1304 5.87712E+01 1.86046E+02-4.31849E+02-1.94206E+02-3.44960E+02-8.26510E+02
 -1      1305 5.87712E+01 1.86046E+02-4.31849E+02 1.94206E+02 3.44960E+02-8.26510E+02
 -1      1306 3.26543E+02 2.55212E+02-5.55685E+02-1.85254E+02-6.22268E+02-7.56121E+02
 -1      1307 3.26543E+02 2.55212E+02-5.55685E+02 1.85254E+02 6.22268E+02-7.56121E+02
 -1      1308 4.58668E+02 3.35960E+02-7.13735E+02-1.06172E+02-7.98890E+02-4.70442E+02
 -1      1309 4.58668E+02 3.35960E+02-7.13735E+02 1.06172E+02 7.98890E+02-4.70442E+02
 -1      1310 3.32216E+02 3.76648E+02-7.30411E+02-3.45296E+01-8.50783E+02-2.09501E+02
 -1      1311 3.32216E+02 3.76648E+02-7.30411E+02 3.45296E+01 8.50783E+02-2.09501E+02
 -1      1312 1.35781E+02 3.76872E+02-7.01254E+02-1.97325E+00-8.55728E+02-6.41019E+01
 -1      1313 1.35781E+02 3.76872E+02-7.01254E+02 1.97325E+00 8.55728E+02-6.41019E+01
 -1      1314 3.81239E+00 3.64533E+02-6.83906E+02 6.04752E+00-8.50421E+02-1.90887E+00
 -1      1315 3.81238E+00 3.64533E+02-6.83906E+02-6.04752E+00 8.50421E+02-1.90887E+00
 -1      1316-5.78810E+01 3.55237E+02-6.85488E+02 5.51925E+00-8.46754E+02 2.40564E+01
 -1      1317-5.78810E+01 3.55237E+02-6.85488E+02-5.51925E+00 8.46754E+02 2.40564E+01
 -1      1318-8.11511E+01 3.51169E+02-6.93614E+02 3.81163E+00-8.45506E+02 3.82294E+01
 -1      1319-8.11511E+01 3.51169E+02-6.93614E+02-3.81163E+00 8.45506E+02 3.82294E+01
 -1      1320-9.00740E+01 3.50031E+02-7.00680E+02 2.82888E+00-8.45455E+02 4.82178E+01
 -1      1321-9.00740E+01 3.50031E+02-7.00680E+02-2.82888E+00 8.45455E+02 4.82178E+01
 -1      1322-9.40791E+01 3.49930E+02-7.05012E+02 2.51456E+00-8.45737E+02 5.58039E+01
 -1      1323-9.40792E+01 3.49930E+02-7.05012E+02-2.51456E+00 8.45737E+02 5.58039E+01
 -1      1324-9.47411E+01 3.50187E+02-7.07472E+02 2.60657E+00-8.46004E+02 6.19610E+01
 -1      1325-9.47411E+01 3.50187E+02-7.07472E+02-2.60657E+00 8.46004E+02 6.19610E+01
 -1      1326-9.11627E+01 3.50514E+02-7.09272E+02 3.19025E+00-8.46049E+02 6.83571E+01
 -1      1327-9.11627E+01 3.50514E+02-7.09272E+02-3.19025E+00 8.46049E+02 6.83571E+01
 -1      1328-8.40274E+01 3.50049E+02-7.10382E+02 4.70301E+00-8.45362E+02 7.77331E+01
 -1      1329-8.40274E+01 3.50049E+02-7.10382E+02-4.70301E+00 8.45362E+02 7.77331E+01
 -1      1330-8.15332E+01 3.46840E+02-7.06660E+02 7.31778E+00-8.42644E+02 9.26511E+01
 -1      1331-8.15332E+01 3.46840E+02-7.06660E+02-7.31778E+00 8.42644E+02 9.26511E+01
 -1      1332-1.00632E+02 3.40829E+02-6.86947E+02 9.21900E+00-8.35655E+02 1.09193E+02
 -1      1333-1.00632E+02 3.40829E+02-6.86947E+02-9.21900E+00 8.35655E+02 1.09193E+02
 -1      1334-1.34782E+02 3.42258E+02-6.45061E+02 3.67038E+00-8.23873E+02 1.06263E+02
 -1      1335-1.34782E+02 3.42258E+02-6.45061E+02-3.67038E+00 8.23873E+02 1.06263E+02
 -1      1336-7.71555E+01 3.70013E+02-6.35307E+02-1.67735E+01-8.18396E+02 6.31185E+01
 -1      1337-7.71555E+01 3.70013E+02-6.35307E+02 1.67735E+01 8.18396E+02 6.31185E+01
 -1      1338 2.49668E+02 4.08999E+02-7.74130E+02-2.25819E+01-8.56701E+02 6.13287E+01
 -1      1339 2.49668E+02 4.08999E+02-7.74130E+02 2.25819E+01 8.56701E+02 6.13287E+01
 -1      1340 6.39850E+02 3.61270E+02-9.84184E+02 7.48299E+01-9.47338E+02 3.54792E+02
 -1      1341 6.39850E+02 3.61270E+02-9.84184E+02-7.48299E+01 9.47338E+02 3.54792E+02
 -1      1342 4.41421E+02 2.44237E+02-7.91659E+02 2.50860E+02-7.94439E+02 8.85193E+02
 -1      1343 4.41421E+02 2.44237E+02-7.91659E+02-2.50860E+02 7.94439E+02 8.85193E+02
 -1      1344-2.44227E+02 1.92148E+02-1.52720E+02 2.81526E+02-2.78213E+02 9.80390E+02
 -1      1345-2.44227E+02 1.92148E+02-1.52720E+02-2.81526E+02 2.78213E+02 9.80390E+02
 -1      1346-6.08094E+02 5.01279E+01 1.61746E+02 1.48715E+02-4.98969E+01 5.96728E+02
 -1      1347-6.08094E+02 5.01279E+01 1.61746E+02-1.48715E+02 4.98969E+01 5.96728E+02
 -1      1348-3.98911E+02-3.09772E+01 8.68181E+01 4.11697E+01-1.00695E+01 2.91422E+02
 -1      1349-3.98911E+02-3.09772E+01 8.68181E+01-4.11697E+01 1.00695E+01 2.91422E+02
 -1      1350 3.54756E+02 2.98448E+02 3.67050E+02-2.37877E+02-2.05432E+02-3.60146E+02
 -1      1351 3.54756E+02 2.98448E+02 3.67050E+02 2.37877E+02 2.05432E+02-3.60146E+02
 -1      1352 9.00227E+02 4.38970E+02 8.72674E+02-2.12040E+02-4.22066E+02-3.47958E+02
 -1      1353 9.00227E+02 4.38970E+02 8.72673E+02 2.12040E+02 4.22066E+02-3.47958E+02
 -1      1354 1.16156E+03 5.87817E+02 1.12085E+03-1.13444E+02-5.29296E+02-2.13519E+02
 -1      1355 1.16156E+03 5.87817E+02 1.12085E+03 1.13444E+02 5.29296E+02-2.13519E+02
 -1      1356 1.06739E+03 6.51470E+02 1.24241E+03-3.24890E+01-5.47142E+02-9.69081E+01
 -1      1357 1.06739E+03 6.51470E+02 1.24241E+03 3.24890E+01 5.47142E+02-9.69081E+01
 -1      1358 8.67222E+02 6.59082E+02 1.30175E+03 1.43202E+00-5.39689E+02-3.23187E+01
 -1      1359 8.67222E+02 6.59082E+02 1.30175E+03-1.43202E+00 5.39689E+02-3.23187E+01
 -1      1360 7.19529E+02 6.46802E+02 1.31338E+03 8.89730E+00-5.33263E+02-1.29999E+00
 -1      1361 7.19529E+02 6.46802E+02 1.31338E+03-8.89730E+00 5.33263E+02-1.29999E+00
 -1      1362 6.44676E+02 6.36658E+02 1.30552E+03 7.89210E+00-5.30869E+02 1.77297E+01
 -1      1363 6.44676E+02 6.36658E+02 1.30552E+03-7.89210E+00 5.30869E+02 1.77297E+01
 -1      1364 6.12855E+02 6.32189E+02 1.29569E+03 5.98980E+00-5.30492E+02 3.17680E+01
 -1      1365 6.12855E+02 6.32189E+02 1.29569E+03-5.98980E+00 5.30492E+02 3.17680E+01
 -1      1366 5.99262E+02 6.30953E+02 1.28941E+03 4.98267E+00-5.30684E+02 4.20093E+01
 -1      1367 5.99262E+02 6.30953E+02 1.28941E+03-4.98267E+00 5.30684E+02 4.20093E+01
 -1      1368 5.93040E+02 6.30899E+02 1.28640E+03 4.69054E+00-5.30917E+02 4.91096E+01
 -1      1369 5.93040E+02 6.30899E+02 1.28640E+03-4.69054E+00 5.30917E+02 4.91095E+01
 -1      1370 5.91484E+02 6.31203E+02 1.28491E+03 4.80378E+00-5.31103E+02 5.40755E+01
 -1      1371 5.91484E+02 6.31203E+02 1.28491E+03-4.80378E+00 5.31103E+02 5.40755E+01
 -1      1372 5.94690E+02 6.31457E+02 1.28317E+03 5.41130E+00-5.31260E+02 5.81555E+01
 -1      1373 5.94690E+02 6.31457E+02 1.28317E+03-5.41130E+00 5.31260E+02 5.81555E+01
 -1      1374 6.01327E+02 6.30641E+02 1.27977E+03 7.02401E+00-5.31240E+02 6.32496E+01
 -1      1375 6.01327E+02 6.30641E+02 1.27977E+03-7.02401E+00 5.31240E+02 6.32496E+01
 -1      1376 6.02988E+02 6.26437E+02 1.27556E+03 9.97068E+00-5.30257E+02 7.24602E+01
 -1      1377 6.02988E+02 6.26437E+02 1.27556E+03-9.97068E+00 5.30257E+02 7.24602E+01
 -1      1378 5.82911E+02 6.18091E+02 1.27727E+03 1.26745E+01-5.25817E+02 8.76743E+01
 -1      1379 5.82911E+02 6.18091E+02 1.27727E+03-1.26745E+01 5.25817E+02 8.76743E+01
 -1      1380 5.47288E+02 6.16155E+02 1.29543E+03 8.31633E+00-5.14131E+02 9.82047E+01
 -1      1381 5.47288E+02 6.16155E+02 1.29543E+03-8.31633E+00 5.14131E+02 9.82047E+01
 -1      1382 6.05431E+02 6.44281E+02 1.30686E+03-1.50769E+01-5.00980E+02 7.81151E+01
 -1      1383 6.05431E+02 6.44281E+02 1.30686E+03 1.50769E+01 5.00980E+02 7.81151E+01
 -1      1384 9.63283E+02 7.00376E+02 1.24543E+03-3.44491E+01-5.29316E+02 4.50015E+01
 -1      1385 9.63283E+02 7.00376E+02 1.24543E+03 3.44491E+01 5.29316E+02 4.50015E+01
 -1      1386 1.41204E+03 6.47933E+02 1.15947E+03 7.08708E+01-6.52806E+02 1.45087E+02
 -1      1387 1.41204E+03 6.47933E+02 1.15947E+03-7.08708E+01 6.52806E+02 1.45087E+02
 -1      1388 1.06765E+03 4.49433E+02 9.74387E+02 2.97647E+02-5.72551E+02 3.93695E+02
 -1      1389 1.06765E+03 4.49433E+02 9.74387E+02-2.97647E+02 5.72551E+02 3.93695E+02
 -1      1390 1.00303E+00 3.30389E+02 5.64778E+02 3.30901E+02-1.14038E+02 4.30353E+02
 -1      1391 1.00303E+00 3.30389E+02 5.64778E+02-3.30901E+02 1.14038E+02 4.30353E+02
 -1      1392-5.53894E+02 8.61932E+01 3.46700E+02 1.56284E+02 1.62895E+01 2.47074E+02
 -1      1393-5.53894E+02 8.61932E+01 3.46700E+02-1.56284E+02-1.62895E+01 2.47074E+02
 -1      1394-3.85339E+02-2.70840E+01 1.09667E+02 4.07911E+01 7.50345E+00 1.33381E+02
 -1      1395-3.85339E+02-2.70840E+01 1.09667E+02-4.07911E+01-7.50345E+00 1.33381E+02
 -1      1396 3.82850E+02 1.40927E+02 5.78050E+02-2.07889E+02-7.17928E+01 7.09948E+01
 -1      1397 3.82850E+02 1.40927E+02 5.78050E+02 2.07889E+02 7.17928E+01 7.09948E+01
 -1      1398 8.81798E+02 1.06453E+02 1.21589E+03-1.75170E+02-1.82943E+02 4.56263E+01
 -1      1399 8.81798E+02 1.06453E+02 1.21589E+03 1.75170E+02 1.82943E+02 4.56263E+01
 -1      1400 1.12203E+03 1.99258E+02 1.56260E+03-8.27100E+01-2.21374E+02 7.67223E+00
 -1      1401 1.12203E+03 1.99258E+02 1.56260E+03 8.27100E+01 2.21374E+02 7.67223E+00
 -1      1402 1.04714E+03 2.46226E+02 1.69212E+03-1.69054E+01-2.12391E+02-7.79527E+00
 -1      1403 1.04714E+03 2.46226E+02 1.69212E+03 1.69054E+01 2.12391E+02-7.79526E+00
 -1      1404 8.80705E+02 2.56357E+02 1.73719E+03 7.48761E+00-1.98993E+02-1.06519E+01
 -1      1405 8.80705E+02 2.56357E+02 1.73719E+03-7.48761E+00 1.98993E+02-1.06519E+01
 -1      1406 7.49581E+02 2.50633E+02 1.74047E+03 1.18112E+01-1.93786E+02-3.36465E+00
 -1      1407 7.49581E+02 2.50633E+02 1.74047E+03-1.18112E+01 1.93786E+02-3.36465E+00
 -1      1408 6.74762E+02 2.44490E+02 1.73169E+03 1.04302E+01-1.93091E+02 9.73627E+00
 -1      1409 6.74762E+02 2.44490E+02 1.73169E+03-1.04302E+01 1.93091E+02 9.73627E+00
 -1      1410 6.37238E+02 2.41466E+02 1.72372E+03 8.89376E+00-1.93531E+02 2.23903E+01
 -1      1411 6.37238E+02 2.41466E+02 1.72372E+03-8.89376E+00 1.93531E+02 2.23903E+01
 -1      1412 6.18675E+02 2.40365E+02 1.71923E+03 8.22307E+00-1.93914E+02 3.16205E+01
 -1      1413 6.18675E+02 2.40365E+02 1.71923E+03-8.22307E+00 1.93914E+02 3.16205E+01
 -1      1414 6.09600E+02 2.40106E+02 1.71733E+03 8.09783E+00-1.94092E+02 3.74993E+01
 -1      1415 6.09600E+02 2.40106E+02 1.71733E+03-8.09783E+00 1.94092E+02 3.74993E+01
 -1      1416 6.06429E+02 2.40157E+02 1.71649E+03 8.22914E+00-1.94190E+02 4.10240E+01
 -1      1417 6.06429E+02 2.40157E+02 1.71649E+03-8.22914E+00 1.94190E+02 4.10240E+01
 -1      1418 6.08080E+02 2.40219E+02 1.71529E+03 8.69108E+00-1.94377E+02 4.29917E+01
 -1      1419 6.08080E+02 2.40219E+02 1.71529E+03-8.69108E+00 1.94377E+02 4.29917E+01
 -1      1420 6.13075E+02 2.39714E+02 1.71231E+03 9.94324E+00-1.94802E+02 4.43394E+01
 -1      1421 6.13075E+02 2.39714E+02 1.71231E+03-9.94324E+00 1.94802E+02 4.43394E+01
 -1      1422 6.16523E+02 2.37527E+02 1.70721E+03 1.24443E+01-1.95191E+02 4.76864E+01
 -1      1423 6.16523E+02 2.37527E+02 1.70721E+03-1.24443E+01 1.95191E+02 4.76864E+01
 -1      1424 6.09039E+02 2.32988E+02 1.70167E+03 1.52148E+01-1.93587E+02 5.78427E+01
 -1      1425 6.09039E+02 2.32988E+02 1.70167E+03-1.52148E+01 1.93587E+02 5.78427E+01
 -1      1426 5.95382E+02 2.34963E+02 1.70210E+03 1.35561E+01-1.84745E+02 7.41542E+01
 -1      1427 5.95382E+02 2.34963E+02 1.70210E+03-1.35561E+01 1.84745E+02 7.41542E+01
 -1      1428 6.40677E+02 2.55663E+02 1.69988E+03-5.74817E+00-1.68190E+02 8.01760E+01
 -1      1429 6.40677E+02 2.55663E+02 1.69988E+03 5.74817E+00 1.68190E+02 8.01760E+01
 -1      1430 9.14032E+02 3.13424E+02 1.69549E+03-3.64848E+01-1.83692E+02 5.83254E+01
 -1      1431 9.14032E+02 3.13424E+02 1.69549E+03 3.64848E+01 1.83692E+02 5.83254E+01
 -1      1432 1.26127E+03 1.95258E+02 1.73667E+03 4.32672E+01-3.00765E+02-7.18501E+00
 -1      1433 1.26127E+03 1.95258E+02 1.73667E+03-4.32672E+01 3.00765E+02-7.18501E+00
 -1      1434 9.40947E+02 8.77022E+00 1.44393E+03 2.60665E+02-2.81511E+02-1.01305E+02
 -1      1435 9.40947E+02 8.77022E+00 1.44393E+03-2.60665E+02 2.81511E+02-1.01305E+02
 -1      1436 8.50230E+01 2.83932E+02 6.63030E+02 2.84991E+02 1.80824E+01-1.16834E+02
 -1      1437 8.50230E+01 2.83932E+02 6.63030E+02-2.84991E+02-1.80824E+01-1.16834E+02
 -1      1438-4.00252E+02 5.86186E+01 2.76036E+02 1.12687E+02 5.78554E+01-4.56629E+01
 -1      1439-4.00252E+02 5.86186E+01 2.76036E+02-1.12687E+02-5.78554E+01-4.56629E+01
 -1      1440-2.67252E+02-1.96457E+01 8.08339E+01 2.35689E+01 1.56632E+01 1.18425E+01
 -1      1441-2.67252E+02-1.96457E+01 8.08339E+01-2.35689E+01-1.56632E+01 1.18425E+01
 -1      1442 3.09744E+02 5.19145E+01 3.85351E+02-7.47104E+01 4.55312E+01 2.62403E+02
 -1      1443 3.09744E+02 5.19145E+01 3.85351E+02 7.47104E+01-4.55312E+01 2.62403E+02
 -1      1444 6.07301E+02-1.30768E+01 7.85981E+02-5.01080E+01 7.65716E+01 2.32979E+02
 -1      1445 6.07301E+02-1.30768E+01 7.85981E+02 5.01080E+01-7.65716E+01 2.32979E+02
 -1      1446 7.50204E+02 4.26170E+01 1.01620E+03-1.15474E+01 9.09550E+01 1.04806E+02
 -1      1447 7.50204E+02 4.26170E+01 1.01620E+03 1.15474E+01-9.09550E+01 1.04806E+02
 -1      1448 7.16991E+02 7.65372E+01 1.09117E+03 6.52105E+00 1.12808E+02 2.38349E+01
 -1      1449 7.16991E+02 7.65372E+01 1.09117E+03-6.52105E+00-1.12808E+02 2.38349E+01
 -1      1450 6.20903E+02 8.69306E+01 1.11337E+03 1.19675E+01 1.23637E+02-4.19483E+00
 -1      1451 6.20903E+02 8.69306E+01 1.11337E+03-1.19675E+01-1.23637E+02-4.19483E+00
 -1      1452 5.27356E+02 8.72617E+01 1.11491E+03 1.22142E+01 1.25248E+02-5.40216E+00
 -1      1453 5.27356E+02 8.72617E+01 1.11491E+03-1.22142E+01-1.25248E+02-5.40216E+00
 -1      1454 4.58908E+02 8.51472E+01 1.11059E+03 1.14420E+01 1.24184E+02 2.70964E+00
 -1      1455 4.58908E+02 8.51472E+01 1.11059E+03-1.14420E+01-1.24184E+02 2.70964E+00
 -1      1456 4.16439E+02 8.33373E+01 1.10630E+03 1.10948E+01 1.23174E+02 1.11228E+01
 -1      1457 4.16439E+02 8.33373E+01 1.10630E+03-1.10948E+01-1.23174E+02 1.11228E+01
 -1      1458 3.92801E+02 8.22435E+01 1.10371E+03 1.11648E+01 1.22735E+02 1.70109E+01
 -1      1459 3.92801E+02 8.22435E+01 1.10371E+03-1.11648E+01-1.22735E+02 1.70109E+01
 -1      1460 3.80870E+02 8.17199E+01 1.10253E+03 1.13558E+01 1.22629E+02 2.05190E+01
 -1      1461 3.80870E+02 8.17199E+01 1.10253E+03-1.13558E+01-1.22629E+02 2.05190E+01
 -1      1462 3.75987E+02 8.14836E+01 1.10196E+03 1.15228E+01 1.22619E+02 2.23947E+01
 -1      1463 3.75987E+02 8.14836E+01 1.10196E+03-1.15228E+01-1.22619E+02 2.23947E+01
 -1      1464 3.75388E+02 8.12850E+01 1.10121E+03 1.17087E+01 1.22492E+02 2.30152E+01
 -1      1465 3.75388E+02 8.12850E+01 1.10121E+03-1.17087E+01-1.22492E+02 2.30152E+01
 -1      1466 3.77210E+02 8.09664E+01 1.09967E+03 1.21606E+01 1.21949E+02 2.25331E+01
 -1      1467 3.77210E+02 8.09664E+01 1.09967E+03-1.21606E+01-1.21949E+02 2.25331E+01
 -1      1468 3.81370E+02 8.05816E+01 1.09741E+03 1.31137E+01 1.20756E+02 2.19275E+01
 -1      1469 3.81370E+02 8.05816E+01 1.09741E+03-1.31137E+01-1.20756E+02 2.19275E+01
 -1      1470 3.92645E+02 8.01685E+01 1.09453E+03 1.43491E+01 1.19973E+02 2.43280E+01
 -1      1471 3.92645E+02 8.01685E+01 1.09453E+03-1.43491E+01-1.19973E+02 2.43280E+01
 -1      1472 4.21119E+02 8.20409E+01 1.08902E+03 1.45020E+01 1.22839E+02 3.35814E+01
 -1      1473 4.21119E+02 8.20409E+01 1.08902E+03-1.45020E+01-1.22839E+02 3.35814E+01
 -1      1474 4.66871E+02 8.75515E+01 1.07378E+03 9.40262E+00 1.36851E+02 5.68250E+01
 -1      1475 4.66871E+02 8.75515E+01 1.07378E+03-9.40262E+00-1.36851E+02 5.68250E+01
 -1      1476 5.64242E+02 1.24440E+02 1.08307E+03-9.97226E+00 1.27129E+02 8.04579E+01
 -1      1477 5.64242E+02 1.24440E+02 1.08307E+03 9.97226E+00-1.27129E+02 8.04579E+01
 -1      1478 6.60950E+02 3.25328E+01 1.15988E+03 3.19190E+00 7.42647E+01-4.88661E+01
 -1      1479 6.60950E+02 3.25328E+01 1.15988E+03-3.19190E+00-7.42647E+01-4.88661E+01
 -1      1480 4.82175E+02-8.89206E+01 9.67681E+02 8.97523E+01 6.89778E+01-3.53360E+02
 -1      1481 4.82175E+02-8.89206E+01 9.67681E+02-8.97523E+01-6.89778E+01-3.53360E+02
 -1      1482 1.30011E+02 1.91084E+02 3.96511E+02 9.11833E+01 6.82270E+01-3.92245E+02
 -1      1483 1.30011E+02 1.91084E+02 3.96511E+02-9.11833E+01-6.82270E+01-3.92245E+02
 -1      1484-1.01721E+02 4.06631E+01 1.34369E+02 1.72475E+01 6.71818E+01-1.57095E+02
 -1      1485-1.01721E+02 4.06631E+01 1.34369E+02-1.72475E+01-6.71818E+01-1.57095E+02
 -1      1486-7.28297E+01-2.08151E+00 4.50430E+01-6.43129E-01 1.35247E+01-2.51192E+01
 -1      1487-7.28297E+01-2.08151E+00 4.50430E+01 6.43129E-01-1.35247E+01-2.51192E+01
 -1      1488 3.92615E+02 3.59285E+02 3.45463E+02 2.38195E+02 3.82241E+01 2.59470E+02
 -1      1489 3.92615E+02 3.59285E+02 3.45463E+02-2.38195E+02-3.82241E+01 2.59470E+02
 -1      1490 7.28035E+02 7.88002E+02 7.37702E+02 2.44566E+02 7.59743E+01 2.41248E+02
 -1      1491 7.28035E+02 7.88002E+02 7.37702E+02-2.44566E+02-7.59743E+01 2.41248E+02
 -1      1492 8.43758E+02 9.80182E+02 9.21063E+02 1.22295E+02 9.42186E+01 1.08598E+02
 -1      1493 8.43758E+02 9.80182E+02 9.21063E+02-1.22295E+02-9.42186E+01 1.08598E+02
 -1      1494 8.64024E+02 1.01287E+03 9.70458E+02 3.86798E+01 1.12389E+02 2.16307E+01
 -1      1495 8.64024E+02 1.01287E+03 9.70458E+02-3.86798E+01-1.12389E+02 2.16307E+01
 -1      1496 8.41063E+02 1.00659E+03 9.87370E+02 1.07678E+01 1.19342E+02-3.67466E+00
 -1      1497 8.41063E+02 1.00659E+03 9.87370E+02-1.07678E+01-1.19342E+02-3.67466E+00
 -1      1498 7.77413E+02 9.99545E+02 9.90369E+02 5.87279E+00 1.19496E+02-4.16096E+00
 -1      1499 7.77413E+02 9.99545E+02 9.90369E+02-5.87279E+00-1.19496E+02-4.16096E+00
 -1      1500 7.08774E+02 9.94577E+02 9.86972E+02 7.78414E+00 1.18230E+02 1.14861E+00
 -1      1501 7.08774E+02 9.94577E+02 9.86972E+02-7.78414E+00-1.18230E+02 1.14861E+00
 -1      1502 6.59427E+02 9.91610E+02 9.82927E+02 1.03090E+01 1.17342E+02 5.97673E+00
 -1      1503 6.59427E+02 9.91610E+02 9.82927E+02-1.03090E+01-1.17342E+02 5.97673E+00
 -1      1504 6.31288E+02 9.90167E+02 9.80469E+02 1.19974E+01 1.16993E+02 9.10493E+00
 -1      1505 6.31288E+02 9.90167E+02 9.80469E+02-1.19974E+01-1.16993E+02 9.10493E+00
 -1      1506 6.17651E+02 9.89627E+02 9.79420E+02 1.28724E+01 1.16917E+02 1.08810E+01
 -1      1507 6.17651E+02 9.89627E+02 9.79420E+02-1.28724E+01-1.16917E+02 1.08810E+01
 -1      1508 6.12054E+02 9.89462E+02 9.78951E+02 1.31597E+01 1.16921E+02 1.17778E+01
 -1      1509 6.12054E+02 9.89462E+02 9.78951E+02-1.31597E+01-1.16921E+02 1.17778E+01
 -1      1510 6.09711E+02 9.89263E+02 9.78213E+02 1.28694E+01 1.16858E+02 1.19588E+01
 -1      1511 6.09711E+02 9.89263E+02 9.78213E+02-1.28694E+01-1.16858E+02 1.19588E+01
 -1      1512 6.07296E+02 9.88739E+02 9.76675E+02 1.17607E+01 1.16474E+02 1.12515E+01
 -1      1513 6.07296E+02 9.88739E+02 9.76675E+02-1.17607E+01-1.16474E+02 1.12515E+01
 -1      1514 6.07608E+02 9.87603E+02 9.74874E+02 9.37467E+00 1.15525E+02 9.39401E+00
 -1      1515 6.07608E+02 9.87603E+02 9.74874E+02-9.37467E+00-1.15525E+02 9.39401E+00
 -1      1516 6.31030E+02 9.84773E+02 9.75152E+02 6.36527E+00 1.14485E+02 6.86055E+00
 -1      1517 6.31030E+02 9.84773E+02 9.75152E+02-6.36527E+00-1.14485E+02 6.86055E+00
 -1      1518 7.06258E+02 9.71300E+02 9.72528E+02 6.48750E+00 1.15999E+02 7.86557E+00
 -1      1519 7.06258E+02 9.71300E+02 9.72528E+02-6.48750E+00-1.15999E+02 7.86557E+00
 -1      1520 7.69373E+02 9.34991E+02 9.46574E+02 2.79267E+01 1.26786E+02 3.62147E+01
 -1      1521 7.69373E+02 9.34991E+02 9.46574E+02-2.79267E+01-1.26786E+02 3.62147E+01
 -1      1522 6.78825E+02 9.46518E+02 9.20956E+02 7.34916E+01 1.22682E+02 8.94619E+01
 -1      1523 6.78825E+02 9.46518E+02 9.20956E+02-7.34916E+01-1.22682E+02 8.94619E+01
 -1      1524 6.12805E+02 1.21245E+03 1.07382E+03-3.78303E+01 8.66095E+01-3.42851E+01
 -1      1525 6.12805E+02 1.21245E+03 1.07382E+03 3.78303E+01-8.66095E+01-3.42851E+01
 -1      1526 5.49536E+02 1.09875E+03 9.73621E+02-3.55856E+02 7.85693E+01-3.74019E+02
 -1      1527 5.49536E+02 1.09875E+03 9.73621E+02 3.55856E+02-7.85693E+01-3.74019E+02
 -1      1528 2.36466E+02 1.68315E+02 2.36975E+02-3.96264E+02 5.97519E+01-4.13878E+02
 -1      1529 2.36466E+02 1.68315E+02 2.36975E+02 3.96264E+02-5.97519E+01-4.13878E+02
 -1      1530 2.23940E+02-5.64590E+00 9.97520E+01-1.52771E+02 4.86735E+01-1.48117E+02
 -1      1531 2.23940E+02-5.64590E+00 9.97520E+01 1.52771E+02-4.86735E+01-1.48117E+02
 -1      1532 1.22463E+02 1.76926E+01 5.90596E+01-3.33508E+01 8.94737E+00-1.55131E+01
 -1      1533 1.22463E+02 1.76926E+01 5.90596E+01 3.33508E+01-8.94737E+00-1.55131E+01
 -1      1534-7.96688E+02-7.96691E+02-1.85894E+03 1.05564E-02-1.24681E+03-1.11996E+03
 -1      1535 3.86027E+02 4.77064E+02 4.07726E+01 3.53226E+02 3.82311E+01 7.29336E+01
 -1      1536-1.46662E+03-1.46660E+03-3.42208E+03 1.45222E-02-2.12533E+03-9.93492E+02
 -1      1537 6.51925E+02 1.09630E+03 2.08530E+02 3.54694E+02 9.85889E+01 5.24234E+01
 -1      1538-1.84293E+03-1.84290E+03-4.30012E+03 1.06017E-02-2.73264E+03-6.24398E+02
 -1      1539 6.85720E+02 1.33221E+03 2.54992E+02 1.70896E+02 1.16633E+02 1.08914E+01
 -1      1540-1.98530E+03-1.98526E+03-4.63231E+03 4.81018E-03-2.97965E+03-2.85847E+02
 -1      1541 7.11079E+02 1.37794E+03 2.69816E+02 5.92607E+01 1.42957E+02-5.08617E+00
 -1      1542-1.99433E+03-1.99430E+03-4.65340E+03 1.27062E-03-3.03208E+03-8.78723E+01
 -1      1543 7.20293E+02 1.37793E+03 2.90220E+02 2.51890E+01 1.48986E+02-2.35381E+00
 -1      1544-1.97602E+03-1.97598E+03-4.61066E+03-1.26777E-04-3.02354E+03-2.36909E+00
 -1      1545 6.75821E+02 1.37093E+03 3.01600E+02 2.02457E+01 1.49117E+02 3.10907E+00
 -1      1546-1.96568E+03-1.96565E+03-4.58655E+03-5.74219E-04-3.01083E+03 2.98629E+01
 -1      1547 6.13591E+02 1.36469E+03 3.03002E+02 2.26212E+01 1.47987E+02 7.19523E+00
 -1      1548-1.96438E+03-1.96434E+03-4.58351E+03-7.57428E-04-3.00559E+03 4.44574E+01
 -1      1549 5.65082E+02 1.36080E+03 3.00650E+02 2.53292E+01 1.47249E+02 9.91297E+00
 -1      1550-1.96643E+03-1.96640E+03-4.58830E+03-8.88600E-04-3.00526E+03 5.40772E+01
 -1      1551 5.36700E+02 1.35910E+03 2.98524E+02 2.70896E+01 1.46971E+02 1.16915E+01
 -1      1552-1.96866E+03-1.96862E+03-4.59349E+03-1.00262E-03-3.00651E+03 6.17484E+01
 -1      1553 5.22940E+02 1.35864E+03 2.97400E+02 2.79777E+01 1.46898E+02 1.28473E+01
 -1      1554-1.97028E+03-1.97025E+03-4.59728E+03-1.10854E-03-3.00766E+03 6.85832E+01
 -1      1555 5.17170E+02 1.35859E+03 2.96767E+02 2.82204E+01 1.46891E+02 1.36160E+01
 -1      1556-1.97110E+03-1.97107E+03-4.59920E+03-1.23676E-03-3.00754E+03 7.64969E+01
 -1      1557 5.14134E+02 1.35834E+03 2.95913E+02 2.78039E+01 1.46814E+02 1.41848E+01
 -1      1558-1.96950E+03-1.96947E+03-4.59547E+03-1.44432E-03-3.00366E+03 8.85266E+01
 -1      1559 5.10329E+02 1.35722E+03 2.94686E+02 2.63603E+01 1.46514E+02 1.46764E+01
 -1      1560-1.96039E+03-1.96035E+03-4.57420E+03-1.76463E-03-2.99085E+03 1.06164E+02
 -1      1561 5.10188E+02 1.35481E+03 2.94963E+02 2.28760E+01 1.45390E+02 1.50198E+01
 -1      1562-1.93655E+03-1.93652E+03-4.51858E+03-2.03122E-03-2.96477E+03 1.20760E+02
 -1      1563 5.38174E+02 1.35018E+03 3.00985E+02 1.67688E+01 1.44400E+02 1.44819E+01
 -1      1564-1.90505E+03-1.90502E+03-4.44509E+03-1.70503E-03-2.93654E+03 1.06284E+02
 -1      1565 6.26455E+02 1.33621E+03 3.09367E+02 1.28196E+01 1.42456E+02 1.23321E+01
 -1      1566-1.92091E+03-1.92088E+03-4.48208E+03-5.19504E-04-2.95487E+03 5.81266E+01
 -1      1567 7.03959E+02 1.30150E+03 2.93812E+02 4.13458E+01 1.57879E+02 1.77056E+01
 -1      1568-2.05759E+03-2.05755E+03-4.80099E+03-9.69814E-04-3.08259E+03 1.10719E+02
 -1      1569 5.44242E+02 1.28334E+03 2.20221E+02 1.33824E+02 1.57681E+02 5.80684E+01
 -1      1570-2.18269E+03-2.18265E+03-5.09288E+03-9.46851E-03-3.16479E+03 5.17285E+02
 -1      1571 3.50185E+02 1.63290E+03 2.77566E+02-8.05647E+00 1.06727E+02 4.47266E+01
 -1      1572-1.75543E+03-1.75541E+03-4.09598E+03-1.96016E-02-2.55602E+03 1.12765E+03
 -1      1573 3.70985E+02 1.56249E+03 3.54002E+02-5.36937E+02 1.15928E+02-1.13500E+02
 -1      1574-7.31071E+02-7.31081E+02-1.70585E+03-1.26319E-02-1.20303E+03 1.25229E+03
 -1      1575 2.29858E+02 1.77063E+02 4.25483E+00-5.96878E+02 5.64557E+01-1.24175E+02
 -1      1576-1.21153E+02-1.21164E+02-2.82713E+02-3.38156E-03-3.44774E+02 8.22574E+02
 -1      1577 3.52650E+02 3.61258E+01 9.28381E+01-1.93876E+02 6.79022E+01 2.39667E+00
 -1      1578 4.23810E+01 4.23759E+01 9.88777E+01-3.83881E-04-6.19715E+01 4.06095E+02
 -1      1579 1.75145E+02 3.59045E+01 6.54732E+01-3.74127E+01-5.17405E-01 1.84896E+01
 -1      1580-1.03647E+03-1.03648E+03-2.41843E+03 1.23457E-02-1.15542E+03-1.18105E+03
 -1      1581 5.13498E+02 6.36509E+02 4.39266E+01 5.55876E+02-5.11904E+02 8.45217E+01
 -1      1582-1.94149E+03-1.94147E+03-4.53010E+03 1.58745E-02-2.00350E+03-1.02117E+03
 -1      1583 8.08076E+02 1.53432E+03 4.64065E+02 5.54034E+02-1.26047E+03 5.32137E+01
 -1      1584-2.43679E+03-2.43676E+03-5.68577E+03 1.10023E-02-2.57543E+03-6.14184E+02
 -1      1585 7.73046E+02 1.83319E+03 4.59985E+02 2.65367E+02-1.42506E+03-1.39530E+01
 -1      1586-2.60447E+03-2.60443E+03-6.07702E+03 4.62206E-03-2.80331E+03-2.67862E+02
 -1      1587 8.67793E+02 1.93866E+03 4.84555E+02 1.14163E+02-1.40384E+03-1.07003E+01
 -1      1588-2.60608E+03-2.60604E+03-6.08078E+03 9.90512E-04-2.84762E+03-7.42456E+01
 -1      1589 9.28874E+02 1.96051E+03 5.01429E+02 7.32493E+01-1.36731E+03 9.93525E-01
 -1      1590-2.57820E+03-2.57816E+03-6.01573E+03-3.19655E-04-2.83668E+03 5.53386E+00
 -1      1591 9.07026E+02 1.95495E+03 5.12597E+02 6.95062E+01-1.34706E+03 8.88354E+00
 -1      1592-2.56246E+03-2.56243E+03-5.97902E+03-6.83337E-04-2.82309E+03 3.48963E+01
 -1      1593 8.51016E+02 1.94531E+03 5.14063E+02 7.33482E+01-1.34077E+03 1.31669E+01
 -1      1594-2.55878E+03-2.55875E+03-5.97042E+03-8.17075E-04-2.81714E+03 4.84899E+01
 -1      1595 8.02638E+02 1.93894E+03 5.11700E+02 7.67949E+01-1.33945E+03 1.54795E+01
 -1      1596-2.55988E+03-2.55985E+03-5.97299E+03-9.21833E-04-2.81616E+03 5.77642E+01
 -1      1597 7.73435E+02 1.93638E+03 5.09595E+02 7.89585E+01-1.33958E+03 1.69406E+01
 -1      1598-2.56175E+03-2.56172E+03-5.97736E+03-1.02049E-03-2.81693E+03 6.52136E+01
 -1      1599 7.59067E+02 1.93582E+03 5.08405E+02 8.00499E+01-1.33986E+03 1.79140E+01
 -1      1600-2.56330E+03-2.56327E+03-5.98097E+03-1.11566E-03-2.81782E+03 7.17926E+01
 -1      1601 7.52753E+02 1.93589E+03 5.07723E+02 8.03632E+01-1.34015E+03 1.86286E+01
 -1      1602-2.56417E+03-2.56414E+03-5.98301E+03-1.23565E-03-2.81770E+03 7.93572E+01
 -1      1603 7.48620E+02 1.93541E+03 5.06740E+02 7.98869E+01-1.34056E+03 1.92729E+01
 -1      1604-2.56245E+03-2.56241E+03-5.97898E+03-1.44021E-03-2.81426E+03 9.10267E+01
 -1      1605 7.42900E+02 1.93311E+03 5.05701E+02 7.80517E+01-1.34101E+03 1.99731E+01
 -1      1606-2.55205E+03-2.55202E+03-5.95472E+03-1.77246E-03-2.80273E+03 1.08902E+02
 -1      1607 7.40097E+02 1.92710E+03 5.04845E+02 7.31827E+01-1.33980E+03 2.07863E+01
 -1      1608-2.52359E+03-2.52356E+03-5.88833E+03-2.06720E-03-2.77876E+03 1.25445E+02
 -1      1609 7.70319E+02 1.92004E+03 5.13090E+02 6.22657E+01-1.33293E+03 1.98495E+01
 -1      1610-2.48246E+03-2.48243E+03-5.79235E+03-1.70254E-03-2.75208E+03 1.12756E+02
 -1      1611 8.67562E+02 1.90614E+03 5.10371E+02 5.21503E+01-1.30201E+03 1.68242E+01
 -1      1612-2.49443E+03-2.49440E+03-5.82027E+03-2.37256E-04-2.76878E+03 5.62196E+01
 -1      1613 9.99994E+02 1.90487E+03 5.21370E+02 8.36718E+01-1.25963E+03 2.53005E+00
 -1      1614-2.66980E+03-2.66976E+03-6.22946E+03-3.18277E-04-2.89172E+03 8.41672E+01
 -1      1615 7.19268E+02 1.81970E+03 3.37392E+02 2.59486E+02-1.17535E+03 7.70305E+01
 -1      1616-2.87794E+03-2.87790E+03-6.71510E+03-9.47899E-03-2.98517E+03 4.96033E+02
 -1      1617 2.74589E+02 2.18113E+03 4.95431E+02 1.22163E+02-1.79854E+03 1.47397E+02
 -1      1618-2.33966E+03-2.33964E+03-5.45915E+03-2.15098E-02-2.42077E+03 1.17265E+03
 -1      1619 4.83048E+02 2.29504E+03 9.29560E+02-8.08203E+02-1.91925E+03-1.59021E+02
 -1      1620-9.13030E+02-9.13039E+02-2.13042E+03-1.46715E-02-1.11502E+03 1.30099E+03
 -1      1621 2.77806E+02 1.89936E+02-3.40840E+02-9.34387E+02 2.49165E+02-1.55100E+02
 -1      1622-1.31250E+02-1.31260E+02-3.06273E+02-4.61302E-03-3.10694E+02 8.13051E+02
 -1      1623 6.86815E+02 2.18680E+02 2.16685E+02-2.18584E+02 7.74505E+01 8.72813E+01
 -1      1624 4.74093E+01 4.74049E+01 1.10611E+02-8.12164E-04-5.33469E+01 3.81030E+02
 -1      1625 2.51230E+02 6.34969E+01 5.46874E+01-4.17275E+01 6.19889E+00 2.58453E+01
 -1      1626-1.38215E+03-1.38216E+03-3.22501E+03 1.25938E-02-9.98790E+02-1.33287E+03
 -1      1627-9.02363E+02-1.24360E+03-3.16700E+03 6.21272E+02-1.03425E+03-3.07701E+02
 -1      1628-2.61707E+03-2.61707E+03-6.10643E+03 1.59145E-02-1.75846E+03-1.13008E+03
 -1      1629-3.01131E+03-3.05775E+03-7.50517E+03 6.26198E+02-2.65272E+03-2.15773E+02
 -1      1630-3.28756E+03-3.28754E+03-7.67085E+03 1.06462E-02-2.25923E+03-6.49739E+02
 -1      1631-3.60157E+03-3.37953E+03-8.47311E+03 3.01542E+02-3.03081E+03-5.19927E+01
 -1      1632-3.50061E+03-3.50059E+03-8.16795E+03 4.16850E-03-2.45642E+03-2.61914E+02
 -1      1633-3.47331E+03-3.27852E+03-8.53342E+03 1.44856E+02-3.02765E+03 4.45139E+01
 -1      1634-3.49765E+03-3.49763E+03-8.16106E+03 6.84410E-04-2.49314E+03-6.00324E+01
 -1      1635-3.27848E+03-3.13123E+03-8.34564E+03 1.07867E+02-2.96954E+03 7.53167E+01
 -1      1636-3.45905E+03-3.45903E+03-8.07100E+03-4.64982E-04-2.48223E+03 1.64410E+01
 -1      1637-3.22495E+03-3.06380E+03-8.22166E+03 1.07121E+02-2.93147E+03 7.84174E+01
 -1      1638-3.43698E+03-3.43697E+03-8.01952E+03-7.31520E-04-2.46957E+03 4.21785E+01
 -1      1639-3.25400E+03-3.04847E+03-8.17567E+03 1.11847E+02-2.91779E+03 7.69124E+01
 -1      1640-3.43066E+03-3.43065E+03-8.00477E+03-8.14335E-04-2.46385E+03 5.39745E+01
 -1      1641-3.29575E+03-3.04902E+03-8.16450E+03 1.15193E+02-2.91425E+03 7.62992E+01
 -1      1642-3.43090E+03-3.43088E+03-8.00532E+03-8.90490E-04-2.46266E+03 6.25507E+01
 -1      1643-3.32486E+03-3.05152E+03-8.16484E+03 1.17142E+02-2.91424E+03 7.66895E+01
 -1      1644-3.43258E+03-3.43257E+03-8.00924E+03-9.70490E-04-2.46313E+03 6.97070E+01
 -1      1645-3.34019E+03-3.05275E+03-8.16672E+03 1.18110E+02-2.91488E+03 7.73507E+01
 -1      1646-3.43418E+03-3.43416E+03-8.01297E+03-1.05104E-03-2.46380E+03 7.60848E+01
 -1      1647-3.34775E+03-3.05357E+03-8.16880E+03 1.18416E+02-2.91564E+03 7.79966E+01
 -1      1648-3.43512E+03-3.43511E+03-8.01518E+03-1.15694E-03-2.46368E+03 8.35222E+01
 -1      1649-3.35358E+03-3.05529E+03-8.17117E+03 1.18045E+02-2.91651E+03 7.88103E+01
 -1      1650-3.43300E+03-3.43299E+03-8.01023E+03-1.34688E-03-2.46077E+03 9.54655E+01
 -1      1651-3.36139E+03-3.05906E+03-8.17280E+03 1.16317E+02-2.91699E+03 8.06477E+01
 -1      1652-3.42035E+03-3.42034E+03-7.98071E+03-1.67060E-03-2.45095E+03 1.14871E+02
 -1      1653-3.35957E+03-3.05841E+03-8.15746E+03 1.11126E+02-2.91310E+03 8.48070E+01
 -1      1654-3.38486E+03-3.38485E+03-7.89791E+03-1.97692E-03-2.43029E+03 1.34734E+02
 -1      1655-3.30857E+03-3.03843E+03-8.10806E+03 9.78026E+01-2.89785E+03 9.22494E+01
 -1      1656-3.33023E+03-3.33022E+03-7.77044E+03-1.61172E-03-2.40702E+03 1.21941E+02
 -1      1657-3.10639E+03-2.92981E+03-7.91048E+03 8.36843E+01-2.83783E+03 9.44840E+01
 -1      1658-3.33746E+03-3.33745E+03-7.78731E+03 2.27198E-05-2.42122E+03 4.57680E+01
 -1      1659-2.85318E+03-2.81696E+03-7.78705E+03 1.13307E+02-2.77480E+03 6.23263E+01
 -1      1660-3.56582E+03-3.56580E+03-8.32011E+03 3.77056E-04-2.52959E+03 4.06963E+01
 -1      1661-2.94378E+03-2.70590E+03-7.44065E+03 3.29029E+02-2.62846E+03-6.81262E+00
 -1      1662-3.88124E+03-3.88122E+03-9.05608E+03-8.84190E-03-2.62217E+03 5.01016E+02
 -1      1663-5.30267E+03-4.28367E+03-1.04646E+04 2.50219E+02-3.72963E+03 1.63071E+02
 -1      1664-3.18087E+03-3.18087E+03-7.42195E+03-2.19152E-02-2.13531E+03 1.32933E+03
 -1      1665-5.45296E+03-4.39517E+03-1.08480E+04-8.68262E+02-4.22082E+03 4.78398E+02
 -1      1666-1.19507E+03-1.19508E+03-2.78851E+03-1.48848E-02-9.67279E+02 1.47650E+03
 -1      1667 9.77506E+02 7.23291E+02 8.72034E+02-1.05705E+03 4.46974E+02 4.09947E+02
 -1      1668-1.61270E+02-1.61282E+02-3.76323E+02-4.74918E-03-2.65360E+02 8.64682E+02
 -1      1669 9.61126E+02 3.41828E+02 5.82584E+01-1.80749E+02 3.91441E+01 1.64451E+02
 -1      1670 5.11738E+01 5.11690E+01 1.19394E+02-9.54448E-04-4.42152E+01 3.69555E+02
 -1      1671 3.44300E+02 1.34260E+02 1.27937E+02-3.21365E+01 1.51725E+01 2.40959E+01
 -1      1672-1.71529E+03-1.71531E+03-4.00232E+03 1.04824E-02-7.41158E+02-1.49878E+03
 -1      1673-2.28921E+03-3.19594E+03-6.20252E+03 4.75982E+02-4.77877E+02-7.12801E+02
 -1      1674-3.27149E+03-3.27150E+03-7.63338E+03 1.32472E-02-1.31938E+03-1.25459E+03
 -1      1675-6.98880E+03-8.06105E+03-1.56152E+04 4.85759E+02-1.40476E+03-5.12702E+02
 -1      1676-4.11400E+03-4.11400E+03-9.59915E+03 8.67611E-03-1.69491E+03-6.98058E+02
 -1      1677-8.25938E+03-9.22045E+03-1.77722E+04 2.24698E+02-1.66350E+03-1.01331E+02
 -1      1678-4.37320E+03-4.37321E+03-1.02039E+04 3.21492E-03-1.84148E+03-2.62289E+02
 -1      1679-8.09938E+03-9.14469E+03-1.78986E+04 9.87460E+01-1.66415E+03 1.00181E+02
 -1      1680-4.36711E+03-4.36711E+03-1.01897E+04 3.93424E-04-1.86816E+03-4.77311E+01
 -1      1681-7.79134E+03-8.88710E+03-1.75699E+04 7.18990E+01-1.63555E+03 1.49828E+02
 -1      1682-4.31880E+03-4.31881E+03-1.00770E+04-4.71714E-04-1.85949E+03 2.69899E+01
 -1      1683-7.66913E+03-8.74567E+03-1.73397E+04 7.25149E+01-1.61619E+03 1.49192E+02
 -1      1684-4.29096E+03-4.29097E+03-1.00121E+04-6.37326E-04-1.84970E+03 4.94332E+01
 -1      1685-7.67287E+03-8.70307E+03-1.72509E+04 7.64343E+01-1.60908E+03 1.42179E+02
 -1      1686-4.28230E+03-4.28231E+03-9.99186E+03-6.76920E-04-1.84520E+03 5.93948E+01
 -1      1687-7.70826E+03-8.69690E+03-1.72271E+04 7.89328E+01-1.60733E+03 1.38663E+02
 -1      1688-4.28184E+03-4.28185E+03-9.99079E+03-7.24082E-04-1.84416E+03 6.72391E+01
 -1      1689-7.73739E+03-8.69936E+03-1.72264E+04 8.03216E+01-1.60744E+03 1.37992E+02
 -1      1690-4.28343E+03-4.28344E+03-9.99450E+03-7.80243E-04-1.84443E+03 7.41182E+01
 -1      1691-7.75410E+03-8.70184E+03-1.72302E+04 8.10115E+01-1.60792E+03 1.38350E+02
 -1      1692-4.28513E+03-4.28514E+03-9.99846E+03-8.39157E-04-1.84489E+03 8.03509E+01
 -1      1693-7.76334E+03-8.70418E+03-1.72349E+04 8.12400E+01-1.60846E+03 1.38945E+02
 -1      1694-4.28615E+03-4.28616E+03-1.00008E+04-9.19522E-04-1.84480E+03 8.77772E+01
 -1      1695-7.77125E+03-8.70776E+03-1.72400E+04 8.09871E+01-1.60906E+03 1.39983E+02
 -1      1696-4.28361E+03-4.28362E+03-9.99491E+03-1.06979E-03-1.84266E+03 1.00214E+02
 -1      1697-7.78083E+03-8.71267E+03-1.72424E+04 7.97391E+01-1.60925E+03 1.42987E+02
 -1      1698-4.26867E+03-4.26868E+03-9.96005E+03-1.33537E-03-1.83542E+03 1.21424E+02
 -1      1699-7.77484E+03-8.70462E+03-1.72132E+04 7.55543E+01-1.60753E+03 1.50661E+02
 -1      1700-4.22624E+03-4.22625E+03-9.86106E+03-1.59879E-03-1.82012E+03 1.44618E+02
 -1      1701-7.70089E+03-8.65123E+03-1.71168E+04 6.51673E+01-1.59771E+03 1.65659E+02
 -1      1702-4.15849E+03-4.15850E+03-9.70298E+03-1.29579E-03-1.80276E+03 1.30769E+02
 -1      1703-7.40729E+03-8.42892E+03-1.67496E+04 5.21121E+01-1.57268E+03 1.73324E+02
 -1      1704-4.16120E+03-4.16121E+03-9.70931E+03 1.73339E-04-1.81308E+03 3.34385E+01
 -1      1705-7.01755E+03-8.18498E+03-1.64789E+04 8.19558E+01-1.52004E+03 1.18628E+02
 -1      1706-4.44141E+03-4.44142E+03-1.03631E+04 7.48505E-04-1.89462E+03-1.76694E+00
 -1      1707-6.98634E+03-7.99697E+03-1.57816E+04 2.56840E+02-1.50793E+03-9.08640E+01
 -1      1708-4.86099E+03-4.86099E+03-1.13421E+04-6.99595E-03-1.97018E+03 5.16490E+02
 -1      1709-1.11033E+04-1.14160E+04-2.16249E+04 2.00304E+02-2.05732E+03 1.28284E+02
 -1      1710-4.00481E+03-4.00482E+03-9.34441E+03-1.85501E-02-1.60998E+03 1.50523E+03
 -1      1711-1.22862E+04-1.24255E+04-2.43129E+04-6.90263E+02-2.55233E+03 1.14817E+03
 -1      1712-1.47406E+03-1.47409E+03-3.43949E+03-1.23629E-02-7.20644E+02 1.67468E+03
 -1      1713 1.68075E+03 1.14998E+03 2.24343E+03-8.49227E+02 1.99455E+02 1.05635E+03
 -1      1714-1.92480E+02-1.92496E+02-4.49151E+02-3.85413E-03-1.95479E+02 9.33795E+02
 -1      1715 1.19929E+03 4.43512E+02-1.29768E+02-1.42325E+02 6.18096E+01 2.43646E+02
 -1      1716 5.48711E+01 5.48658E+01 1.28020E+02-8.12372E-04-3.20110E+01 3.66294E+02
 -1      1717 4.22820E+02 2.10243E+02 2.11263E+02-1.63412E+01 5.79900E+00 2.02629E+01
 -1      1718-1.94808E+03-1.94810E+03-4.54549E+03 5.98959E-03-3.95629E+02-1.62193E+03
 -1      1719-2.05757E+03-3.17044E+03-5.66714E+03 2.27370E+02 5.14169E+01-6.93859E+02
 -1      1720-3.73201E+03-3.73203E+03-8.70790E+03 7.59732E-03-7.08887E+02-1.34826E+03
 -1      1721-6.97696E+03-8.37334E+03-1.51567E+04 2.36537E+02-5.95828E+01-5.30800E+02
 -1      1722-4.69673E+03-4.69675E+03-1.09588E+04 4.92128E-03-9.10773E+02-7.36253E+02
 -1      1723-8.40034E+03-9.76738E+03-1.74390E+04 1.04329E+02-1.20748E+02-1.30587E+02
 -1      1724-4.98887E+03-4.98890E+03-1.16405E+04 1.76253E-03-9.89128E+02-2.64409E+02
 -1      1725-8.21975E+03-9.71879E+03-1.76062E+04 3.68974E+01-1.22751E+02 9.42005E+01
 -1      1726-4.98076E+03-4.98079E+03-1.16215E+04 1.67731E-04-1.00323E+03-3.94536E+01
 -1      1727-7.88487E+03-9.44441E+03-1.72888E+04 2.32851E+01-1.19934E+02 1.52857E+02
 -1      1728-4.92574E+03-4.92577E+03-1.14932E+04-2.98875E-04-9.98446E+02 3.45048E+01
 -1      1729-7.75448E+03-9.29511E+03-1.70671E+04 2.37524E+01-1.18931E+02 1.53962E+02
 -1      1730-4.89391E+03-4.89394E+03-1.14189E+04-3.75406E-04-9.93111E+02 5.46855E+01
 -1      1731-7.75537E+03-9.24965E+03-1.69797E+04 2.57129E+01-1.18698E+02 1.47205E+02
 -1      1732-4.88367E+03-4.88369E+03-1.13950E+04-3.88459E-04-9.90642E+02 6.33273E+01
 -1      1733-7.79027E+03-9.24310E+03-1.69557E+04 2.69366E+01-1.18694E+02 1.43458E+02
 -1      1734-4.88276E+03-4.88279E+03-1.13929E+04-4.10211E-04-9.90046E+02 7.06364E+01
 -1      1735-7.81948E+03-9.24562E+03-1.69547E+04 2.76138E+01-1.18792E+02 1.42623E+02
 -1      1736-4.88431E+03-4.88433E+03-1.13965E+04-4.39051E-04-9.90163E+02 7.73213E+01
 -1      1737-7.83637E+03-9.24816E+03-1.69581E+04 2.79572E+01-1.18876E+02 1.42899E+02
 -1      1738-4.88608E+03-4.88611E+03-1.14006E+04-4.70229E-04-9.90399E+02 8.34664E+01
 -1      1739-7.84580E+03-9.25054E+03-1.69625E+04 2.80706E+01-1.18950E+02 1.43481E+02
 -1      1740-4.88716E+03-4.88719E+03-1.14032E+04-5.13845E-04-9.90348E+02 9.09191E+01
 -1      1741-7.85412E+03-9.25433E+03-1.69674E+04 2.79426E+01-1.19012E+02 1.44600E+02
 -1      1742-4.88432E+03-4.88435E+03-1.13965E+04-5.97597E-04-9.89215E+02 1.03771E+02
 -1      1743-7.86410E+03-9.25914E+03-1.69686E+04 2.73362E+01-1.19033E+02 1.47768E+02
 -1      1744-4.86775E+03-4.86778E+03-1.13579E+04-7.48873E-04-9.85364E+02 1.26352E+02
 -1      1745-7.85987E+03-9.25121E+03-1.69414E+04 2.51412E+01-1.19047E+02 1.55908E+02
 -1      1746-4.82042E+03-4.82045E+03-1.12474E+04-9.03006E-04-9.77198E+02 1.51920E+02
 -1      1747-7.78269E+03-9.18902E+03-1.68381E+04 2.02014E+01-1.17673E+02 1.70037E+02
 -1      1748-4.74339E+03-4.74342E+03-1.10677E+04-7.29379E-04-9.67914E+02 1.36986E+02
 -1      1749-7.49527E+03-8.96704E+03-1.65118E+04 1.25897E+01-1.19981E+02 1.78244E+02
 -1      1750-4.74287E+03-4.74290E+03-1.10665E+04 1.51430E-04-9.73332E+02 2.41040E+01
 -1      1751-7.02521E+03-8.65693E+03-1.61576E+04 3.38152E+01-9.83237E+01 9.76929E+01
 -1      1752-5.06024E+03-5.06026E+03-1.18070E+04 5.77903E-04-1.01728E+03-3.17306E+01
 -1      1753-7.18582E+03-8.72096E+03-1.58005E+04 1.21293E+02-1.53511E+02-9.04877E+01
 -1      1754-5.55478E+03-5.55480E+03-1.29608E+04-3.89484E-03-1.05994E+03 5.30455E+02
 -1      1755-1.14404E+04-1.21996E+04-2.13010E+04 7.92187E+01-1.98050E+02 1.71744E+02
 -1      1756-4.59043E+03-4.59046E+03-1.07108E+04-1.07607E-02-8.68145E+02 1.63643E+03
 -1      1757-1.29905E+04-1.35169E+04-2.48199E+04-3.54120E+02-3.74362E+02 1.11380E+03
 -1      1758-1.67191E+03-1.67195E+03-3.90115E+03-7.06175E-03-3.85865E+02 1.82302E+03
 -1      1759 1.61307E+03 8.08053E+02 1.98581E+03-4.32503E+02-2.84500E+01 1.07955E+03
 -1      1760-2.14056E+02-2.14074E+02-4.99497E+02-2.14980E-03-1.03911E+02 9.88388E+02
 -1      1761 1.46847E+03 6.25836E+02 1.84027E+01-8.63894E+01 5.95164E+01 3.21898E+02
 -1      1762 5.78265E+01 5.78207E+01 1.34915E+02-4.60808E-04-1.68656E+01 3.66451E+02
 -1      1763 4.49778E+02 2.39051E+02 2.01851E+02-4.26724E+00-1.34477E+00 1.75082E+01
 -1      1764-2.03121E+03-2.03124E+03-4.73947E+03 6.00484E-11-5.94235E-06-1.66696E+03
 -1      1765-1.96786E+03-3.08197E+03-5.52813E+03 5.27589E-05-2.64709E-05-6.83122E+02
 -1      1766-3.89708E+03-3.89711E+03-9.09305E+03 2.60472E-11-7.74329E-06-1.38267E+03
 -1      1767-6.96426E+03-8.32072E+03-1.51390E+04 1.95137E-05-9.35965E-07-5.32889E+02
 -1      1768-4.90585E+03-4.90588E+03-1.14468E+04-9.44916E-12-5.49032E-06-7.50526E+02
 -1      1769-8.43713E+03-9.77363E+03-1.74723E+04 4.69769E-06-4.70469E-06-1.38656E+02
 -1      1770-5.20990E+03-5.20993E+03-1.21562E+04-6.10459E-12-4.18820E-06-2.65437E+02
 -1      1771-8.25345E+03-9.73890E+03-1.76577E+04 4.04014E-06 1.56993E-06 9.17394E+01
 -1      1772-5.20109E+03-5.20113E+03-1.21356E+04 6.20302E-13-3.85106E-06-3.65424E+01
 -1      1773-7.90923E+03-9.46164E+03-1.73410E+04 2.54384E-06-2.98420E-06 1.53552E+02
 -1      1774-5.14369E+03-5.14373E+03-1.20017E+04 3.80195E-12-3.82941E-06 3.72154E+01
 -1      1775-7.77574E+03-9.31128E+03-1.71191E+04 1.78007E-06 1.09409E-06 1.55289E+02
 -1      1776-5.11044E+03-5.11048E+03-1.19241E+04 6.23109E-12-3.99883E-06 5.65946E+01
 -1      1777-7.77588E+03-9.26586E+03-1.70319E+04 1.98006E-06-2.15933E-06 1.48641E+02
 -1      1778-5.09963E+03-5.09967E+03-1.18989E+04 8.01145E-12-4.44971E-06 6.47598E+01
 -1      1779-7.81050E+03-9.25930E+03-1.70074E+04 1.67517E-06-2.24437E-06 1.44876E+02
 -1      1780-5.09857E+03-5.09860E+03-1.18964E+04 8.91128E-12-4.99065E-06 7.18744E+01
 -1      1781-7.83976E+03-9.26191E+03-1.70062E+04 1.82079E-06-3.98533E-06 1.43989E+02
 -1      1782-5.10010E+03-5.10014E+03-1.19000E+04 7.97577E-12-5.72820E-06 7.84897E+01
 -1      1783-7.85671E+03-9.26446E+03-1.70096E+04 1.89285E-06 1.08117E-07 1.44245E+02
 -1      1784-5.10191E+03-5.10195E+03-1.19042E+04 5.63099E-12-6.26994E-06 8.46056E+01
 -1      1785-7.86625E+03-9.26684E+03-1.70141E+04 1.55291E-06-6.30867E-06 1.44826E+02
 -1      1786-5.10301E+03-5.10305E+03-1.19068E+04 4.09546E-12-6.69827E-06 9.20727E+01
 -1      1787-7.87464E+03-9.27060E+03-1.70188E+04 1.13348E-06-5.52834E-06 1.45956E+02
 -1      1788-5.10006E+03-5.10010E+03-1.18999E+04 3.49145E-12-7.12069E-06 1.05083E+02
 -1      1789-7.88502E+03-9.27563E+03-1.70203E+04 1.45343E-06-3.86379E-06 1.49214E+02
 -1      1790-5.08291E+03-5.08295E+03-1.18599E+04 1.63899E-12-7.65025E-06 1.28169E+02
 -1      1791-7.88050E+03-9.26711E+03-1.69916E+04 1.44229E-06-6.75270E-06 1.57269E+02
 -1      1792-5.03381E+03-5.03385E+03-1.17453E+04-1.27688E-12-7.99043E-06 1.54589E+02
 -1      1793-7.80493E+03-9.20544E+03-1.68907E+04 1.07104E-06-3.74426E-06 1.71599E+02
 -1      1794-4.95345E+03-4.95349E+03-1.15578E+04-9.71986E-13-8.21697E-06 1.39212E+02
 -1      1795-7.51225E+03-8.97963E+03-1.65600E+04 1.50756E-06-3.89282E-06 1.78444E+02
 -1      1796-4.95177E+03-4.95181E+03-1.15539E+04 7.06682E-12-8.48886E-06 2.06703E+01
 -1      1797-7.02965E+03-8.66552E+03-1.62063E+04 1.59344E-06-3.67815E-06 9.24000E+01
 -1      1798-5.28260E+03-5.28264E+03-1.23258E+04 1.14206E-11-9.23964E-06-4.24595E+01
 -1      1799-7.23115E+03-8.79875E+03-1.58911E+04 4.03833E-06-3.61004E-06-9.15848E+01
 -1      1800-5.80436E+03-5.80439E+03-1.35432E+04-4.07153E-11-1.04722E-05 5.35873E+02
 -1      1801-1.15745E+04-1.22903E+04-2.14466E+04 2.46090E-06-7.22437E-06 1.84046E+02
 -1      1802-4.80156E+03-4.80159E+03-1.12034E+04-1.25078E-10-8.71877E-06 1.68443E+03
 -1      1803-1.32005E+04-1.36618E+04-2.51383E+04-7.64802E-06-4.00070E-06 1.10198E+03
 -1      1804-1.74317E+03-1.74321E+03-4.06743E+03-8.19349E-11-3.18902E-06 1.87740E+03
 -1      1805 1.59907E+03 6.83785E+02 1.95396E+03-9.76162E-06-8.48082E-07 1.07749E+03
 -1      1806-2.21716E+02-2.21735E+02-5.17372E+02-2.89796E-11-5.49298E-07 1.00880E+03
 -1      1807 1.54767E+03 6.76621E+02 4.53372E+01-3.35665E-06 1.18559E-06 3.43495E+02
 -1      1808 5.89455E+01 5.89395E+01 1.37525E+02-8.80102E-12-1.83836E-07 3.66869E+02
 -1      1809 4.64545E+02 2.54501E+02 2.07037E+02-3.56395E-07 7.56176E-08 1.84479E+01
 -1      1810-1.94808E+03-1.94810E+03-4.54549E+03-5.98959E-03 3.95629E+02-1.62193E+03
 -1      1811-2.05757E+03-3.17044E+03-5.66714E+03-2.27370E+02-5.14170E+01-6.93859E+02
 -1      1812-3.73201E+03-3.73203E+03-8.70790E+03-7.59732E-03 7.08887E+02-1.34826E+03
 -1      1813-6.97696E+03-8.37334E+03-1.51567E+04-2.36537E+02 5.95828E+01-5.30800E+02
 -1      1814-4.69673E+03-4.69675E+03-1.09588E+04-4.92128E-03 9.10773E+02-7.36253E+02
 -1      1815-8.40034E+03-9.76738E+03-1.74390E+04-1.04329E+02 1.20748E+02-1.30587E+02
 -1      1816-4.98887E+03-4.98890E+03-1.16405E+04-1.76253E-03 9.89128E+02-2.64409E+02
 -1      1817-8.21975E+03-9.71879E+03-1.76062E+04-3.68974E+01 1.22751E+02 9.42005E+01
 -1      1818-4.98076E+03-4.98079E+03-1.16215E+04-1.67731E-04 1.00323E+03-3.94536E+01
 -1      1819-7.88487E+03-9.44441E+03-1.72888E+04-2.32851E+01 1.19934E+02 1.52857E+02
 -1      1820-4.92574E+03-4.92577E+03-1.14932E+04 2.98875E-04 9.98446E+02 3.45048E+01
 -1      1821-7.75448E+03-9.29511E+03-1.70671E+04-2.37524E+01 1.18931E+02 1.53962E+02
 -1      1822-4.89391E+03-4.89394E+03-1.14189E+04 3.75406E-04 9.93111E+02 5.46855E+01
 -1      1823-7.75537E+03-9.24965E+03-1.69797E+04-2.57129E+01 1.18698E+02 1.47205E+02
 -1      1824-4.88367E+03-4.88369E+03-1.13950E+04 3.88459E-04 9.90642E+02 6.33273E+01
 -1      1825-7.79027E+03-9.24310E+03-1.69557E+04-2.69366E+01 1.18694E+02 1.43458E+02
 -1      1826-4.88276E+03-4.88279E+03-1.13929E+04 4.10211E-04 9.90046E+02 7.06364E+01
 -1      1827-7.81948E+03-9.24562E+03-1.69547E+04-2.76138E+01 1.18792E+02 1.42623E+02
 -1      1828-4.88431E+03-4.88433E+03-1.13965E+04 4.39051E-04 9.90163E+02 7.73213E+01
 -1      1829-7.83637E+03-9.24816E+03-1.69581E+04-2.79572E+01 1.18876E+02 1.42899E+02
 -1      1830-4.88608E+03-4.88611E+03-1.14006E+04 4.70229E-04 9.90399E+02 8.34664E+01
 -1      1831-7.84580E+03-9.25054E+03-1.69625E+04-2.80705E+01 1.18950E+02 1.43481E+02
 -1      1832-4.88716E+03-4.88719E+03-1.14032E+04 5.13845E-04 9.90348E+02 9.09191E+01
 -1      1833-7.85412E+03-9.25433E+03-1.69674E+04-2.79426E+01 1.19012E+02 1.44600E+02
 -1      1834-4.88432E+03-4.88435E+03-1.13965E+04 5.97597E-04 9.89215E+02 1.03771E+02
 -1      1835-7.86410E+03-9.25914E+03-1.69686E+04-2.73362E+01 1.19033E+02 1.47768E+02
 -1      1836-4.86775E+03-4.86778E+03-1.13579E+04 7.48873E-04 9.85364E+02 1.26352E+02
 -1      1837-7.85987E+03-9.25121E+03-1.69414E+04-2.51412E+01 1.19047E+02 1.55908E+02
 -1      1838-4.82042E+03-4.82045E+03-1.12474E+04 9.03006E-04 9.77198E+02 1.51920E+02
 -1      1839-7.78269E+03-9.18902E+03-1.68381E+04-2.02014E+01 1.17673E+02 1.70037E+02
 -1      1840-4.74339E+03-4.74342E+03-1.10677E+04 7.29379E-04 9.67914E+02 1.36986E+02
 -1      1841-7.49527E+03-8.96704E+03-1.65118E+04-1.25897E+01 1.19981E+02 1.78244E+02
 -1      1842-4.74287E+03-4.74290E+03-1.10665E+04-1.51430E-04 9.73332E+02 2.41040E+01
 -1      1843-7.02521E+03-8.65693E+03-1.61576E+04-3.38152E+01 9.83237E+01 9.76929E+01
 -1      1844-5.06024E+03-5.06026E+03-1.18070E+04-5.77902E-04 1.01728E+03-3.17306E+01
 -1      1845-7.18582E+03-8.72096E+03-1.58005E+04-1.21293E+02 1.53511E+02-9.04877E+01
 -1      1846-5.55478E+03-5.55480E+03-1.29608E+04 3.89484E-03 1.05994E+03 5.30455E+02
 -1      1847-1.14404E+04-1.21996E+04-2.13010E+04-7.92187E+01 1.98050E+02 1.71744E+02
 -1      1848-4.59043E+03-4.59046E+03-1.07108E+04 1.07607E-02 8.68145E+02 1.63643E+03
 -1      1849-1.29905E+04-1.35169E+04-2.48199E+04 3.54120E+02 3.74362E+02 1.11380E+03
 -1      1850-1.67191E+03-1.67195E+03-3.90115E+03 7.06175E-03 3.85865E+02 1.82302E+03
 -1      1851 1.61307E+03 8.08053E+02 1.98581E+03 4.32503E+02 2.84500E+01 1.07955E+03
 -1      1852-2.14056E+02-2.14074E+02-4.99497E+02 2.14980E-03 1.03911E+02 9.88388E+02
 -1      1853 1.46847E+03 6.25836E+02 1.84027E+01 8.63894E+01-5.95164E+01 3.21898E+02
 -1      1854 5.78265E+01 5.78207E+01 1.34915E+02 4.60808E-04 1.68656E+01 3.66451E+02
 -1      1855 4.49778E+02 2.39051E+02 2.01851E+02 4.26724E+00 1.34477E+00 1.75082E+01
 -1      1856-1.71529E+03-1.71531E+03-4.00232E+03-1.04824E-02 7.41158E+02-1.49878E+03
 -1      1857-2.28921E+03-3.19594E+03-6.20252E+03-4.75982E+02 4.77877E+02-7.12801E+02
 -1      1858-3.27149E+03-3.27150E+03-7.63338E+03-1.32472E-02 1.31938E+03-1.25459E+03
 -1      1859-6.98880E+03-8.06105E+03-1.56152E+04-4.85759E+02 1.40476E+03-5.12702E+02
 -1      1860-4.11400E+03-4.11400E+03-9.59915E+03-8.67611E-03 1.69491E+03-6.98058E+02
 -1      1861-8.25938E+03-9.22045E+03-1.77722E+04-2.24698E+02 1.66350E+03-1.01331E+02
 -1      1862-4.37320E+03-4.37321E+03-1.02039E+04-3.21492E-03 1.84148E+03-2.62289E+02
 -1      1863-8.09938E+03-9.14469E+03-1.78986E+04-9.87460E+01 1.66415E+03 1.00181E+02
 -1      1864-4.36711E+03-4.36711E+03-1.01897E+04-3.93424E-04 1.86816E+03-4.77311E+01
 -1      1865-7.79134E+03-8.88710E+03-1.75699E+04-7.18990E+01 1.63555E+03 1.49828E+02
 -1      1866-4.31880E+03-4.31881E+03-1.00770E+04 4.71714E-04 1.85949E+03 2.69899E+01
 -1      1867-7.66913E+03-8.74567E+03-1.73397E+04-7.25149E+01 1.61619E+03 1.49192E+02
 -1      1868-4.29096E+03-4.29097E+03-1.00121E+04 6.37326E-04 1.84970E+03 4.94332E+01
 -1      1869-7.67287E+03-8.70307E+03-1.72509E+04-7.64343E+01 1.60908E+03 1.42179E+02
 -1      1870-4.28230E+03-4.28231E+03-9.99186E+03 6.76920E-04 1.84520E+03 5.93948E+01
 -1      1871-7.70826E+03-8.69690E+03-1.72271E+04-7.89328E+01 1.60733E+03 1.38663E+02
 -1      1872-4.28184E+03-4.28185E+03-9.99079E+03 7.24082E-04 1.84416E+03 6.72391E+01
 -1      1873-7.73739E+03-8.69936E+03-1.72264E+04-8.03216E+01 1.60744E+03 1.37992E+02
 -1      1874-4.28343E+03-4.28344E+03-9.99450E+03 7.80243E-04 1.84443E+03 7.41182E+01
 -1      1875-7.75410E+03-8.70184E+03-1.72302E+04-8.10115E+01 1.60792E+03 1.38350E+02
 -1      1876-4.28513E+03-4.28514E+03-9.99846E+03 8.39157E-04 1.84489E+03 8.03509E+01
 -1      1877-7.76334E+03-8.70418E+03-1.72349E+04-8.12400E+01 1.60846E+03 1.38945E+02
 -1      1878-4.28615E+03-4.28616E+03-1.00008E+04 9.19522E-04 1.84480E+03 8.77772E+01
 -1      1879-7.77125E+03-8.70776E+03-1.72400E+04-8.09871E+01 1.60906E+03 1.39983E+02
 -1      1880-4.28361E+03-4.28362E+03-9.99491E+03 1.06979E-03 1.84266E+03 1.00214E+02
 -1      1881-7.78083E+03-8.71267E+03-1.72424E+04-7.97391E+01 1.60925E+03 1.42987E+02
 -1      1882-4.26867E+03-4.26868E+03-9.96005E+03 1.33537E-03 1.83542E+03 1.21424E+02
 -1      1883-7.77484E+03-8.70462E+03-1.72132E+04-7.55543E+01 1.60753E+03 1.50661E+02
 -1      1884-4.22624E+03-4.22625E+03-9.86106E+03 1.59879E-03 1.82012E+03 1.44618E+02
 -1      1885-7.70089E+03-8.65123E+03-1.71168E+04-6.51673E+01 1.59771E+03 1.65659E+02
 -1      1886-4.15849E+03-4.15850E+03-9.70298E+03 1.29579E-03 1.80276E+03 1.30769E+02
 -1      1887-7.40729E+03-8.42892E+03-1.67496E+04-5.21121E+01 1.57268E+03 1.73324E+02
 -1      1888-4.16120E+03-4.16121E+03-9.70931E+03-1.73339E-04 1.81308E+03 3.34385E+01
 -1      1889-7.01755E+03-8.18498E+03-1.64789E+04-8.19558E+01 1.52004E+03 1.18628E+02
 -1      1890-4.44141E+03-4.44142E+03-1.03631E+04-7.48505E-04 1.89462E+03-1.76694E+00
 -1      1891-6.98634E+03-7.99697E+03-1.57816E+04-2.56840E+02 1.50793E+03-9.08640E+01
 -1      1892-4.86099E+03-4.86099E+03-1.13421E+04 6.99595E-03 1.97018E+03 5.16490E+02
 -1      1893-1.11033E+04-1.14160E+04-2.16249E+04-2.00304E+02 2.05732E+03 1.28284E+02
 -1      1894-4.00481E+03-4.00482E+03-9.34441E+03 1.85501E-02 1.60998E+03 1.50523E+03
 -1      1895-1.22862E+04-1.24255E+04-2.43129E+04 6.90263E+02 2.55233E+03 1.14817E+03
 -1      1896-1.47406E+03-1.47409E+03-3.43949E+03 1.23629E-02 7.20644E+02 1.67468E+03
 -1      1897 1.68075E+03 1.14998E+03 2.24343E+03 8.49227E+02-1.99455E+02 1.05635E+03
 -1      1898-1.92480E+02-1.92496E+02-4.49151E+02 3.85413E-03 1.95479E+02 9.33795E+02
 -1      1899 1.19929E+03 4.43512E+02-1.29768E+02 1.42325E+02-6.18096E+01 2.43646E+02
 -1      1900 5.48711E+01 5.48658E+01 1.28020E+02 8.12372E-04 3.20110E+01 3.66294E+02
 -1      1901 4.22820E+02 2.10243E+02 2.11263E+02 1.63412E+01-5.79900E+00 2.02629E+01
 -1      1902-1.38215E+03-1.38216E+03-3.22501E+03-1.25938E-02 9.98790E+02-1.33287E+03
 -1      1903-9.02364E+02-1.24360E+03-3.16700E+03-6.21272E+02 1.03425E+03-3.07701E+02
 -1      1904-2.61707E+03-2.61707E+03-6.10643E+03-1.59145E-02 1.75846E+03-1.13008E+03
 -1      1905-3.01131E+03-3.05775E+03-7.50517E+03-6.26198E+02 2.65272E+03-2.15773E+02
 -1      1906-3.28756E+03-3.28754E+03-7.67085E+03-1.06462E-02 2.25923E+03-6.49739E+02
 -1      1907-3.60157E+03-3.37953E+03-8.47311E+03-3.01542E+02 3.03081E+03-5.19927E+01
 -1      1908-3.50061E+03-3.50059E+03-8.16795E+03-4.16850E-03 2.45642E+03-2.61914E+02
 -1      1909-3.47331E+03-3.27852E+03-8.53342E+03-1.44856E+02 3.02765E+03 4.45139E+01
 -1      1910-3.49765E+03-3.49763E+03-8.16106E+03-6.84410E-04 2.49314E+03-6.00324E+01
 -1      1911-3.27848E+03-3.13123E+03-8.34564E+03-1.07867E+02 2.96954E+03 7.53167E+01
 -1      1912-3.45905E+03-3.45903E+03-8.07100E+03 4.64982E-04 2.48223E+03 1.64410E+01
 -1      1913-3.22495E+03-3.06380E+03-8.22166E+03-1.07121E+02 2.93147E+03 7.84174E+01
 -1      1914-3.43698E+03-3.43697E+03-8.01952E+03 7.31520E-04 2.46957E+03 4.21785E+01
 -1      1915-3.25400E+03-3.04847E+03-8.17567E+03-1.11847E+02 2.91779E+03 7.69124E+01
 -1      1916-3.43066E+03-3.43065E+03-8.00477E+03 8.14335E-04 2.46385E+03 5.39745E+01
 -1      1917-3.29575E+03-3.04902E+03-8.16451E+03-1.15193E+02 2.91425E+03 7.62992E+01
 -1      1918-3.43090E+03-3.43088E+03-8.00532E+03 8.90490E-04 2.46266E+03 6.25507E+01
 -1      1919-3.32486E+03-3.05152E+03-8.16484E+03-1.17142E+02 2.91424E+03 7.66895E+01
 -1      1920-3.43258E+03-3.43257E+03-8.00924E+03 9.70490E-04 2.46313E+03 6.97070E+01
 -1      1921-3.34019E+03-3.05275E+03-8.16672E+03-1.18110E+02 2.91488E+03 7.73507E+01
 -1      1922-3.43418E+03-3.43416E+03-8.01297E+03 1.05104E-03 2.46380E+03 7.60848E+01
 -1      1923-3.34775E+03-3.05357E+03-8.16880E+03-1.18416E+02 2.91564E+03 7.79966E+01
 -1      1924-3.43512E+03-3.43511E+03-8.01518E+03 1.15694E-03 2.46368E+03 8.35222E+01
 -1      1925-3.35358E+03-3.05529E+03-8.17117E+03-1.18045E+02 2.91651E+03 7.88103E+01
 -1      1926-3.43300E+03-3.43299E+03-8.01023E+03 1.34688E-03 2.46077E+03 9.54655E+01
 -1      1927-3.36139E+03-3.05906E+03-8.17280E+03-1.16317E+02 2.91699E+03 8.06477E+01
 -1      1928-3.42035E+03-3.42034E+03-7.98071E+03 1.67060E-03 2.45095E+03 1.14871E+02
 -1      1929-3.35957E+03-3.05841E+03-8.15746E+03-1.11126E+02 2.91310E+03 8.48070E+01
 -1      1930-3.38486E+03-3.38485E+03-7.89791E+03 1.97692E-03 2.43029E+03 1.34734E+02
 -1      1931-3.30857E+03-3.03843E+03-8.10806E+03-9.78026E+01 2.89785E+03 9.22494E+01
 -1      1932-3.33023E+03-3.33022E+03-7.77044E+03 1.61172E-03 2.40702E+03 1.21941E+02
 -1      1933-3.10639E+03-2.92981E+03-7.91048E+03-8.36843E+01 2.83783E+03 9.44840E+01
 -1      1934-3.33746E+03-3.33745E+03-7.78731E+03-2.27198E-05 2.42122E+03 4.57680E+01
 -1      1935-2.85318E+03-2.81696E+03-7.78705E+03-1.13307E+02 2.77480E+03 6.23263E+01
 -1      1936-3.56582E+03-3.56580E+03-8.32011E+03-3.77056E-04 2.52959E+03 4.06963E+01
 -1      1937-2.94378E+03-2.70590E+03-7.44065E+03-3.29029E+02 2.62846E+03-6.81263E+00
 -1      1938-3.88124E+03-3.88122E+03-9.05608E+03 8.84190E-03 2.62217E+03 5.01016E+02
 -1      1939-5.30267E+03-4.28367E+03-1.04646E+04-2.50219E+02 3.72963E+03 1.63071E+02
 -1      1940-3.18087E+03-3.18087E+03-7.42195E+03 2.19152E-02 2.13531E+03 1.32933E+03
 -1      1941-5.45296E+03-4.39517E+03-1.08480E+04 8.68262E+02 4.22082E+03 4.78398E+02
 -1      1942-1.19507E+03-1.19508E+03-2.78851E+03 1.48848E-02 9.67279E+02 1.47650E+03
 -1      1943 9.77506E+02 7.23291E+02 8.72034E+02 1.05705E+03-4.46974E+02 4.09947E+02
 -1      1944-1.61270E+02-1.61282E+02-3.76323E+02 4.74918E-03 2.65360E+02 8.64682E+02
 -1      1945 9.61126E+02 3.41828E+02 5.82584E+01 1.80749E+02-3.91441E+01 1.64451E+02
 -1      1946 5.11738E+01 5.11690E+01 1.19394E+02 9.54448E-04 4.42152E+01 3.69555E+02
 -1      1947 3.44300E+02 1.34260E+02 1.27937E+02 3.21365E+01-1.51725E+01 2.40959E+01
 -1      1948-1.03647E+03-1.03648E+03-2.41843E+03-1.23457E-02 1.15542E+03-1.18105E+03
 -1      1949 5.13498E+02 6.36509E+02 4.39266E+01-5.55876E+02 5.11904E+02 8.45217E+01
 -1      1950-1.94149E+03-1.94147E+03-4.53010E+03-1.58745E-02 2.00350E+03-1.02117E+03
 -1      1951 8.08076E+02 1.53432E+03 4.64065E+02-5.54034E+02 1.26047E+03 5.32137E+01
 -1      1952-2.43679E+03-2.43676E+03-5.68577E+03-1.10023E-02 2.57543E+03-6.14184E+02
 -1      1953 7.73046E+02 1.83319E+03 4.59985E+02-2.65367E+02 1.42506E+03-1.39530E+01
 -1      1954-2.60447E+03-2.60443E+03-6.07702E+03-4.62206E-03 2.80331E+03-2.67862E+02
 -1      1955 8.67793E+02 1.93866E+03 4.84555E+02-1.14163E+02 1.40384E+03-1.07003E+01
 -1      1956-2.60608E+03-2.60604E+03-6.08078E+03-9.90512E-04 2.84762E+03-7.42456E+01
 -1      1957 9.28874E+02 1.96051E+03 5.01429E+02-7.32493E+01 1.36731E+03 9.93525E-01
 -1      1958-2.57820E+03-2.57816E+03-6.01573E+03 3.19655E-04 2.83668E+03 5.53386E+00
 -1      1959 9.07026E+02 1.95495E+03 5.12597E+02-6.95062E+01 1.34706E+03 8.88354E+00
 -1      1960-2.56246E+03-2.56243E+03-5.97902E+03 6.83337E-04 2.82309E+03 3.48963E+01
 -1      1961 8.51016E+02 1.94531E+03 5.14063E+02-7.33482E+01 1.34077E+03 1.31669E+01
 -1      1962-2.55878E+03-2.55875E+03-5.97042E+03 8.17075E-04 2.81714E+03 4.84899E+01
 -1      1963 8.02638E+02 1.93894E+03 5.11700E+02-7.67949E+01 1.33945E+03 1.54795E+01
 -1      1964-2.55988E+03-2.55985E+03-5.97299E+03 9.21833E-04 2.81616E+03 5.77641E+01
 -1      1965 7.73435E+02 1.93638E+03 5.09595E+02-7.89585E+01 1.33958E+03 1.69406E+01
 -1      1966-2.56175E+03-2.56172E+03-5.97736E+03 1.02049E-03 2.81693E+03 6.52136E+01
 -1      1967 7.59067E+02 1.93582E+03 5.08405E+02-8.00499E+01 1.33986E+03 1.79140E+01
 -1      1968-2.56330E+03-2.56327E+03-5.98097E+03 1.11566E-03 2.81782E+03 7.17926E+01
 -1      1969 7.52753E+02 1.93589E+03 5.07723E+02-8.03632E+01 1.34015E+03 1.86286E+01
 -1      1970-2.56417E+03-2.56414E+03-5.98301E+03 1.23565E-03 2.81770E+03 7.93572E+01
 -1      1971 7.48620E+02 1.93541E+03 5.06740E+02-7.98870E+01 1.34056E+03 1.92729E+01
 -1      1972-2.56245E+03-2.56241E+03-5.97898E+03 1.44021E-03 2.81426E+03 9.10267E+01
 -1      1973 7.42900E+02 1.93311E+03 5.05701E+02-7.80517E+01 1.34101E+03 1.99731E+01
 -1      1974-2.55205E+03-2.55202E+03-5.95472E+03 1.77246E-03 2.80273E+03 1.08902E+02
 -1      1975 7.40097E+02 1.92710E+03 5.04845E+02-7.31827E+01 1.33980E+03 2.07863E+01
 -1      1976-2.52359E+03-2.52356E+03-5.88833E+03 2.06720E-03 2.77876E+03 1.25445E+02
 -1      1977 7.70319E+02 1.92004E+03 5.13090E+02-6.22657E+01 1.33293E+03 1.98495E+01
 -1      1978-2.48246E+03-2.48243E+03-5.79235E+03 1.70254E-03 2.75208E+03 1.12756E+02
 -1      1979 8.67562E+02 1.90614E+03 5.10371E+02-5.21503E+01 1.30201E+03 1.68242E+01
 -1      1980-2.49443E+03-2.49440E+03-5.82027E+03 2.37256E-04 2.76878E+03 5.62196E+01
 -1      1981 9.99994E+02 1.90487E+03 5.21370E+02-8.36718E+01 1.25963E+03 2.53005E+00
 -1      1982-2.66980E+03-2.66976E+03-6.22946E+03 3.18277E-04 2.89172E+03 8.41672E+01
 -1      1983 7.19268E+02 1.81970E+03 3.37392E+02-2.59486E+02 1.17535E+03 7.70305E+01
 -1      1984-2.87794E+03-2.87790E+03-6.71510E+03 9.47899E-03 2.98517E+03 4.96033E+02
 -1      1985 2.74589E+02 2.18113E+03 4.95431E+02-1.22163E+02 1.79854E+03 1.47397E+02
 -1      1986-2.33966E+03-2.33964E+03-5.45915E+03 2.15098E-02 2.42077E+03 1.17265E+03
 -1      1987 4.83048E+02 2.29504E+03 9.29560E+02 8.08203E+02 1.91925E+03-1.59021E+02
 -1      1988-9.13030E+02-9.13039E+02-2.13042E+03 1.46715E-02 1.11502E+03 1.30099E+03
 -1      1989 2.77806E+02 1.89936E+02-3.40840E+02 9.34387E+02-2.49165E+02-1.55100E+02
 -1      1990-1.31250E+02-1.31260E+02-3.06273E+02 4.61302E-03 3.10694E+02 8.13051E+02
 -1      1991 6.86815E+02 2.18680E+02 2.16685E+02 2.18584E+02-7.74505E+01 8.72813E+01
 -1      1992 4.74093E+01 4.74049E+01 1.10611E+02 8.12164E-04 5.33469E+01 3.81030E+02
 -1      1993 2.51230E+02 6.34969E+01 5.46874E+01 4.17275E+01-6.19889E+00 2.58453E+01
 -1      1994-7.96688E+02-7.96691E+02-1.85894E+03-1.05564E-02 1.24681E+03-1.11996E+03
 -1      1995 3.86027E+02 4.77064E+02 4.07726E+01-3.53226E+02-3.82311E+01 7.29336E+01
 -1      1996-1.46662E+03-1.46660E+03-3.42208E+03-1.45222E-02 2.12533E+03-9.93492E+02
 -1      1997 6.51925E+02 1.09630E+03 2.08530E+02-3.54694E+02-9.85889E+01 5.24234E+01
 -1      1998-1.84293E+03-1.84290E+03-4.30012E+03-1.06017E-02 2.73264E+03-6.24398E+02
 -1      1999 6.85720E+02 1.33221E+03 2.54992E+02-1.70896E+02-1.16633E+02 1.08914E+01
 -1      2000-1.98530E+03-1.98526E+03-4.63231E+03-4.81018E-03 2.97965E+03-2.85847E+02
 -1      2001 7.11079E+02 1.37794E+03 2.69816E+02-5.92607E+01-1.42957E+02-5.08616E+00
 -1      2002-1.99433E+03-1.99430E+03-4.65340E+03-1.27062E-03 3.03208E+03-8.78723E+01
 -1      2003 7.20293E+02 1.37793E+03 2.90220E+02-2.51890E+01-1.48986E+02-2.35381E+00
 -1      2004-1.97602E+03-1.97598E+03-4.61066E+03 1.26777E-04 3.02354E+03-2.36909E+00
 -1      2005 6.75821E+02 1.37093E+03 3.01600E+02-2.02457E+01-1.49117E+02 3.10907E+00
 -1      2006-1.96568E+03-1.96565E+03-4.58655E+03 5.74219E-04 3.01083E+03 2.98629E+01
 -1      2007 6.13591E+02 1.36469E+03 3.03002E+02-2.26212E+01-1.47987E+02 7.19523E+00
 -1      2008-1.96438E+03-1.96434E+03-4.58351E+03 7.57428E-04 3.00559E+03 4.44574E+01
 -1      2009 5.65082E+02 1.36080E+03 3.00650E+02-2.53292E+01-1.47249E+02 9.91297E+00
 -1      2010-1.96643E+03-1.96640E+03-4.58830E+03 8.88600E-04 3.00526E+03 5.40772E+01
 -1      2011 5.36700E+02 1.35910E+03 2.98524E+02-2.70896E+01-1.46971E+02 1.16915E+01
 -1      2012-1.96866E+03-1.96862E+03-4.59349E+03 1.00262E-03 3.00651E+03 6.17484E+01
 -1      2013 5.22940E+02 1.35864E+03 2.97400E+02-2.79777E+01-1.46898E+02 1.28473E+01
 -1      2014-1.97028E+03-1.97025E+03-4.59728E+03 1.10854E-03 3.00766E+03 6.85832E+01
 -1      2015 5.17170E+02 1.35859E+03 2.96767E+02-2.82204E+01-1.46891E+02 1.36160E+01
 -1      2016-1.97110E+03-1.97107E+03-4.59920E+03 1.23676E-03 3.00754E+03 7.64969E+01
 -1      2017 5.14134E+02 1.35834E+03 2.95913E+02-2.78039E+01-1.46814E+02 1.41848E+01
 -1      2018-1.96950E+03-1.96947E+03-4.59547E+03 1.44432E-03 3.00366E+03 8.85266E+01
 -1      2019 5.10329E+02 1.35722E+03 2.94686E+02-2.63603E+01-1.46514E+02 1.46764E+01
 -1      2020-1.96039E+03-1.96035E+03-4.57420E+03 1.76463E-03 2.99085E+03 1.06164E+02
 -1      2021 5.10188E+02 1.35481E+03 2.94963E+02-2.28760E+01-1.45390E+02 1.50198E+01
 -1      2022-1.93655E+03-1.93652E+03-4.51858E+03 2.03122E-03 2.96477E+03 1.20760E+02
 -1      2023 5.38174E+02 1.35018E+03 3.00985E+02-1.67688E+01-1.44400E+02 1.44819E+01
 -1      2024-1.90505E+03-1.90502E+03-4.44509E+03 1.70503E-03 2.93654E+03 1.06284E+02
 -1      2025 6.26455E+02 1.33621E+03 3.09367E+02-1.28196E+01-1.42456E+02 1.23321E+01
 -1      2026-1.92091E+03-1.92088E+03-4.48208E+03 5.19504E-04 2.95487E+03 5.81266E+01
 -1      2027 7.03959E+02 1.30150E+03 2.93812E+02-4.13458E+01-1.57879E+02 1.77056E+01
 -1      2028-2.05759E+03-2.05755E+03-4.80099E+03 9.69814E-04 3.08259E+03 1.10719E+02
 -1      2029 5.44242E+02 1.28334E+03 2.20221E+02-1.33824E+02-1.57681E+02 5.80684E+01
 -1      2030-2.18269E+03-2.18265E+03-5.09288E+03 9.46851E-03 3.16479E+03 5.17285E+02
 -1      2031 3.50185E+02 1.63290E+03 2.77566E+02 8.05647E+00-1.06727E+02 4.47266E+01
 -1      2032-1.75543E+03-1.75541E+03-4.09598E+03 1.96016E-02 2.55602E+03 1.12765E+03
 -1      2033 3.70985E+02 1.56249E+03 3.54002E+02 5.36937E+02-1.15928E+02-1.13500E+02
 -1      2034-7.31071E+02-7.31081E+02-1.70585E+03 1.26319E-02 1.20303E+03 1.25229E+03
 -1      2035 2.29858E+02 1.77063E+02 4.25482E+00 5.96878E+02-5.64557E+01-1.24175E+02
 -1      2036-1.21153E+02-1.21164E+02-2.82713E+02 3.38156E-03 3.44774E+02 8.22574E+02
 -1      2037 3.52650E+02 3.61258E+01 9.28381E+01 1.93876E+02-6.79022E+01 2.39667E+00
 -1      2038 4.23810E+01 4.23759E+01 9.88777E+01 3.83881E-04 6.19715E+01 4.06095E+02
 -1      2039 1.75145E+02 3.59045E+01 6.54732E+01 3.74127E+01 5.17406E-01 1.84896E+01
 -1      2040-4.28355E+02-2.35005E+02-1.73896E+03-1.71370E+02-9.39455E+02-1.02361E+03
 -1      2041-8.75104E+02-5.58823E+02-3.07398E+03-1.73948E+02-1.64495E+03-9.25075E+02
 -1      2042-1.06768E+03-6.97686E+02-3.88337E+03-8.62650E+01-2.11094E+03-5.75168E+02
 -1      2043-1.24069E+03-7.38820E+02-4.17174E+03-2.07192E+01-2.28591E+03-2.60537E+02
 -1      2044-1.36051E+03-7.46169E+02-4.19827E+03 4.33186E+00-2.31650E+03-7.86708E+01
 -1      2045-1.42316E+03-7.45992E+02-4.16787E+03 7.88189E+00-2.30612E+03-8.31303E-01
 -1      2046-1.44893E+03-7.46107E+02-4.15124E+03 5.66765E+00-2.29525E+03 2.92215E+01
 -1      2047-1.45857E+03-7.46531E+02-4.15027E+03 3.59610E+00-2.29080E+03 4.35633E+01
 -1      2048-1.46313E+03-7.47034E+02-4.15498E+03 2.56845E+00-2.29024E+03 5.32516E+01
 -1      2049-1.46586E+03-7.47440E+02-4.15965E+03 2.18830E+00-2.29096E+03 6.08732E+01
 -1      2050-1.46679E+03-7.47651E+02-4.16288E+03 2.12242E+00-2.29172E+03 6.74808E+01
 -1      2051-1.46492E+03-7.47553E+02-4.16427E+03 2.41266E+00-2.29169E+03 7.49127E+01
 -1      2052-1.45945E+03-7.46906E+02-4.16073E+03 3.51130E+00-2.28909E+03 8.61367E+01
 -1      2053-1.45235E+03-7.45052E+02-4.14261E+03 5.95741E+00-2.28004E+03 1.03014E+02
 -1      2054-1.45051E+03-7.39806E+02-4.09534E+03 8.66519E+00-2.26043E+03 1.18345E+02
 -1      2055-1.45361E+03-7.27287E+02-4.02755E+03 4.66359E+00-2.23635E+03 1.07196E+02
 -1      2056-1.42534E+03-7.14605E+02-4.04290E+03-1.75120E+01-2.24433E+03 5.93100E+01
 -1      2057-1.31699E+03-7.42333E+02-4.31082E+03-3.70074E+01-2.34729E+03 9.53272E+01
 -1      2058-1.18851E+03-8.29824E+02-4.60073E+03 4.72774E+01-2.45715E+03 4.70603E+02
 -1      2059-1.01023E+03-7.07571E+02-3.72151E+03 2.35578E+02-2.00332E+03 1.05835E+03
 -1      2060-6.60512E+02-2.39009E+02-1.52204E+03 2.64842E+02-8.76828E+02 1.17398E+03
 -1      2061-4.59282E+02-4.87752E+01-2.59883E+02 1.18941E+02-2.26142E+02 7.56442E+02
 -1      2062-2.22770E+02-1.68029E+01 3.75691E+01 2.15559E+01-3.78321E+01 3.63074E+02
 -1      2063-6.94146E+02-6.04556E+02-2.39577E+03-2.99197E+02-1.16053E+03-1.11722E+03
 -1      2064-1.43846E+03-1.26055E+03-4.35309E+03-3.04961E+02-2.06445E+03-9.82227E+02
 -1      2065-1.78640E+03-1.56409E+03-5.47862E+03-1.45972E+02-2.64489E+03-5.79740E+02
 -1      2066-2.02479E+03-1.68154E+03-5.84759E+03-3.33986E+01-2.86006E+03-2.44902E+02
 -1      2067-2.15187E+03-1.70405E+03-5.86367E+03 8.35839E+00-2.89485E+03-6.41132E+01
 -1      2068-2.20708E+03-1.70215E+03-5.81233E+03 1.34938E+01-2.88023E+03 8.44805E+00
 -1      2069-2.22600E+03-1.69904E+03-5.78290E+03 9.41533E+00-2.86588E+03 3.52735E+01
 -1      2070-2.23254E+03-1.69841E+03-5.77633E+03 5.91223E+00-2.85984E+03 4.83066E+01
 -1      2071-2.23626E+03-1.69922E+03-5.77904E+03 4.26996E+00-2.85881E+03 5.74844E+01
 -1      2072-2.23897E+03-1.70026E+03-5.78316E+03 3.70345E+00-2.85951E+03 6.48185E+01
 -1      2073-2.24011E+03-1.70095E+03-5.78640E+03 3.62311E+00-2.86036E+03 7.11570E+01
 -1      2074-2.23832E+03-1.70086E+03-5.78790E+03 4.10530E+00-2.86033E+03 7.82830E+01
 -1      2075-2.23198E+03-1.69894E+03-5.78358E+03 5.96371E+00-2.85722E+03 8.93091E+01
 -1      2076-2.22135E+03-1.69291E+03-5.76122E+03 1.02690E+01-2.84629E+03 1.06776E+02
 -1      2077-2.21262E+03-1.67942E+03-5.70147E+03 1.54267E+01-2.82215E+03 1.24584E+02
 -1      2078-2.21044E+03-1.65783E+03-5.61021E+03 9.49118E+00-2.79149E+03 1.15371E+02
 -1      2079-2.19173E+03-1.64853E+03-5.61584E+03-2.94534E+01-2.80014E+03 5.58459E+01
 -1      2080-2.11331E+03-1.70690E+03-5.97266E+03-7.10798E+01-2.93021E+03 5.97167E+01
 -1      2081-2.02320E+03-1.84340E+03-6.47275E+03 7.03560E+01-3.08466E+03 4.53499E+02
 -1      2082-1.70929E+03-1.55689E+03-5.30340E+03 4.12534E+02-2.52839E+03 1.15152E+03
 -1      2083-9.36021E+02-5.80408E+02-2.02024E+03 4.63786E+02-1.07919E+03 1.27583E+03
 -1      2084-5.39285E+02-1.53220E+02-3.15566E+02 1.98002E+02-2.71232E+02 7.64486E+02
 -1      2085-2.29794E+02-3.32263E+01 4.20976E+01 3.45084E+01-4.26550E+01 3.42132E+02
 -1      2086-9.30880E+02-7.04518E+02-3.21264E+03-3.27330E+02-1.04442E+03-1.29920E+03
 -1      2087-1.92740E+03-1.47098E+03-5.94038E+03-3.26787E+02-1.89284E+03-1.12197E+03
 -1      2088-2.41240E+03-1.82126E+03-7.47401E+03-1.58266E+02-2.42299E+03-6.27957E+02
 -1      2089-2.71192E+03-1.94664E+03-7.94477E+03-3.61983E+01-2.61510E+03-2.40572E+02
 -1      2090-2.85611E+03-1.96941E+03-7.95290E+03 8.95536E+00-2.64356E+03-4.85614E+01
 -1      2091-2.90912E+03-1.96597E+03-7.87862E+03 1.46561E+01-2.62862E+03 2.07713E+01
 -1      2092-2.92297E+03-1.96206E+03-7.83525E+03 1.03325E+01-2.61487E+03 4.36230E+01
 -1      2093-2.92641E+03-1.96124E+03-7.82275E+03 6.60428E+00-2.60898E+03 5.45910E+01
 -1      2094-2.92894E+03-1.96216E+03-7.82357E+03 4.85757E+00-2.60780E+03 6.29492E+01
 -1      2095-2.93138E+03-1.96336E+03-7.82733E+03 4.26185E+00-2.60828E+03 6.99476E+01
 -1      2096-2.93252E+03-1.96417E+03-7.83073E+03 4.18609E+00-2.60898E+03 7.60804E+01
 -1      2097-2.93058E+03-1.96412E+03-7.83236E+03 4.71364E+00-2.60897E+03 8.31163E+01
 -1      2098-2.92314E+03-1.96196E+03-7.82697E+03 6.71531E+00-2.60628E+03 9.45573E+01
 -1      2099-2.90931E+03-1.95507E+03-7.79923E+03 1.13409E+01-2.59662E+03 1.13892E+02
 -1      2100-2.89609E+03-1.93977E+03-7.72393E+03 1.69078E+01-2.57486E+03 1.35656E+02
 -1      2101-2.89387E+03-1.91487E+03-7.60274E+03 1.05184E+01-2.54631E+03 1.26961E+02
 -1      2102-2.88271E+03-1.89991E+03-7.59167E+03-3.18203E+01-2.55260E+03 4.46647E+01
 -1      2103-2.80920E+03-1.96383E+03-8.05763E+03-7.64628E+01-2.67355E+03 5.10818E+00
 -1      2104-2.73714E+03-2.15167E+03-8.83335E+03 7.59433E+01-2.83456E+03 4.58464E+02
 -1      2105-2.32046E+03-1.83482E+03-7.30900E+03 4.42112E+02-2.33822E+03 1.35885E+03
 -1      2106-1.18714E+03-6.37875E+02-2.64809E+03 4.98509E+02-9.69714E+02 1.50716E+03
 -1      2107-6.42307E+02-1.58110E+02-3.83989E+02 2.14218E+02-2.34205E+02 8.31024E+02
 -1      2108-2.60944E+02-3.75846E+01 4.32069E+01 3.88806E+01-3.41504E+01 3.32629E+02
 -1      2109-1.13965E+03-7.49793E+02-3.97337E+03-2.70463E+02-7.89714E+02-1.49029E+03
 -1      2110-2.35374E+03-1.57105E+03-7.43126E+03-2.68057E+02-1.45018E+03-1.27339E+03
 -1      2111-2.95857E+03-1.94085E+03-9.35425E+03-1.30279E+02-1.85644E+03-6.86469E+02
 -1      2112-3.31396E+03-2.06340E+03-9.92234E+03-3.01226E+01-2.00132E+03-2.41718E+02
 -1      2113-3.47683E+03-2.08330E+03-9.92381E+03 7.28916E+00-2.02167E+03-3.48814E+01
 -1      2114-3.53032E+03-2.07888E+03-9.82905E+03 1.21092E+01-2.00961E+03 3.26153E+01
 -1      2115-3.54038E+03-2.07467E+03-9.77322E+03 8.63435E+00-1.99883E+03 5.18360E+01
 -1      2116-3.54114E+03-2.07382E+03-9.75554E+03 5.59817E+00-1.99417E+03 6.07552E+01
 -1      2117-3.54254E+03-2.07479E+03-9.75478E+03 4.17149E+00-1.99316E+03 6.82927E+01
 -1      2118-3.54467E+03-2.07603E+03-9.75832E+03 3.68616E+00-1.99346E+03 7.49870E+01
 -1      2119-3.54577E+03-2.07688E+03-9.76192E+03 3.62918E+00-1.99396E+03 8.09735E+01
 -1      2120-3.54360E+03-2.07684E+03-9.76369E+03 4.06913E+00-1.99396E+03 8.80250E+01
 -1      2121-3.53505E+03-2.07466E+03-9.75728E+03 5.71459E+00-1.99197E+03 1.00070E+02
 -1      2122-3.51843E+03-2.06760E+03-9.72447E+03 9.49766E+00-1.98474E+03 1.21492E+02
 -1      2123-3.50196E+03-2.05194E+03-9.63460E+03 1.40362E+01-1.96825E+03 1.47183E+02
 -1      2124-3.50116E+03-2.02495E+03-9.48484E+03 8.69528E+00-1.94626E+03 1.38180E+02
 -1      2125-3.49541E+03-2.00330E+03-9.45647E+03-2.61439E+01-1.95027E+03 3.19528E+01
 -1      2126-3.41924E+03-2.06791E+03-1.00272E+04-6.24003E+01-2.04409E+03-4.82706E+01
 -1      2127-3.35792E+03-2.29797E+03-1.10717E+04 6.21619E+01-2.17788E+03 4.71483E+02
 -1      2128-2.85836E+03-1.97723E+03-9.22346E+03 3.61816E+02-1.80599E+03 1.57955E+03
 -1      2129-1.41223E+03-6.40331E+02-3.24168E+03 4.09015E+02-7.34872E+02 1.75525E+03
 -1      2130-7.44660E+02-1.47080E+02-4.45220E+02 1.76627E+02-1.72493E+02 9.11707E+02
 -1      2131-2.97851E+02-4.04548E+01 4.44869E+01 3.29144E+01-2.39378E+01 3.29726E+02
 -1      2132-1.28261E+03-7.72033E+02-4.50253E+03-1.51625E+02-4.24311E+02-1.62971E+03
 -1      2133-2.64505E+03-1.62087E+03-8.47518E+03-1.49902E+02-7.85160E+02-1.38504E+03
 -1      2134-3.33236E+03-1.99868E+03-1.06746E+04-7.29432E+01-1.00558E+03-7.31234E+02
 -1      2135-3.72718E+03-2.11790E+03-1.13123E+04-1.69831E+01-1.08347E+03-2.44117E+02
 -1      2136-3.90408E+03-2.13550E+03-1.13097E+04 4.04148E+00-1.09412E+03-2.55849E+01
 -1      2137-3.95871E+03-2.13053E+03-1.12009E+04 6.79879E+00-1.08744E+03 4.10272E+01
 -1      2138-3.96643E+03-2.12627E+03-1.11366E+04 4.88141E+00-1.08153E+03 5.77514E+01
 -1      2139-3.96540E+03-2.12544E+03-1.11154E+04 3.19332E+00-1.07897E+03 6.52119E+01
 -1      2140-3.96600E+03-2.12644E+03-1.11136E+04 2.39732E+00-1.07839E+03 7.21603E+01
 -1      2141-3.96791E+03-2.12769E+03-1.11170E+04 2.12675E+00-1.07853E+03 7.86451E+01
 -1      2142-3.96896E+03-2.12854E+03-1.11208E+04 2.09648E+00-1.07879E+03 8.45434E+01
 -1      2143-3.96661E+03-2.12851E+03-1.11226E+04 2.34488E+00-1.07879E+03 9.16369E+01
 -1      2144-3.95726E+03-2.12634E+03-1.11155E+04 3.26541E+00-1.07773E+03 1.04166E+02
 -1      2145-3.93871E+03-2.11927E+03-1.10791E+04 5.37505E+00-1.07387E+03 1.27142E+02
 -1      2146-3.92024E+03-2.10360E+03-1.09790E+04 7.89351E+00-1.06499E+03 1.55616E+02
 -1      2147-3.92082E+03-2.07538E+03-1.08092E+04 4.86549E+00-1.05308E+03 1.46092E+02
 -1      2148-3.91846E+03-2.04908E+03-1.07686E+04-1.46122E+01-1.05503E+03 2.23865E+01
 -1      2149-3.83890E+03-2.11299E+03-1.14146E+04-3.47826E+01-1.10635E+03-8.60273E+01
 -1      2150-3.78314E+03-2.36895E+03-1.26509E+04 3.45483E+01-1.18208E+03 4.82770E+02
 -1      2151-3.22929E+03-2.05012E+03-1.05811E+04 2.01955E+02-9.83569E+02 1.74077E+03
 -1      2152-1.56955E+03-6.32888E+02-3.66288E+03 2.28736E+02-3.96250E+02 1.93753E+03
 -1      2153-8.18772E+02-1.37767E+02-4.87531E+02 9.90031E+01-9.14053E+01 9.73618E+02
 -1      2154-3.26000E+02-4.24900E+01 4.56518E+01 1.87011E+01-1.23507E+01 3.29619E+02
 -1      2155-1.33270E+03-7.78131E+02-4.68987E+03-1.14345E-06-7.61341E-06-1.68029E+03
 -1      2156-2.74717E+03-1.63484E+03-8.84605E+03 1.87679E-06-8.61610E-06-1.42573E+03
 -1      2157-3.46361E+03-2.01442E+03-1.11446E+04 1.62317E-06-5.59209E-06-7.47784E+02
 -1      2158-3.87256E+03-2.13223E+03-1.18074E+04 4.93321E-07-4.31180E-06-2.45215E+02
 -1      2159-4.05464E+03-2.14900E+03-1.18034E+04-6.37460E-08-4.17317E-06-2.23052E+01
 -1      2160-4.10979E+03-2.14387E+03-1.16898E+04-2.54600E-07-4.25112E-06 4.40562E+01
 -1      2161-4.11674E+03-2.13962E+03-1.16224E+04-4.10782E-07-4.48605E-06 5.98966E+01
 -1      2162-4.11508E+03-2.13881E+03-1.16000E+04-5.25192E-07-5.07652E-06 6.68329E+01
 -1      2163-4.11540E+03-2.13981E+03-1.15978E+04-6.06470E-07-5.71796E-06 7.35687E+01
 -1      2164-4.11723E+03-2.14107E+03-1.16012E+04-5.83246E-07-6.66286E-06 7.99790E+01
 -1      2165-4.11826E+03-2.14191E+03-1.16050E+04-4.48776E-07-7.30619E-06 8.58478E+01
 -1      2166-4.11584E+03-2.14189E+03-1.16069E+04-3.85649E-07-7.80596E-06 9.29609E+01
 -1      2167-4.10620E+03-2.13973E+03-1.15995E+04-4.12730E-07-8.29091E-06 1.05672E+02
 -1      2168-4.08698E+03-2.13268E+03-1.15619E+04-3.82299E-07-8.96274E-06 1.29216E+02
 -1      2169-4.06783E+03-2.11704E+03-1.14581E+04-2.70088E-07-9.35475E-06 1.58686E+02
 -1      2170-4.06897E+03-2.08843E+03-1.12812E+04-2.37630E-07-9.61450E-06 1.48918E+02
 -1      2171-4.06780E+03-2.06051E+03-1.12362E+04-4.40909E-07-9.90204E-06 1.88637E+01
 -1      2172-3.98683E+03-2.12394E+03-1.19095E+04-7.45101E-07-1.08456E-05-9.95468E+01
 -1      2173-3.93260E+03-2.38828E+03-1.32146E+04 3.45046E-07-1.28242E-05 4.87096E+02
 -1      2174-3.36011E+03-2.07095E+03-1.10670E+04 2.98343E-06-1.08714E-05 1.79922E+03
 -1      2175-1.62563E+03-6.28674E+02-3.81413E+03 3.44189E-06-3.48101E-06 2.00385E+03
 -1      2176-8.45590E+02-1.34254E+02-5.02491E+02 1.56681E-06-3.55771E-07 9.96559E+02
 -1      2177-3.36390E+02-4.32295E+01 4.61229E+01 3.47769E-07-7.95415E-08 3.29879E+02
 -1      2178-1.28261E+03-7.72033E+02-4.50253E+03 1.51625E+02 4.24311E+02-1.62971E+03
 -1      2179-2.64505E+03-1.62087E+03-8.47518E+03 1.49902E+02 7.85160E+02-1.38504E+03
 -1      2180-3.33236E+03-1.99868E+03-1.06746E+04 7.29432E+01 1.00558E+03-7.31234E+02
 -1      2181-3.72718E+03-2.11790E+03-1.13123E+04 1.69831E+01 1.08347E+03-2.44117E+02
 -1      2182-3.90408E+03-2.13550E+03-1.13097E+04-4.04149E+00 1.09412E+03-2.55849E+01
 -1      2183-3.95871E+03-2.13053E+03-1.12009E+04-6.79879E+00 1.08744E+03 4.10272E+01
 -1      2184-3.96643E+03-2.12627E+03-1.11366E+04-4.88141E+00 1.08153E+03 5.77514E+01
 -1      2185-3.96540E+03-2.12544E+03-1.11154E+04-3.19332E+00 1.07897E+03 6.52119E+01
 -1      2186-3.96600E+03-2.12644E+03-1.11136E+04-2.39733E+00 1.07839E+03 7.21603E+01
 -1      2187-3.96791E+03-2.12769E+03-1.11170E+04-2.12675E+00 1.07853E+03 7.86451E+01
 -1      2188-3.96896E+03-2.12854E+03-1.11208E+04-2.09648E+00 1.07879E+03 8.45434E+01
 -1      2189-3.96661E+03-2.12851E+03-1.11226E+04-2.34488E+00 1.07879E+03 9.16369E+01
 -1      2190-3.95726E+03-2.12634E+03-1.11155E+04-3.26541E+00 1.07773E+03 1.04166E+02
 -1      2191-3.93871E+03-2.11927E+03-1.10791E+04-5.37506E+00 1.07387E+03 1.27142E+02
 -1      2192-3.92024E+03-2.10360E+03-1.09790E+04-7.89351E+00 1.06499E+03 1.55616E+02
 -1      2193-3.92082E+03-2.07538E+03-1.08092E+04-4.86549E+00 1.05308E+03 1.46092E+02
 -1      2194-3.91846E+03-2.04908E+03-1.07686E+04 1.46122E+01 1.05503E+03 2.23865E+01
 -1      2195-3.83890E+03-2.11299E+03-1.14146E+04 3.47826E+01 1.10635E+03-8.60273E+01
 -1      2196-3.78314E+03-2.36895E+03-1.26509E+04-3.45483E+01 1.18208E+03 4.82770E+02
 -1      2197-3.22929E+03-2.05012E+03-1.05811E+04-2.01955E+02 9.83569E+02 1.74077E+03
 -1      2198-1.56955E+03-6.32888E+02-3.66288E+03-2.28736E+02 3.96250E+02 1.93753E+03
 -1      2199-8.18772E+02-1.37767E+02-4.87531E+02-9.90031E+01 9.14053E+01 9.73618E+02
 -1      2200-3.26000E+02-4.24900E+01 4.56518E+01-1.87011E+01 1.23507E+01 3.29619E+02
 -1      2201-1.13965E+03-7.49793E+02-3.97337E+03 2.70463E+02 7.89714E+02-1.49029E+03
 -1      2202-2.35374E+03-1.57105E+03-7.43126E+03 2.68057E+02 1.45018E+03-1.27339E+03
 -1      2203-2.95857E+03-1.94085E+03-9.35425E+03 1.30279E+02 1.85644E+03-6.86469E+02
 -1      2204-3.31396E+03-2.06340E+03-9.92234E+03 3.01226E+01 2.00132E+03-2.41718E+02
 -1      2205-3.47683E+03-2.08330E+03-9.92381E+03-7.28916E+00 2.02167E+03-3.48814E+01
 -1      2206-3.53032E+03-2.07888E+03-9.82905E+03-1.21092E+01 2.00961E+03 3.26153E+01
 -1      2207-3.54038E+03-2.07467E+03-9.77322E+03-8.63435E+00 1.99883E+03 5.18360E+01
 -1      2208-3.54114E+03-2.07382E+03-9.75554E+03-5.59817E+00 1.99417E+03 6.07552E+01
 -1      2209-3.54254E+03-2.07479E+03-9.75478E+03-4.17149E+00 1.99316E+03 6.82927E+01
 -1      2210-3.54467E+03-2.07603E+03-9.75832E+03-3.68616E+00 1.99346E+03 7.49870E+01
 -1      2211-3.54577E+03-2.07688E+03-9.76192E+03-3.62919E+00 1.99396E+03 8.09735E+01
 -1      2212-3.54360E+03-2.07684E+03-9.76369E+03-4.06913E+00 1.99396E+03 8.80250E+01
 -1      2213-3.53505E+03-2.07466E+03-9.75728E+03-5.71459E+00 1.99197E+03 1.00070E+02
 -1      2214-3.51843E+03-2.06760E+03-9.72447E+03-9.49766E+00 1.98474E+03 1.21492E+02
 -1      2215-3.50196E+03-2.05194E+03-9.63460E+03-1.40362E+01 1.96825E+03 1.47183E+02
 -1      2216-3.50116E+03-2.02495E+03-9.48484E+03-8.69528E+00 1.94626E+03 1.38180E+02
 -1      2217-3.49541E+03-2.00330E+03-9.45647E+03 2.61439E+01 1.95027E+03 3.19528E+01
 -1      2218-3.41924E+03-2.06791E+03-1.00272E+04 6.24003E+01 2.04409E+03-4.82706E+01
 -1      2219-3.35792E+03-2.29797E+03-1.10717E+04-6.21619E+01 2.17788E+03 4.71483E+02
 -1      2220-2.85836E+03-1.97723E+03-9.22346E+03-3.61816E+02 1.80599E+03 1.57955E+03
 -1      2221-1.41223E+03-6.40331E+02-3.24168E+03-4.09015E+02 7.34872E+02 1.75525E+03
 -1      2222-7.44660E+02-1.47080E+02-4.45220E+02-1.76627E+02 1.72493E+02 9.11707E+02
 -1      2223-2.97851E+02-4.04548E+01 4.44869E+01-3.29144E+01 2.39378E+01 3.29726E+02
 -1      2224-9.30880E+02-7.04518E+02-3.21264E+03 3.27330E+02 1.04442E+03-1.29920E+03
 -1      2225-1.92740E+03-1.47098E+03-5.94038E+03 3.26787E+02 1.89284E+03-1.12197E+03
 -1      2226-2.41240E+03-1.82126E+03-7.47401E+03 1.58266E+02 2.42299E+03-6.27957E+02
 -1      2227-2.71192E+03-1.94664E+03-7.94477E+03 3.61983E+01 2.61510E+03-2.40572E+02
 -1      2228-2.85611E+03-1.96941E+03-7.95290E+03-8.95536E+00 2.64356E+03-4.85614E+01
 -1      2229-2.90912E+03-1.96597E+03-7.87862E+03-1.46561E+01 2.62862E+03 2.07713E+01
 -1      2230-2.92297E+03-1.96206E+03-7.83525E+03-1.03325E+01 2.61487E+03 4.36230E+01
 -1      2231-2.92641E+03-1.96124E+03-7.82275E+03-6.60428E+00 2.60898E+03 5.45910E+01
 -1      2232-2.92894E+03-1.96216E+03-7.82357E+03-4.85757E+00 2.60780E+03 6.29492E+01
 -1      2233-2.93138E+03-1.96336E+03-7.82733E+03-4.26185E+00 2.60828E+03 6.99476E+01
 -1      2234-2.93252E+03-1.96417E+03-7.83073E+03-4.18609E+00 2.60898E+03 7.60804E+01
 -1      2235-2.93058E+03-1.96412E+03-7.83236E+03-4.71364E+00 2.60897E+03 8.31163E+01
 -1      2236-2.92314E+03-1.96196E+03-7.82697E+03-6.71531E+00 2.60628E+03 9.45573E+01
 -1      2237-2.90931E+03-1.95507E+03-7.79923E+03-1.13409E+01 2.59662E+03 1.13892E+02
 -1      2238-2.89609E+03-1.93977E+03-7.72393E+03-1.69078E+01 2.57486E+03 1.35656E+02
 -1      2239-2.89387E+03-1.91487E+03-7.60274E+03-1.05184E+01 2.54631E+03 1.26961E+02
 -1      2240-2.88271E+03-1.89991E+03-7.59167E+03 3.18203E+01 2.55260E+03 4.46647E+01
 -1      2241-2.80920E+03-1.96383E+03-8.05763E+03 7.64628E+01 2.67355E+03 5.10818E+00
 -1      2242-2.73714E+03-2.15167E+03-8.83335E+03-7.59433E+01 2.83456E+03 4.58464E+02
 -1      2243-2.32046E+03-1.83482E+03-7.30900E+03-4.42112E+02 2.33822E+03 1.35885E+03
 -1      2244-1.18714E+03-6.37875E+02-2.64809E+03-4.98509E+02 9.69714E+02 1.50716E+03
 -1      2245-6.42307E+02-1.58110E+02-3.83989E+02-2.14218E+02 2.34205E+02 8.31024E+02
 -1      2246-2.60944E+02-3.75846E+01 4.32069E+01-3.88806E+01 3.41504E+01 3.32629E+02
 -1      2247-6.94146E+02-6.04556E+02-2.39577E+03 2.99197E+02 1.16053E+03-1.11722E+03
 -1      2248-1.43846E+03-1.26055E+03-4.35309E+03 3.04961E+02 2.06445E+03-9.82227E+02
 -1      2249-1.78640E+03-1.56409E+03-5.47862E+03 1.45972E+02 2.64489E+03-5.79740E+02
 -1      2250-2.02479E+03-1.68154E+03-5.84759E+03 3.33986E+01 2.86006E+03-2.44902E+02
 -1      2251-2.15187E+03-1.70405E+03-5.86367E+03-8.35839E+00 2.89485E+03-6.41132E+01
 -1      2252-2.20708E+03-1.70215E+03-5.81233E+03-1.34938E+01 2.88023E+03 8.44805E+00
 -1      2253-2.22600E+03-1.69904E+03-5.78290E+03-9.41533E+00 2.86588E+03 3.52735E+01
 -1      2254-2.23254E+03-1.69841E+03-5.77633E+03-5.91223E+00 2.85984E+03 4.83066E+01
 -1      2255-2.23626E+03-1.69922E+03-5.77904E+03-4.26996E+00 2.85881E+03 5.74844E+01
 -1      2256-2.23897E+03-1.70026E+03-5.78316E+03-3.70345E+00 2.85951E+03 6.48185E+01
 -1      2257-2.24011E+03-1.70095E+03-5.78640E+03-3.62311E+00 2.86036E+03 7.11570E+01
 -1      2258-2.23832E+03-1.70086E+03-5.78790E+03-4.10530E+00 2.86033E+03 7.82830E+01
 -1      2259-2.23198E+03-1.69894E+03-5.78358E+03-5.96371E+00 2.85722E+03 8.93091E+01
 -1      2260-2.22135E+03-1.69291E+03-5.76122E+03-1.02690E+01 2.84629E+03 1.06776E+02
 -1      2261-2.21262E+03-1.67942E+03-5.70147E+03-1.54267E+01 2.82215E+03 1.24584E+02
 -1      2262-2.21044E+03-1.65783E+03-5.61021E+03-9.49118E+00 2.79149E+03 1.15371E+02
 -1      2263-2.19173E+03-1.64853E+03-5.61584E+03 2.94534E+01 2.80014E+03 5.58459E+01
 -1      2264-2.11331E+03-1.70690E+03-5.97266E+03 7.10798E+01 2.93021E+03 5.97167E+01
 -1      2265-2.02320E+03-1.84340E+03-6.47275E+03-7.03560E+01 3.08466E+03 4.53499E+02
 -1      2266-1.70929E+03-1.55689E+03-5.30340E+03-4.12534E+02 2.52839E+03 1.15152E+03
 -1      2267-9.36021E+02-5.80408E+02-2.02024E+03-4.63786E+02 1.07919E+03 1.27583E+03
 -1      2268-5.39285E+02-1.53220E+02-3.15566E+02-1.98002E+02 2.71232E+02 7.64486E+02
 -1      2269-2.29794E+02-3.32263E+01 4.20976E+01-3.45084E+01 4.26550E+01 3.42132E+02
 -1      2270-4.28355E+02-2.35005E+02-1.73896E+03 1.71370E+02 9.39455E+02-1.02361E+03
 -1      2271-8.75104E+02-5.58823E+02-3.07398E+03 1.73948E+02 1.64495E+03-9.25075E+02
 -1      2272-1.06768E+03-6.97686E+02-3.88337E+03 8.62650E+01 2.11094E+03-5.75168E+02
 -1      2273-1.24069E+03-7.38820E+02-4.17174E+03 2.07192E+01 2.28591E+03-2.60537E+02
 -1      2274-1.36051E+03-7.46169E+02-4.19827E+03-4.33186E+00 2.31650E+03-7.86708E+01
 -1      2275-1.42316E+03-7.45992E+02-4.16787E+03-7.88189E+00 2.30612E+03-8.31305E-01
 -1      2276-1.44893E+03-7.46107E+02-4.15124E+03-5.66765E+00 2.29525E+03 2.92215E+01
 -1      2277-1.45857E+03-7.46531E+02-4.15027E+03-3.59610E+00 2.29080E+03 4.35633E+01
 -1      2278-1.46313E+03-7.47034E+02-4.15498E+03-2.56845E+00 2.29024E+03 5.32516E+01
 -1      2279-1.46586E+03-7.47440E+02-4.15965E+03-2.18830E+00 2.29096E+03 6.08732E+01
 -1      2280-1.46679E+03-7.47651E+02-4.16288E+03-2.12242E+00 2.29172E+03 6.74808E+01
 -1      2281-1.46492E+03-7.47553E+02-4.16427E+03-2.41266E+00 2.29169E+03 7.49127E+01
 -1      2282-1.45945E+03-7.46906E+02-4.16073E+03-3.51130E+00 2.28909E+03 8.61367E+01
 -1      2283-1.45235E+03-7.45052E+02-4.14261E+03-5.95741E+00 2.28004E+03 1.03014E+02
 -1      2284-1.45051E+03-7.39806E+02-4.09534E+03-8.66519E+00 2.26043E+03 1.18345E+02
 -1      2285-1.45361E+03-7.27287E+02-4.02755E+03-4.66359E+00 2.23635E+03 1.07196E+02
 -1      2286-1.42534E+03-7.14605E+02-4.04290E+03 1.75120E+01 2.24433E+03 5.93100E+01
 -1      2287-1.31699E+03-7.42333E+02-4.31082E+03 3.70074E+01 2.34729E+03 9.53272E+01
 -1      2288-1.18851E+03-8.29824E+02-4.60073E+03-4.72774E+01 2.45715E+03 4.70603E+02
 -1      2289-1.01023E+03-7.07571E+02-3.72151E+03-2.35578E+02 2.00332E+03 1.05835E+03
 -1      2290-6.60512E+02-2.39009E+02-1.52204E+03-2.64842E+02 8.76828E+02 1.17398E+03
 -1      2291-4.59282E+02-4.87752E+01-2.59883E+02-1.18941E+02 2.26142E+02 7.56442E+02
 -1      2292-2.22770E+02-1.68029E+01 3.75691E+01-2.15559E+01 3.78321E+01 3.63074E+02
 -1      2293-3.14193E+02-1.67105E+02-1.66937E+03-3.27410E+02-6.90617E+02-7.63316E+02
 -1      2294-5.39905E+02-4.21711E+02-2.71308E+03-3.21302E+02-1.27081E+03-6.80116E+02
 -1      2295-7.06939E+02-5.32047E+02-3.45695E+03-1.59886E+02-1.61813E+03-4.12708E+02
 -1      2296-8.84494E+02-5.46539E+02-3.66661E+03-3.90095E+01-1.72729E+03-1.80888E+02
 -1      2297-1.05270E+03-5.46181E+02-3.65527E+03 7.07224E+00-1.73709E+03-5.28201E+01
 -1      2298-1.15542E+03-5.48118E+02-3.61417E+03 1.42617E+01-1.72540E+03 2.57731E+00
 -1      2299-1.20295E+03-5.50847E+02-3.59664E+03 1.07240E+01-1.71696E+03 2.71031E+01
 -1      2300-1.22228E+03-5.52571E+02-3.59620E+03 7.19778E+00-1.71383E+03 4.11278E+01
 -1      2301-1.23098E+03-5.53393E+02-3.60084E+03 5.46449E+00-1.71345E+03 5.09648E+01
 -1      2302-1.23551E+03-5.53754E+02-3.60509E+03 4.87282E+00-1.71393E+03 5.82641E+01
 -1      2303-1.23685E+03-5.53839E+02-3.60804E+03 4.84052E+00-1.71445E+03 6.40540E+01
 -1      2304-1.23417E+03-5.53707E+02-3.60983E+03 5.45948E+00-1.71455E+03 6.98876E+01
 -1      2305-1.22725E+03-5.53504E+02-3.60816E+03 7.55154E+00-1.71310E+03 7.82397E+01
 -1      2306-1.22054E+03-5.53254E+02-3.59389E+03 1.20202E+01-1.70741E+03 9.16763E+01
 -1      2307-1.22503E+03-5.50692E+02-3.55033E+03 1.69502E+01-1.69320E+03 1.07663E+02
 -1      2308-1.23547E+03-5.37332E+02-3.47703E+03 1.06814E+01-1.67037E+03 1.07801E+02
 -1      2309-1.17956E+03-5.11909E+02-3.47467E+03-2.82322E+01-1.66313E+03 6.97225E+01
 -1      2310-9.72794E+02-5.25841E+02-3.75901E+03-6.85443E+01-1.74246E+03 6.46830E+01
 -1      2311-7.72611E+02-6.58157E+02-4.14928E+03 8.31690E+01-1.91361E+03 3.23306E+02
 -1      2312-7.09557E+02-6.02403E+02-3.36713E+03 4.42189E+02-1.60218E+03 7.90636E+02
 -1      2313-5.98308E+02-1.15136E+02-1.22471E+03 4.94924E+02-5.72811E+02 8.72076E+02
 -1      2314-5.61868E+02 1.17459E+00-7.53235E+01 2.16180E+02-1.08675E+02 5.30802E+02
 -1      2315-3.33760E+02-2.54975E+01 5.74819E+01 4.30221E+01-1.48649E+01 2.56909E+02
 -1      2316-5.10537E+02-2.37061E+02-2.48557E+03-5.19006E+02-9.91645E+02-8.96046E+02
 -1      2317-9.97151E+02-5.85593E+02-4.26821E+03-5.00774E+02-1.86160E+03-7.74755E+02
 -1      2318-1.31241E+03-7.20935E+02-5.38861E+03-2.36923E+02-2.36494E+03-4.32859E+02
 -1      2319-1.54521E+03-7.40017E+02-5.67897E+03-5.03175E+01-2.51807E+03-1.66249E+02
 -1      2320-1.71962E+03-7.42230E+02-5.65331E+03 1.62133E+01-2.52837E+03-3.63116E+01
 -1      2321-1.81313E+03-7.44594E+02-5.58842E+03 2.41452E+01-2.50974E+03 1.41570E+01
 -1      2322-1.85281E+03-7.47453E+02-5.55680E+03 1.74764E+01-2.49703E+03 3.51775E+01
 -1      2323-1.86845E+03-7.49258E+02-5.55017E+03 1.18645E+01-2.49232E+03 4.76197E+01
 -1      2324-1.87600E+03-7.50269E+02-5.55260E+03 9.28204E+00-2.49169E+03 5.67888E+01
 -1      2325-1.88035E+03-7.50806E+02-5.55625E+03 8.43215E+00-2.49232E+03 6.37368E+01
 -1      2326-1.88183E+03-7.51001E+02-5.55922E+03 8.34875E+00-2.49306E+03 6.92552E+01
 -1      2327-1.87929E+03-7.50859E+02-5.56112E+03 9.16068E+00-2.49325E+03 7.48440E+01
 -1      2328-1.87168E+03-7.50390E+02-5.55858E+03 1.22005E+01-2.49129E+03 8.31687E+01
 -1      2329-1.86172E+03-7.49445E+02-5.53966E+03 1.91957E+01-2.48329E+03 9.75361E+01
 -1      2330-1.86017E+03-7.46039E+02-5.48238E+03 2.78475E+01-2.46278E+03 1.16655E+02
 -1      2331-1.86855E+03-7.31611E+02-5.38071E+03 2.00441E+01-2.42838E+03 1.20103E+02
 -1      2332-1.82502E+03-7.00829E+02-5.35416E+03-4.24336E+01-2.41589E+03 6.81980E+01
 -1      2333-1.63376E+03-7.01980E+02-5.72651E+03-1.22398E+02-2.53415E+03 1.51055E+01
 -1      2334-1.47730E+03-8.90484E+02-6.43406E+03 1.03412E+02-2.80665E+03 3.04253E+02
 -1      2335-1.32518E+03-8.51079E+02-5.33887E+03 6.94676E+02-2.36996E+03 9.55987E+02
 -1      2336-7.98640E+02-1.18946E+02-1.74748E+03 7.77738E+02-8.11338E+02 1.05074E+03
 -1      2337-6.29862E+02-8.84002E+00-1.15902E+02 3.15032E+02-1.41832E+02 5.54715E+02
 -1      2338-3.39688E+02-3.52554E+01 5.77460E+01 5.21411E+01-1.39532E+01 2.38805E+02
 -1      2339-7.99166E+02-3.53234E+02-3.53556E+03-5.56923E+02-9.92139E+02-1.11462E+03
 -1      2340-1.58410E+03-8.03112E+02-6.31406E+03-5.28847E+02-1.90251E+03-9.50514E+02
 -1      2341-2.07688E+03-9.85635E+02-7.93930E+03-2.50006E+02-2.41469E+03-4.89910E+02
 -1      2342-2.38938E+03-1.00766E+03-8.33369E+03-5.17163E+01-2.56465E+03-1.59162E+02
 -1      2343-2.59079E+03-1.01206E+03-8.29185E+03 1.84753E+01-2.57120E+03-1.73744E+01
 -1      2344-2.68315E+03-1.01522E+03-8.19902E+03 2.65016E+01-2.55078E+03 2.91821E+01
 -1      2345-2.71640E+03-1.01844E+03-8.15132E+03 1.93132E+01-2.53744E+03 4.58477E+01
 -1      2346-2.72800E+03-1.02062E+03-8.13812E+03 1.33538E+01-2.53250E+03 5.60539E+01
 -1      2347-2.73402E+03-1.02202E+03-8.13860E+03 1.06338E+01-2.53177E+03 6.43514E+01
 -1      2348-2.73805E+03-1.02285E+03-8.14197E+03 9.74444E+00-2.53235E+03 7.09539E+01
 -1      2349-2.73958E+03-1.02321E+03-8.14521E+03 9.65381E+00-2.53308E+03 7.62776E+01
 -1      2350-2.73681E+03-1.02307E+03-8.14732E+03 1.04956E+01-2.53332E+03 8.18038E+01
 -1      2351-2.72767E+03-1.02229E+03-8.14363E+03 1.36846E+01-2.53148E+03 9.06288E+01
 -1      2352-2.71335E+03-1.02042E+03-8.11849E+03 2.10763E+01-2.52363E+03 1.07128E+02
 -1      2353-2.70626E+03-1.01571E+03-8.04302E+03 3.03518E+01-2.50299E+03 1.31040E+02
 -1      2354-2.71803E+03-9.99018E+02-7.90263E+03 2.22567E+01-2.46711E+03 1.37727E+02
 -1      2355-2.68692E+03-9.57143E+02-7.83686E+03-4.50686E+01-2.45218E+03 6.21121E+01
 -1      2356-2.48241E+03-9.49250E+02-8.32159E+03-1.31697E+02-2.57581E+03-5.90795E+01
 -1      2357-2.34752E+03-1.21389E+03-9.48511E+03 1.06113E+02-2.87937E+03 2.92893E+02
 -1      2358-2.09851E+03-1.16825E+03-8.01055E+03 7.33680E+02-2.45690E+03 1.24092E+03
 -1      2359-1.08639E+03-1.43938E+02-2.41464E+03 8.24351E+02-8.03961E+02 1.36423E+03
 -1      2360-7.76812E+02-1.16852E+01-1.54495E+02 3.32746E+02-1.26404E+02 6.25021E+02
 -1      2361-3.88547E+02-4.91646E+01 5.62626E+01 5.37053E+01-7.77686E+00 2.26110E+02
 -1      2362-1.03993E+03-3.63685E+02-4.49827E+03-4.57683E+02-7.76576E+02-1.33466E+03
 -1      2363-2.07221E+03-8.21578E+02-8.23133E+03-4.31286E+02-1.51294E+03-1.13183E+03
 -1      2364-2.71329E+03-9.97500E+02-1.03384E+04-2.04046E+02-1.92255E+03-5.52617E+02
 -1      2365-3.09607E+03-1.00285E+03-1.08285E+04-4.21954E+01-2.03915E+03-1.55575E+02
 -1      2366-3.32612E+03-1.00371E+03-1.07700E+04 1.54196E+01-2.04253E+03 6.36249E-02
 -1      2367-3.42110E+03-1.00827E+03-1.06514E+04 2.20541E+01-2.02561E+03 4.36322E+01
 -1      2368-3.44985E+03-1.01283E+03-1.05893E+04 1.62336E+01-2.01480E+03 5.62351E+01
 -1      2369-3.45802E+03-1.01579E+03-1.05703E+04 1.13843E+01-2.01078E+03 6.42876E+01
 -1      2370-3.46257E+03-1.01757E+03-1.05692E+04 9.16513E+00-2.01013E+03 7.17636E+01
 -1      2371-3.46622E+03-1.01856E+03-1.05725E+04 8.43921E+00-2.01055E+03 7.80755E+01
 -1      2372-3.46771E+03-1.01896E+03-1.05760E+04 8.36658E+00-2.01112E+03 8.32617E+01
 -1      2373-3.46462E+03-1.01883E+03-1.05784E+04 9.05578E+00-2.01132E+03 8.88030E+01
 -1      2374-3.45397E+03-1.01812E+03-1.05737E+04 1.16527E+01-2.00994E+03 9.82524E+01
 -1      2375-3.43596E+03-1.01649E+03-1.05429E+04 1.76558E+01-2.00387E+03 1.17013E+02
 -1      2376-3.42531E+03-1.01278E+03-1.04505E+04 2.51797E+01-1.98761E+03 1.45649E+02
 -1      2377-3.44270E+03-9.95829E+02-1.02729E+04 1.84257E+01-1.95884E+03 1.55023E+02
 -1      2378-3.42061E+03-9.41874E+02-1.01668E+04-3.68324E+01-1.94587E+03 5.49755E+01
 -1      2379-3.19246E+03-9.17982E+02-1.07622E+04-1.07432E+02-2.04740E+03-1.32516E+02
 -1      2380-3.06842E+03-1.23902E+03-1.23797E+04 8.48220E+01-2.30314E+03 2.83329E+02
 -1      2381-2.75747E+03-1.23284E+03-1.05837E+04 5.97023E+02-1.98290E+03 1.52961E+03
 -1      2382-1.32989E+03-6.99484E+01-3.03000E+03 6.73384E+02-6.31444E+02 1.68590E+03
 -1      2383-9.19895E+02 1.51919E+01-1.74633E+02 2.72130E+02-9.05058E+01 7.02752E+02
 -1      2384-4.44563E+02-5.62853E+01 5.82300E+01 4.43137E+01-3.00795E+00 2.16638E+02
 -1      2385-1.19032E+03-3.36518E+02-5.14074E+03-2.55613E+02-4.20957E+02-1.49060E+03
 -1      2386-2.37707E+03-7.66246E+02-9.52451E+03-2.40342E+02-8.27316E+02-1.26220E+03
 -1      2387-3.11436E+03-9.18884E+02-1.19671E+04-1.13848E+02-1.05338E+03-5.99291E+02
 -1      2388-3.54523E+03-9.07293E+02-1.25248E+04-2.36526E+01-1.11703E+03-1.54210E+02
 -1      2389-3.79672E+03-9.04609E+02-1.24556E+04 8.62973E+00-1.11857E+03 1.20699E+01
 -1      2390-3.89497E+03-9.10524E+02-1.23200E+04 1.24168E+01-1.10917E+03 5.38477E+01
 -1      2391-3.92120E+03-9.16430E+02-1.22481E+04 9.20560E+00-1.10319E+03 6.36647E+01
 -1      2392-3.92713E+03-9.20087E+02-1.22254E+04 6.51233E+00-1.10096E+03 7.02089E+01
 -1      2393-3.93066E+03-9.22143E+02-1.22232E+04 5.27476E+00-1.10058E+03 7.71102E+01
 -1      2394-3.93402E+03-9.23203E+02-1.22264E+04 4.86926E+00-1.10080E+03 8.32284E+01
 -1      2395-3.93545E+03-9.23608E+02-1.22302E+04 4.82968E+00-1.10111E+03 8.83322E+01
 -1      2396-3.93208E+03-9.23486E+02-1.22327E+04 5.21667E+00-1.10122E+03 9.39091E+01
 -1      2397-3.92037E+03-9.22912E+02-1.22273E+04 6.66336E+00-1.10048E+03 1.03841E+02
 -1      2398-3.89993E+03-9.21778E+02-1.21927E+04 9.99771E+00-1.09719E+03 1.24237E+02
 -1      2399-3.88746E+03-9.19487E+02-1.20888E+04 1.41505E+01-1.08833E+03 1.56190E+02
 -1      2400-3.90985E+03-9.03180E+02-1.18861E+04 1.02833E+01-1.07259E+03 1.67153E+02
 -1      2401-3.89373E+03-8.41136E+02-1.17526E+04-2.05752E+01-1.06535E+03 4.91384E+01
 -1      2402-3.64672E+03-8.03348E+02-1.24296E+04-5.96784E+01-1.12257E+03-1.84180E+02
 -1      2403-3.52198E+03-1.15188E+03-1.43583E+04 4.66699E+01-1.26619E+03 2.77178E+02
 -1      2404-3.17953E+03-1.18762E+03-1.23593E+04 3.31809E+02-1.09622E+03 1.73405E+03
 -1      2405-1.49274E+03 1.10878E+01-3.46168E+03 3.75441E+02-3.46291E+02 1.91670E+03
 -1      2406-1.02186E+03 4.06474E+01-1.85091E+02 1.52111E+02-4.70997E+01 7.61468E+02
 -1      2407-4.87001E+02-5.99304E+01 6.05560E+01 2.50268E+01-8.32798E-01 2.10976E+02
 -1      2408-1.23952E+03-3.21053E+02-5.36011E+03 8.72709E-07-1.18442E-05-1.54586E+03
 -1      2409-2.47676E+03-7.34884E+02-9.96799E+03 4.74381E-06-9.88025E-06-1.30880E+03
 -1      2410-3.24670E+03-8.76023E+02-1.25285E+04 3.18360E-06-5.17482E-06-6.16302E+02
 -1      2411-3.69455E+03-8.57619E+02-1.31105E+04 9.77185E-07-4.06579E-06-1.53929E+02
 -1      2412-3.95398E+03-8.53566E+02-1.30379E+04 5.65931E-08-4.30930E-06 1.63008E+01
 -1      2413-4.05366E+03-8.60041E+02-1.28965E+04-2.65947E-07-4.45702E-06 5.74975E+01
 -1      2414-4.07911E+03-8.66499E+02-1.28214E+04-5.54053E-07-4.68386E-06 6.63390E+01
 -1      2415-4.08427E+03-8.70429E+02-1.27973E+04-7.47140E-07-5.42863E-06 7.23485E+01
 -1      2416-4.08744E+03-8.72587E+02-1.27948E+04-8.90855E-07-6.07766E-06 7.90454E+01
 -1      2417-4.09069E+03-8.73668E+02-1.27979E+04-8.66929E-07-7.29366E-06 8.50958E+01
 -1      2418-4.09209E+03-8.74067E+02-1.28018E+04-6.42047E-07-7.99539E-06 9.01723E+01
 -1      2419-4.08862E+03-8.73947E+02-1.28044E+04-5.42538E-07-8.52221E-06 9.57652E+01
 -1      2420-4.07652E+03-8.73434E+02-1.27988E+04-5.99402E-07-8.99702E-06 1.05875E+02
 -1      2421-4.05524E+03-8.72530E+02-1.27627E+04-5.46268E-07-9.86447E-06 1.26856E+02
 -1      2422-4.04226E+03-8.70862E+02-1.26549E+04-3.52592E-07-1.02195E-05 1.59984E+02
 -1      2423-4.06667E+03-8.54916E+02-1.24436E+04-2.78595E-07-1.04673E-05 1.71435E+02
 -1      2424-4.05273E+03-7.90155E+02-1.23009E+04-5.58709E-07-1.06669E-05 4.68401E+01
 -1      2425-3.79872E+03-7.46913E+02-1.30079E+04-1.19109E-06-1.17438E-05-2.02411E+02
 -1      2426-3.67149E+03-1.10270E+03-1.50435E+04 3.73453E-07-1.52339E-05 2.75181E+02
 -1      2427-3.32010E+03-1.15560E+03-1.29772E+04 4.73146E-06-1.33856E-05 1.80633E+03
 -1      2428-1.54943E+03 4.45623E+01-3.61553E+03 5.39913E-06-2.95391E-06 1.99906E+03
 -1      2429-1.05858E+03 5.04753E+01-1.88600E+02 2.22920E-06 3.58346E-07 7.83139E+02
 -1      2430-5.02627E+02-6.10373E+01 6.15522E+01 4.63440E-07 1.62390E-07 2.09157E+02
 -1      2431-1.19032E+03-3.36518E+02-5.14074E+03 2.55613E+02 4.20957E+02-1.49060E+03
 -1      2432-2.37707E+03-7.66246E+02-9.52451E+03 2.40342E+02 8.27316E+02-1.26220E+03
 -1      2433-3.11436E+03-9.18884E+02-1.19671E+04 1.13848E+02 1.05338E+03-5.99291E+02
 -1      2434-3.54523E+03-9.07293E+02-1.25248E+04 2.36526E+01 1.11703E+03-1.54210E+02
 -1      2435-3.79672E+03-9.04609E+02-1.24556E+04-8.62973E+00 1.11857E+03 1.20699E+01
 -1      2436-3.89497E+03-9.10524E+02-1.23200E+04-1.24168E+01 1.10917E+03 5.38477E+01
 -1      2437-3.92120E+03-9.16430E+02-1.22481E+04-9.20560E+00 1.10319E+03 6.36647E+01
 -1      2438-3.92713E+03-9.20087E+02-1.22254E+04-6.51233E+00 1.10096E+03 7.02089E+01
 -1      2439-3.93066E+03-9.22143E+02-1.22232E+04-5.27476E+00 1.10058E+03 7.71102E+01
 -1      2440-3.93402E+03-9.23203E+02-1.22264E+04-4.86926E+00 1.10080E+03 8.32284E+01
 -1      2441-3.93545E+03-9.23608E+02-1.22302E+04-4.82968E+00 1.10111E+03 8.83322E+01
 -1      2442-3.93208E+03-9.23486E+02-1.22327E+04-5.21667E+00 1.10122E+03 9.39091E+01
 -1      2443-3.92037E+03-9.22912E+02-1.22273E+04-6.66336E+00 1.10048E+03 1.03841E+02
 -1      2444-3.89993E+03-9.21778E+02-1.21927E+04-9.99771E+00 1.09719E+03 1.24237E+02
 -1      2445-3.88746E+03-9.19487E+02-1.20888E+04-1.41505E+01 1.08833E+03 1.56190E+02
 -1      2446-3.90985E+03-9.03180E+02-1.18861E+04-1.02833E+01 1.07259E+03 1.67153E+02
 -1      2447-3.89373E+03-8.41136E+02-1.17526E+04 2.05752E+01 1.06535E+03 4.91384E+01
 -1      2448-3.64672E+03-8.03348E+02-1.24296E+04 5.96784E+01 1.12257E+03-1.84180E+02
 -1      2449-3.52198E+03-1.15188E+03-1.43583E+04-4.66699E+01 1.26619E+03 2.77178E+02
 -1      2450-3.17953E+03-1.18762E+03-1.23593E+04-3.31809E+02 1.09622E+03 1.73405E+03
 -1      2451-1.49274E+03 1.10878E+01-3.46168E+03-3.75441E+02 3.46291E+02 1.91670E+03
 -1      2452-1.02186E+03 4.06474E+01-1.85091E+02-1.52111E+02 4.70997E+01 7.61468E+02
 -1      2453-4.87001E+02-5.99304E+01 6.05560E+01-2.50268E+01 8.32798E-01 2.10976E+02
 -1      2454-1.03993E+03-3.63685E+02-4.49827E+03 4.57683E+02 7.76576E+02-1.33466E+03
 -1      2455-2.07221E+03-8.21578E+02-8.23133E+03 4.31286E+02 1.51294E+03-1.13183E+03
 -1      2456-2.71329E+03-9.97500E+02-1.03384E+04 2.04046E+02 1.92255E+03-5.52617E+02
 -1      2457-3.09607E+03-1.00285E+03-1.08285E+04 4.21954E+01 2.03915E+03-1.55575E+02
 -1      2458-3.32612E+03-1.00371E+03-1.07700E+04-1.54196E+01 2.04253E+03 6.36242E-02
 -1      2459-3.42110E+03-1.00827E+03-1.06514E+04-2.20541E+01 2.02561E+03 4.36322E+01
 -1      2460-3.44985E+03-1.01283E+03-1.05893E+04-1.62336E+01 2.01480E+03 5.62351E+01
 -1      2461-3.45802E+03-1.01579E+03-1.05703E+04-1.13843E+01 2.01078E+03 6.42876E+01
 -1      2462-3.46257E+03-1.01757E+03-1.05692E+04-9.16513E+00 2.01013E+03 7.17636E+01
 -1      2463-3.46622E+03-1.01856E+03-1.05725E+04-8.43921E+00 2.01055E+03 7.80755E+01
 -1      2464-3.46771E+03-1.01896E+03-1.05760E+04-8.36658E+00 2.01112E+03 8.32617E+01
 -1      2465-3.46462E+03-1.01883E+03-1.05784E+04-9.05578E+00 2.01132E+03 8.88030E+01
 -1      2466-3.45397E+03-1.01812E+03-1.05737E+04-1.16527E+01 2.00994E+03 9.82524E+01
 -1      2467-3.43596E+03-1.01649E+03-1.05429E+04-1.76558E+01 2.00387E+03 1.17013E+02
 -1      2468-3.42531E+03-1.01278E+03-1.04505E+04-2.51797E+01 1.98761E+03 1.45649E+02
 -1      2469-3.44270E+03-9.95829E+02-1.02729E+04-1.84257E+01 1.95884E+03 1.55023E+02
 -1      2470-3.42061E+03-9.41874E+02-1.01668E+04 3.68324E+01 1.94587E+03 5.49755E+01
 -1      2471-3.19246E+03-9.17982E+02-1.07622E+04 1.07432E+02 2.04740E+03-1.32516E+02
 -1      2472-3.06842E+03-1.23902E+03-1.23797E+04-8.48220E+01 2.30314E+03 2.83329E+02
 -1      2473-2.75747E+03-1.23284E+03-1.05837E+04-5.97023E+02 1.98290E+03 1.52961E+03
 -1      2474-1.32989E+03-6.99484E+01-3.03000E+03-6.73384E+02 6.31444E+02 1.68590E+03
 -1      2475-9.19895E+02 1.51919E+01-1.74633E+02-2.72130E+02 9.05058E+01 7.02752E+02
 -1      2476-4.44563E+02-5.62853E+01 5.82300E+01-4.43137E+01 3.00795E+00 2.16638E+02
 -1      2477-7.99166E+02-3.53234E+02-3.53556E+03 5.56923E+02 9.92139E+02-1.11462E+03
 -1      2478-1.58410E+03-8.03112E+02-6.31406E+03 5.28847E+02 1.90251E+03-9.50514E+02
 -1      2479-2.07688E+03-9.85635E+02-7.93930E+03 2.50006E+02 2.41469E+03-4.89910E+02
 -1      2480-2.38938E+03-1.00766E+03-8.33369E+03 5.17163E+01 2.56465E+03-1.59162E+02
 -1      2481-2.59079E+03-1.01206E+03-8.29185E+03-1.84753E+01 2.57120E+03-1.73744E+01
 -1      2482-2.68315E+03-1.01522E+03-8.19902E+03-2.65016E+01 2.55078E+03 2.91821E+01
 -1      2483-2.71640E+03-1.01844E+03-8.15132E+03-1.93132E+01 2.53744E+03 4.58477E+01
 -1      2484-2.72800E+03-1.02062E+03-8.13812E+03-1.33538E+01 2.53250E+03 5.60539E+01
 -1      2485-2.73402E+03-1.02202E+03-8.13860E+03-1.06338E+01 2.53177E+03 6.43514E+01
 -1      2486-2.73805E+03-1.02285E+03-8.14197E+03-9.74444E+00 2.53235E+03 7.09539E+01
 -1      2487-2.73958E+03-1.02321E+03-8.14521E+03-9.65381E+00 2.53308E+03 7.62776E+01
 -1      2488-2.73681E+03-1.02307E+03-8.14732E+03-1.04956E+01 2.53332E+03 8.18038E+01
 -1      2489-2.72767E+03-1.02229E+03-8.14363E+03-1.36846E+01 2.53148E+03 9.06288E+01
 -1      2490-2.71335E+03-1.02042E+03-8.11849E+03-2.10763E+01 2.52363E+03 1.07128E+02
 -1      2491-2.70626E+03-1.01571E+03-8.04302E+03-3.03518E+01 2.50299E+03 1.31040E+02
 -1      2492-2.71803E+03-9.99018E+02-7.90263E+03-2.22567E+01 2.46711E+03 1.37727E+02
 -1      2493-2.68692E+03-9.57143E+02-7.83686E+03 4.50686E+01 2.45218E+03 6.21121E+01
 -1      2494-2.48241E+03-9.49250E+02-8.32159E+03 1.31697E+02 2.57581E+03-5.90795E+01
 -1      2495-2.34752E+03-1.21389E+03-9.48511E+03-1.06113E+02 2.87937E+03 2.92893E+02
 -1      2496-2.09851E+03-1.16825E+03-8.01055E+03-7.33680E+02 2.45690E+03 1.24092E+03
 -1      2497-1.08639E+03-1.43938E+02-2.41464E+03-8.24351E+02 8.03961E+02 1.36423E+03
 -1      2498-7.76812E+02-1.16852E+01-1.54495E+02-3.32746E+02 1.26404E+02 6.25021E+02
 -1      2499-3.88547E+02-4.91646E+01 5.62626E+01-5.37053E+01 7.77686E+00 2.26110E+02
 -1      2500-5.10537E+02-2.37061E+02-2.48557E+03 5.19006E+02 9.91645E+02-8.96046E+02
 -1      2501-9.97151E+02-5.85593E+02-4.26821E+03 5.00774E+02 1.86160E+03-7.74755E+02
 -1      2502-1.31241E+03-7.20935E+02-5.38861E+03 2.36923E+02 2.36494E+03-4.32859E+02
 -1      2503-1.54521E+03-7.40017E+02-5.67897E+03 5.03175E+01 2.51807E+03-1.66249E+02
 -1      2504-1.71962E+03-7.42230E+02-5.65331E+03-1.62133E+01 2.52837E+03-3.63116E+01
 -1      2505-1.81313E+03-7.44594E+02-5.58842E+03-2.41452E+01 2.50974E+03 1.41570E+01
 -1      2506-1.85281E+03-7.47453E+02-5.55680E+03-1.74764E+01 2.49703E+03 3.51775E+01
 -1      2507-1.86845E+03-7.49258E+02-5.55017E+03-1.18645E+01 2.49232E+03 4.76197E+01
 -1      2508-1.87600E+03-7.50269E+02-5.55260E+03-9.28204E+00 2.49169E+03 5.67888E+01
 -1      2509-1.88035E+03-7.50806E+02-5.55625E+03-8.43215E+00 2.49232E+03 6.37368E+01
 -1      2510-1.88183E+03-7.51001E+02-5.55922E+03-8.34875E+00 2.49306E+03 6.92552E+01
 -1      2511-1.87929E+03-7.50859E+02-5.56112E+03-9.16068E+00 2.49325E+03 7.48440E+01
 -1      2512-1.87168E+03-7.50390E+02-5.55858E+03-1.22005E+01 2.49129E+03 8.31687E+01
 -1      2513-1.86172E+03-7.49445E+02-5.53966E+03-1.91957E+01 2.48329E+03 9.75361E+01
 -1      2514-1.86017E+03-7.46039E+02-5.48238E+03-2.78475E+01 2.46278E+03 1.16655E+02
 -1      2515-1.86855E+03-7.31611E+02-5.38071E+03-2.00441E+01 2.42838E+03 1.20103E+02
 -1      2516-1.82502E+03-7.00829E+02-5.35416E+03 4.24336E+01 2.41589E+03 6.81980E+01
 -1      2517-1.63376E+03-7.01980E+02-5.72651E+03 1.22398E+02 2.53415E+03 1.51055E+01
 -1      2518-1.47730E+03-8.90484E+02-6.43406E+03-1.03412E+02 2.80665E+03 3.04253E+02
 -1      2519-1.32518E+03-8.51079E+02-5.33887E+03-6.94676E+02 2.36996E+03 9.55987E+02
 -1      2520-7.98640E+02-1.18946E+02-1.74749E+03-7.77738E+02 8.11338E+02 1.05074E+03
 -1      2521-6.29862E+02-8.84002E+00-1.15902E+02-3.15032E+02 1.41832E+02 5.54715E+02
 -1      2522-3.39688E+02-3.52554E+01 5.77460E+01-5.21411E+01 1.39532E+01 2.38805E+02
 -1      2523-3.14193E+02-1.67105E+02-1.66937E+03 3.27410E+02 6.90617E+02-7.63316E+02
 -1      2524-5.39905E+02-4.21711E+02-2.71308E+03 3.21302E+02 1.27081E+03-6.80116E+02
 -1      2525-7.06939E+02-5.32047E+02-3.45695E+03 1.59886E+02 1.61813E+03-4.12708E+02
 -1      2526-8.84494E+02-5.46539E+02-3.66661E+03 3.90095E+01 1.72729E+03-1.80888E+02
 -1      2527-1.05270E+03-5.46181E+02-3.65527E+03-7.07224E+00 1.73709E+03-5.28201E+01
 -1      2528-1.15542E+03-5.48118E+02-3.61417E+03-1.42617E+01 1.72540E+03 2.57731E+00
 -1      2529-1.20295E+03-5.50847E+02-3.59664E+03-1.07240E+01 1.71696E+03 2.71031E+01
 -1      2530-1.22228E+03-5.52571E+02-3.59620E+03-7.19778E+00 1.71383E+03 4.11278E+01
 -1      2531-1.23098E+03-5.53393E+02-3.60084E+03-5.46449E+00 1.71345E+03 5.09648E+01
 -1      2532-1.23551E+03-5.53754E+02-3.60509E+03-4.87282E+00 1.71393E+03 5.82641E+01
 -1      2533-1.23685E+03-5.53839E+02-3.60804E+03-4.84052E+00 1.71445E+03 6.40540E+01
 -1      2534-1.23417E+03-5.53707E+02-3.60983E+03-5.45948E+00 1.71455E+03 6.98876E+01
 -1      2535-1.22725E+03-5.53504E+02-3.60816E+03-7.55154E+00 1.71310E+03 7.82397E+01
 -1      2536-1.22054E+03-5.53254E+02-3.59389E+03-1.20202E+01 1.70741E+03 9.16763E+01
 -1      2537-1.22503E+03-5.50692E+02-3.55033E+03-1.69502E+01 1.69320E+03 1.07663E+02
 -1      2538-1.23547E+03-5.37332E+02-3.47703E+03-1.06814E+01 1.67037E+03 1.07801E+02
 -1      2539-1.17956E+03-5.11909E+02-3.47468E+03 2.82322E+01 1.66313E+03 6.97225E+01
 -1      2540-9.72794E+02-5.25841E+02-3.75901E+03 6.85443E+01 1.74246E+03 6.46830E+01
 -1      2541-7.72611E+02-6.58157E+02-4.14928E+03-8.31690E+01 1.91361E+03 3.23306E+02
 -1      2542-7.09557E+02-6.02403E+02-3.36713E+03-4.42189E+02 1.60218E+03 7.90636E+02
 -1      2543-5.98308E+02-1.15136E+02-1.22471E+03-4.94924E+02 5.72811E+02 8.72076E+02
 -1      2544-5.61868E+02 1.17459E+00-7.53235E+01-2.16180E+02 1.08675E+02 5.30802E+02
 -1      2545-3.33760E+02-2.54975E+01 5.74819E+01-4.30221E+01 1.48649E+01 2.56909E+02
 -1      2546-1.26788E+02-1.20308E+02-1.17425E+03-4.13762E+02-4.75161E+02-4.33711E+02
 -1      2547-1.74905E+02-3.80300E+02-1.84606E+03-3.85888E+02-9.63143E+02-4.18624E+02
 -1      2548-2.74537E+02-4.57718E+02-2.32870E+03-1.78768E+02-1.20087E+03-2.34876E+02
 -1      2549-4.33353E+02-4.52699E+02-2.43800E+03-3.60749E+01-1.24763E+03-9.28408E+01
 -1      2550-6.02334E+02-4.42040E+02-2.39927E+03 1.39828E+01-1.23606E+03-2.31313E+01
 -1      2551-7.16675E+02-4.41852E+02-2.36000E+03 2.03215E+01-1.22229E+03 6.88215E+00
 -1      2552-7.75386E+02-4.44593E+02-2.34596E+03 1.56184E+01-1.21593E+03 2.40516E+01
 -1      2553-8.02764E+02-4.46561E+02-2.34628E+03 1.15026E+01-1.21413E+03 3.66550E+01
 -1      2554-8.16105E+02-4.47488E+02-2.35007E+03 9.59808E+00-1.21407E+03 4.59705E+01
 -1      2555-8.22917E+02-4.47835E+02-2.35322E+03 8.99245E+00-1.21441E+03 5.25110E+01
 -1      2556-8.25237E+02-4.47905E+02-2.35540E+03 8.97897E+00-1.21477E+03 5.71579E+01
 -1      2557-8.23018E+02-4.47885E+02-2.35713E+03 9.65851E+00-1.21503E+03 6.10994E+01
 -1      2558-8.16601E+02-4.48060E+02-2.35719E+03 1.20100E+01-1.21469E+03 6.62693E+01
 -1      2559-8.10057E+02-4.48558E+02-2.34874E+03 1.72458E+01-1.21198E+03 7.58954E+01
 -1      2560-8.12844E+02-4.47062E+02-2.31776E+03 2.37238E+01-1.20243E+03 9.19334E+01
 -1      2561-8.19800E+02-4.33544E+02-2.25823E+03 1.93859E+01-1.17961E+03 1.02623E+02
 -1      2562-7.58364E+02-4.02041E+02-2.24161E+03-2.47766E+01-1.15649E+03 7.40684E+01
 -1      2563-5.33763E+02-4.03747E+02-2.47253E+03-9.49425E+01-1.21270E+03 2.48134E+01
 -1      2564-3.34630E+02-5.92857E+02-2.85260E+03 7.15003E+01-1.46174E+03 1.60612E+02
 -1      2565-3.73463E+02-6.05755E+02-2.31876E+03 5.54184E+02-1.28514E+03 5.06659E+02
 -1      2566-4.17872E+02 1.77594E+00-7.15012E+02 6.13568E+02-2.79187E+02 5.51724E+02
 -1      2567-5.05086E+02 4.49876E+01 8.07223E+01 2.32869E+02 6.56399E+00 2.87533E+02
 -1      2568-3.21486E+02-2.13268E+01 7.06531E+01 4.04311E+01 9.35078E+00 1.29253E+02
 -1      2569-3.90257E+02-1.52731E+02-2.28447E+03-6.56310E+02-8.54432E+02-6.24066E+02
 -1      2570-7.64750E+02-5.00495E+02-3.96358E+03-6.05427E+02-1.75719E+03-5.81095E+02
 -1      2571-1.05044E+03-5.82263E+02-4.93784E+03-2.64506E+02-2.18790E+03-2.80151E+02
 -1      2572-1.28358E+03-5.69005E+02-5.15783E+03-4.33749E+01-2.27314E+03-8.15175E+01
 -1      2573-1.46253E+03-5.57899E+02-5.10918E+03 2.85407E+01-2.25325E+03-3.46422E+00
 -1      2574-1.56540E+03-5.58231E+02-5.04375E+03 3.46593E+01-2.22847E+03 2.25825E+01
 -1      2575-1.61446E+03-5.61607E+02-5.01359E+03 2.59551E+01-2.21673E+03 3.57975E+01
 -1      2576-1.63754E+03-5.64012E+02-5.00723E+03 1.93621E+01-2.21326E+03 4.63352E+01
 -1      2577-1.64968E+03-5.65216E+02-5.00907E+03 1.65113E+01-2.21306E+03 5.47334E+01
 -1      2578-1.65641E+03-5.65723E+02-5.01202E+03 1.56435E+01-2.21366E+03 6.08427E+01
 -1      2579-1.65899E+03-5.65870E+02-5.01451E+03 1.55841E+01-2.21432E+03 6.52386E+01
 -1      2580-1.65696E+03-5.65860E+02-5.01638E+03 1.64738E+01-2.21480E+03 6.90728E+01
 -1      2581-1.64968E+03-5.65980E+02-5.01494E+03 1.99048E+01-2.21412E+03 7.45687E+01
 -1      2582-1.63895E+03-5.66289E+02-4.99955E+03 2.81239E+01-2.20902E+03 8.58626E+01
 -1      2583-1.63304E+03-5.64603E+02-4.94968E+03 3.92414E+01-2.19188E+03 1.06090E+02
 -1      2584-1.63651E+03-5.50826E+02-4.85457E+03 3.48055E+01-2.15132E+03 1.21037E+02
 -1      2585-1.59526E+03-5.11772E+02-4.80148E+03-3.49165E+01-2.11190E+03 7.60950E+01
 -1      2586-1.38187E+03-4.84912E+02-5.11259E+03-1.67270E+02-2.21180E+03-4.48241E+01
 -1      2587-1.23847E+03-7.59860E+02-5.95630E+03 7.50760E+01-2.66230E+03 1.38932E+02
 -1      2588-1.18224E+03-8.45079E+02-5.03984E+03 8.80998E+02-2.36811E+03 7.94477E+02
 -1      2589-6.58657E+02 7.93087E+01-1.35953E+03 9.75624E+02-5.02075E+02 8.58257E+02
 -1      2590-6.04578E+02 5.17732E+01 8.30692E+00 3.34498E+02 4.70814E+00 3.38118E+02
 -1      2591-3.29139E+02-3.05079E+01 5.27990E+01 4.37117E+01 1.77542E+01 1.16700E+02
 -1      2592-7.29958E+02-2.15951E+02-3.58913E+03-7.06781E+02-9.80875E+02-8.99716E+02
 -1      2593-1.48926E+03-6.48793E+02-6.65117E+03-6.42525E+02-2.05511E+03-8.15537E+02
 -1      2594-1.97989E+03-7.43345E+02-8.21836E+03-2.77464E+02-2.56175E+03-3.45337E+02
 -1      2595-2.30245E+03-7.11618E+02-8.52908E+03-4.23332E+01-2.66083E+03-6.77872E+01
 -1      2596-2.50896E+03-6.97582E+02-8.44987E+03 3.28453E+01-2.63749E+03 2.21856E+01
 -1      2597-2.60716E+03-6.98530E+02-8.34861E+03 3.85746E+01-2.60850E+03 4.31514E+01
 -1      2598-2.64764E+03-7.02902E+02-8.29947E+03 2.90950E+01-2.59460E+03 5.11457E+01
 -1      2599-2.66590E+03-7.06084E+02-8.28598E+03 2.20538E+01-2.59036E+03 5.91537E+01
 -1      2600-2.67629E+03-7.07703E+02-8.28592E+03 1.90398E+01-2.59004E+03 6.65898E+01
 -1      2601-2.68271E+03-7.08407E+02-8.28876E+03 1.81261E+01-2.59070E+03 7.23422E+01
 -1      2602-2.68539E+03-7.08631E+02-8.29170E+03 1.80520E+01-2.59147E+03 7.65481E+01
 -1      2603-2.68321E+03-7.08632E+02-8.29395E+03 1.89600E+01-2.59203E+03 8.03538E+01
 -1      2604-2.67437E+03-7.08794E+02-8.29148E+03 2.25435E+01-2.59124E+03 8.64411E+01
 -1      2605-2.65877E+03-7.09075E+02-8.26913E+03 3.12156E+01-2.58527E+03 1.00357E+02
 -1      2606-2.64492E+03-7.07189E+02-8.19728E+03 4.30901E+01-2.56550E+03 1.26726E+02
 -1      2607-2.65046E+03-6.92838E+02-8.05331E+03 3.89220E+01-2.51891E+03 1.47973E+02
 -1      2608-2.62938E+03-6.38322E+02-7.93140E+03-3.58497E+01-2.47363E+03 8.20127E+01
 -1      2609-2.38343E+03-5.76192E+02-8.31164E+03-1.82103E+02-2.59257E+03-1.48296E+02
 -1      2610-2.30459E+03-9.73679E+02-9.92657E+03 6.76915E+01-3.12605E+03 8.84921E+01
 -1      2611-2.19542E+03-1.13170E+03-8.70680E+03 9.37928E+02-2.82082E+03 1.21206E+03
 -1      2612-9.17930E+02 1.83414E+02-1.91597E+03 1.04401E+03-5.81465E+02 1.30674E+03
 -1      2613-7.73876E+02 7.71537E+01 1.92647E+01 3.49299E+02 7.43316E+00 4.00057E+02
 -1      2614-3.78083E+02-4.52139E+01 4.04153E+01 4.15561E+01 2.22312E+01 9.95214E+01
 -1      2615-1.03865E+03-2.31713E+02-4.79675E+03-5.78373E+02-8.01323E+02-1.17428E+03
 -1      2616-2.14804E+03-6.86179E+02-9.22963E+03-5.23987E+02-1.70398E+03-1.05396E+03
 -1      2617-2.82418E+03-7.63836E+02-1.13826E+04-2.26076E+02-2.13513E+03-4.13772E+02
 -1      2618-3.23208E+03-7.08653E+02-1.17792E+04-3.40947E+01-2.21991E+03-5.61236E+01
 -1      2619-3.46989E+03-6.90410E+02-1.16696E+04 2.75207E+01-2.20097E+03 4.66352E+01
 -1      2620-3.56782E+03-6.92943E+02-1.15346E+04 3.22952E+01-2.17692E+03 6.30869E+01
 -1      2621-3.60174E+03-6.98944E+02-1.14679E+04 2.46271E+01-2.16525E+03 6.61140E+01
 -1      2622-3.61576E+03-7.03170E+02-1.14480E+04 1.88959E+01-2.16163E+03 7.17117E+01
 -1      2623-3.62448E+03-7.05261E+02-1.14463E+04 1.64301E+01-2.16130E+03 7.82747E+01
 -1      2624-3.63054E+03-7.06135E+02-1.14492E+04 1.56803E+01-2.16184E+03 8.37418E+01
 -1      2625-3.63327E+03-7.06398E+02-1.14527E+04 1.56178E+01-2.16248E+03 8.78152E+01
 -1      2626-3.63082E+03-7.06412E+02-1.14553E+04 1.63605E+01-2.16296E+03 9.16473E+01
 -1      2627-3.62035E+03-7.06738E+02-1.14520E+04 1.92750E+01-2.16228E+03 9.84131E+01
 -1      2628-3.60033E+03-7.07399E+02-1.14231E+04 2.62860E+01-2.15729E+03 1.15016E+02
 -1      2629-3.58027E+03-7.06341E+02-1.13303E+04 3.58363E+01-2.14086E+03 1.47441E+02
 -1      2630-3.59029E+03-6.92651E+02-1.11395E+04 3.22202E+01-2.10274E+03 1.74695E+02
 -1      2631-3.58604E+03-6.24249E+02-1.09475E+04-2.93919E+01-2.06546E+03 8.68526E+01
 -1      2632-3.30118E+03-5.26381E+02-1.14043E+04-1.48351E+02-2.17270E+03-2.52325E+02
 -1      2633-3.27048E+03-1.01122E+03-1.37882E+04 5.04066E+01-2.61784E+03 3.07673E+01
 -1      2634-3.14761E+03-1.25551E+03-1.23734E+04 7.61681E+02-2.38960E+03 1.62932E+03
 -1      2635-1.15674E+03 3.19781E+02-2.43442E+03 8.54303E+02-4.98664E+02 1.76441E+03
 -1      2636-9.48758E+02 1.07511E+02 5.03514E+01 2.85375E+02 9.11292E+00 4.64259E+02
 -1      2637-4.36944E+02-5.70579E+01 3.15706E+01 3.35083E+01 1.99912E+01 8.29210E+01
 -1      2638-1.19893E+03-1.90609E+02-5.49808E+03-3.19296E+02-4.25278E+02-1.35602E+03
 -1      2639-2.49189E+03-6.00263E+02-1.07567E+04-2.89826E+02-9.12371E+02-1.21694E+03
 -1      2640-3.27841E+03-6.39624E+02-1.32892E+04-1.25702E+02-1.15173E+03-4.63203E+02
 -1      2641-3.74389E+03-5.62683E+02-1.37456E+04-1.91658E+01-1.19973E+03-4.92627E+01
 -1      2642-4.00655E+03-5.41272E+02-1.36199E+04 1.53361E+01-1.19006E+03 6.31081E+01
 -1      2643-4.10707E+03-5.45903E+02-1.34656E+04 1.81585E+01-1.17719E+03 7.67572E+01
 -1      2644-4.13759E+03-5.53710E+02-1.33884E+04 1.39751E+01-1.17086E+03 7.65200E+01
 -1      2645-4.14897E+03-5.58897E+02-1.33645E+04 1.08102E+01-1.16887E+03 8.04956E+01
 -1      2646-4.15654E+03-5.61356E+02-1.33619E+04 9.43750E+00-1.16867E+03 8.64747E+01
 -1      2647-4.16231E+03-5.62316E+02-1.33648E+04 9.01807E+00-1.16896E+03 9.17589E+01
 -1      2648-4.16502E+03-5.62562E+02-1.33685E+04 8.98343E+00-1.16932E+03 9.57560E+01
 -1      2649-4.16230E+03-5.62575E+02-1.33714E+04 9.40037E+00-1.16957E+03 9.96197E+01
 -1      2650-4.15067E+03-5.63095E+02-1.33675E+04 1.10192E+01-1.16919E+03 1.06893E+02
 -1      2651-4.12788E+03-5.64405E+02-1.33345E+04 1.48735E+01-1.16646E+03 1.25313E+02
 -1      2652-4.10485E+03-5.64929E+02-1.32291E+04 2.00753E+01-1.15753E+03 1.61779E+02
 -1      2653-4.12091E+03-5.53232E+02-1.30112E+04 1.78165E+01-1.13731E+03 1.92928E+02
 -1      2654-4.12904E+03-4.76675E+02-1.27762E+04-1.67668E+01-1.11743E+03 8.75851E+01
 -1      2655-3.81923E+03-3.53842E+02-1.33037E+04-8.12353E+01-1.18172E+03-3.22299E+02
 -1      2656-3.78664E+03-8.66916E+02-1.61393E+04 2.74176E+01-1.41930E+03-7.35363E+00
 -1      2657-3.67469E+03-1.18241E+03-1.46456E+04 4.18278E+02-1.30402E+03 1.90543E+03
 -1      2658-1.31648E+03 4.40992E+02-2.80373E+03 4.72601E+02-2.84454E+02 2.07650E+03
 -1      2659-1.07207E+03 1.34170E+02 7.68585E+01 1.59680E+02 6.32876E+00 5.14658E+02
 -1      2660-4.81909E+02-6.35959E+01 2.70296E+01 1.89776E+01 1.15578E+01 7.15400E+01
 -1      2661-1.23938E+03-1.64870E+02-5.70170E+03 6.06177E-06-1.90875E-05-1.41604E+03
 -1      2662-2.57852E+03-5.45049E+02-1.12048E+04 9.23431E-06-1.12145E-05-1.27232E+03
 -1      2663-3.39872E+03-5.65551E+02-1.38602E+04 4.68928E-06-4.53412E-06-4.80782E+02
 -1      2664-3.88420E+03-4.80076E+02-1.43380E+04 1.40795E-06-3.67980E-06-4.71425E+01
 -1      2665-4.15639E+03-4.57566E+02-1.42084E+04 3.13343E-07-4.53417E-06 6.87739E+01
 -1      2666-4.25851E+03-4.63181E+02-1.40486E+04-5.81706E-08-4.73578E-06 8.15224E+01
 -1      2667-4.28811E+03-4.71765E+02-1.39682E+04-4.83357E-07-4.96536E-06 8.01965E+01
 -1      2668-4.29864E+03-4.77341E+02-1.39431E+04-7.14813E-07-6.04895E-06 8.36193E+01
 -1      2669-4.30580E+03-4.79937E+02-1.39402E+04-9.12947E-07-6.65922E-06 8.93984E+01
 -1      2670-4.31146E+03-4.80921E+02-1.39430E+04-9.24725E-07-8.37733E-06 9.46207E+01
 -1      2671-4.31414E+03-4.81153E+02-1.39469E+04-6.18889E-07-9.20371E-06 9.85931E+01
 -1      2672-4.31132E+03-4.81160E+02-1.39499E+04-4.91131E-07-9.85127E-06 1.02470E+02
 -1      2673-4.29928E+03-4.81765E+02-1.39457E+04-6.04291E-07-1.02857E-05 1.09924E+02
 -1      2674-4.27557E+03-4.83363E+02-1.39114E+04-5.24971E-07-1.15481E-05 1.28961E+02
 -1      2675-4.25186E+03-4.84673E+02-1.38023E+04-2.53323E-07-1.17426E-05 1.66775E+02
 -1      2676-4.27085E+03-4.73991E+02-1.35765E+04-1.46628E-07-1.20654E-05 1.99220E+02
 -1      2677-4.28363E+03-3.94841E+02-1.33284E+04-3.56138E-07-1.22320E-05 8.70521E+01
 -1      2678-3.96653E+03-2.64120E+02-1.38868E+04-1.50324E-06-1.33732E-05-3.45885E+02
 -1      2679-3.92190E+03-7.78425E+02-1.68505E+04-8.19973E-08-1.90001E-05-1.90075E+01
 -1      2680-3.81658E+03-1.11895E+03-1.53387E+04 5.72070E-06-1.71940E-05 1.99655E+03
 -1      2681-1.37282E+03 4.86543E+02-2.93910E+03 6.38189E-06-2.64499E-06 2.18197E+03
 -1      2682-1.11576E+03 1.44517E+02 8.61076E+01 2.03424E-06 1.06955E-06 5.34218E+02
 -1      2683-4.98353E+02-6.53950E+01 2.62329E+01 3.07982E-07 3.83040E-07 6.74981E+01
 -1      2684-1.19893E+03-1.90609E+02-5.49808E+03 3.19296E+02 4.25278E+02-1.35602E+03
 -1      2685-2.49189E+03-6.00263E+02-1.07567E+04 2.89826E+02 9.12371E+02-1.21694E+03
 -1      2686-3.27841E+03-6.39624E+02-1.32892E+04 1.25702E+02 1.15173E+03-4.63203E+02
 -1      2687-3.74389E+03-5.62683E+02-1.37456E+04 1.91658E+01 1.19973E+03-4.92627E+01
 -1      2688-4.00655E+03-5.41272E+02-1.36199E+04-1.53361E+01 1.19006E+03 6.31081E+01
 -1      2689-4.10707E+03-5.45903E+02-1.34656E+04-1.81585E+01 1.17719E+03 7.67572E+01
 -1      2690-4.13759E+03-5.53710E+02-1.33884E+04-1.39751E+01 1.17086E+03 7.65200E+01
 -1      2691-4.14897E+03-5.58897E+02-1.33645E+04-1.08102E+01 1.16887E+03 8.04956E+01
 -1      2692-4.15654E+03-5.61356E+02-1.33619E+04-9.43750E+00 1.16867E+03 8.64747E+01
 -1      2693-4.16231E+03-5.62316E+02-1.33648E+04-9.01807E+00 1.16896E+03 9.17589E+01
 -1      2694-4.16502E+03-5.62562E+02-1.33685E+04-8.98343E+00 1.16932E+03 9.57560E+01
 -1      2695-4.16230E+03-5.62575E+02-1.33714E+04-9.40037E+00 1.16957E+03 9.96197E+01
 -1      2696-4.15067E+03-5.63095E+02-1.33675E+04-1.10192E+01 1.16919E+03 1.06893E+02
 -1      2697-4.12788E+03-5.64405E+02-1.33345E+04-1.48735E+01 1.16646E+03 1.25313E+02
 -1      2698-4.10485E+03-5.64929E+02-1.32291E+04-2.00753E+01 1.15753E+03 1.61779E+02
 -1      2699-4.12091E+03-5.53232E+02-1.30112E+04-1.78165E+01 1.13731E+03 1.92928E+02
 -1      2700-4.12904E+03-4.76675E+02-1.27762E+04 1.67668E+01 1.11743E+03 8.75851E+01
 -1      2701-3.81923E+03-3.53842E+02-1.33037E+04 8.12353E+01 1.18172E+03-3.22299E+02
 -1      2702-3.78664E+03-8.66916E+02-1.61393E+04-2.74176E+01 1.41930E+03-7.35363E+00
 -1      2703-3.67469E+03-1.18241E+03-1.46456E+04-4.18278E+02 1.30402E+03 1.90543E+03
 -1      2704-1.31648E+03 4.40992E+02-2.80373E+03-4.72601E+02 2.84454E+02 2.07650E+03
 -1      2705-1.07207E+03 1.34170E+02 7.68585E+01-1.59680E+02-6.32876E+00 5.14658E+02
 -1      2706-4.81909E+02-6.35959E+01 2.70296E+01-1.89776E+01-1.15578E+01 7.15400E+01
 -1      2707-1.03865E+03-2.31713E+02-4.79675E+03 5.78373E+02 8.01323E+02-1.17428E+03
 -1      2708-2.14804E+03-6.86179E+02-9.22963E+03 5.23987E+02 1.70398E+03-1.05396E+03
 -1      2709-2.82418E+03-7.63836E+02-1.13826E+04 2.26076E+02 2.13513E+03-4.13772E+02
 -1      2710-3.23208E+03-7.08653E+02-1.17792E+04 3.40947E+01 2.21991E+03-5.61236E+01
 -1      2711-3.46989E+03-6.90410E+02-1.16696E+04-2.75207E+01 2.20097E+03 4.66352E+01
 -1      2712-3.56782E+03-6.92943E+02-1.15346E+04-3.22952E+01 2.17692E+03 6.30869E+01
 -1      2713-3.60174E+03-6.98944E+02-1.14679E+04-2.46271E+01 2.16525E+03 6.61140E+01
 -1      2714-3.61576E+03-7.03170E+02-1.14480E+04-1.88959E+01 2.16163E+03 7.17117E+01
 -1      2715-3.62448E+03-7.05261E+02-1.14463E+04-1.64301E+01 2.16130E+03 7.82747E+01
 -1      2716-3.63054E+03-7.06135E+02-1.14492E+04-1.56803E+01 2.16184E+03 8.37418E+01
 -1      2717-3.63327E+03-7.06398E+02-1.14527E+04-1.56178E+01 2.16248E+03 8.78152E+01
 -1      2718-3.63082E+03-7.06412E+02-1.14553E+04-1.63605E+01 2.16296E+03 9.16473E+01
 -1      2719-3.62035E+03-7.06738E+02-1.14520E+04-1.92750E+01 2.16228E+03 9.84131E+01
 -1      2720-3.60033E+03-7.07399E+02-1.14231E+04-2.62860E+01 2.15729E+03 1.15016E+02
 -1      2721-3.58027E+03-7.06341E+02-1.13303E+04-3.58363E+01 2.14086E+03 1.47441E+02
 -1      2722-3.59029E+03-6.92650E+02-1.11395E+04-3.22202E+01 2.10274E+03 1.74695E+02
 -1      2723-3.58604E+03-6.24249E+02-1.09475E+04 2.93919E+01 2.06546E+03 8.68526E+01
 -1      2724-3.30118E+03-5.26381E+02-1.14043E+04 1.48351E+02 2.17270E+03-2.52325E+02
 -1      2725-3.27048E+03-1.01122E+03-1.37882E+04-5.04066E+01 2.61784E+03 3.07673E+01
 -1      2726-3.14761E+03-1.25551E+03-1.23734E+04-7.61681E+02 2.38960E+03 1.62932E+03
 -1      2727-1.15674E+03 3.19781E+02-2.43442E+03-8.54303E+02 4.98664E+02 1.76441E+03
 -1      2728-9.48758E+02 1.07511E+02 5.03514E+01-2.85375E+02-9.11292E+00 4.64259E+02
 -1      2729-4.36944E+02-5.70579E+01 3.15706E+01-3.35083E+01-1.99912E+01 8.29210E+01
 -1      2730-7.29958E+02-2.15951E+02-3.58913E+03 7.06781E+02 9.80875E+02-8.99716E+02
 -1      2731-1.48926E+03-6.48793E+02-6.65117E+03 6.42525E+02 2.05511E+03-8.15537E+02
 -1      2732-1.97989E+03-7.43345E+02-8.21836E+03 2.77464E+02 2.56175E+03-3.45337E+02
 -1      2733-2.30245E+03-7.11618E+02-8.52908E+03 4.23332E+01 2.66083E+03-6.77872E+01
 -1      2734-2.50896E+03-6.97582E+02-8.44987E+03-3.28453E+01 2.63749E+03 2.21856E+01
 -1      2735-2.60716E+03-6.98530E+02-8.34861E+03-3.85746E+01 2.60850E+03 4.31514E+01
 -1      2736-2.64764E+03-7.02902E+02-8.29947E+03-2.90950E+01 2.59460E+03 5.11457E+01
 -1      2737-2.66590E+03-7.06084E+02-8.28598E+03-2.20538E+01 2.59036E+03 5.91537E+01
 -1      2738-2.67629E+03-7.07703E+02-8.28592E+03-1.90398E+01 2.59004E+03 6.65898E+01
 -1      2739-2.68271E+03-7.08407E+02-8.28876E+03-1.81261E+01 2.59070E+03 7.23422E+01
 -1      2740-2.68539E+03-7.08631E+02-8.29170E+03-1.80520E+01 2.59147E+03 7.65481E+01
 -1      2741-2.68321E+03-7.08632E+02-8.29395E+03-1.89600E+01 2.59203E+03 8.03538E+01
 -1      2742-2.67437E+03-7.08794E+02-8.29148E+03-2.25435E+01 2.59124E+03 8.64411E+01
 -1      2743-2.65877E+03-7.09075E+02-8.26913E+03-3.12156E+01 2.58527E+03 1.00357E+02
 -1      2744-2.64492E+03-7.07189E+02-8.19729E+03-4.30901E+01 2.56550E+03 1.26726E+02
 -1      2745-2.65046E+03-6.92838E+02-8.05331E+03-3.89220E+01 2.51891E+03 1.47973E+02
 -1      2746-2.62938E+03-6.38322E+02-7.93140E+03 3.58497E+01 2.47363E+03 8.20127E+01
 -1      2747-2.38343E+03-5.76192E+02-8.31164E+03 1.82103E+02 2.59257E+03-1.48296E+02
 -1      2748-2.30459E+03-9.73679E+02-9.92657E+03-6.76915E+01 3.12605E+03 8.84921E+01
 -1      2749-2.19542E+03-1.13170E+03-8.70680E+03-9.37928E+02 2.82082E+03 1.21206E+03
 -1      2750-9.17930E+02 1.83414E+02-1.91597E+03-1.04401E+03 5.81465E+02 1.30674E+03
 -1      2751-7.73876E+02 7.71537E+01 1.92647E+01-3.49299E+02-7.43316E+00 4.00057E+02
 -1      2752-3.78083E+02-4.52139E+01 4.04153E+01-4.15561E+01-2.22312E+01 9.95214E+01
 -1      2753-3.90257E+02-1.52731E+02-2.28447E+03 6.56310E+02 8.54432E+02-6.24066E+02
 -1      2754-7.64750E+02-5.00494E+02-3.96358E+03 6.05427E+02 1.75719E+03-5.81095E+02
 -1      2755-1.05044E+03-5.82263E+02-4.93784E+03 2.64506E+02 2.18790E+03-2.80151E+02
 -1      2756-1.28358E+03-5.69005E+02-5.15783E+03 4.33749E+01 2.27314E+03-8.15175E+01
 -1      2757-1.46253E+03-5.57899E+02-5.10918E+03-2.85407E+01 2.25325E+03-3.46422E+00
 -1      2758-1.56540E+03-5.58231E+02-5.04375E+03-3.46593E+01 2.22847E+03 2.25825E+01
 -1      2759-1.61446E+03-5.61607E+02-5.01359E+03-2.59551E+01 2.21673E+03 3.57975E+01
 -1      2760-1.63754E+03-5.64012E+02-5.00723E+03-1.93621E+01 2.21326E+03 4.63352E+01
 -1      2761-1.64968E+03-5.65216E+02-5.00907E+03-1.65113E+01 2.21306E+03 5.47334E+01
 -1      2762-1.65641E+03-5.65723E+02-5.01202E+03-1.56435E+01 2.21366E+03 6.08426E+01
 -1      2763-1.65899E+03-5.65870E+02-5.01451E+03-1.55841E+01 2.21432E+03 6.52386E+01
 -1      2764-1.65696E+03-5.65860E+02-5.01638E+03-1.64738E+01 2.21480E+03 6.90728E+01
 -1      2765-1.64968E+03-5.65980E+02-5.01494E+03-1.99048E+01 2.21412E+03 7.45687E+01
 -1      2766-1.63895E+03-5.66289E+02-4.99955E+03-2.81239E+01 2.20902E+03 8.58626E+01
 -1      2767-1.63304E+03-5.64603E+02-4.94968E+03-3.92414E+01 2.19188E+03 1.06090E+02
 -1      2768-1.63651E+03-5.50826E+02-4.85457E+03-3.48055E+01 2.15132E+03 1.21037E+02
 -1      2769-1.59526E+03-5.11772E+02-4.80148E+03 3.49165E+01 2.11190E+03 7.60950E+01
 -1      2770-1.38187E+03-4.84912E+02-5.11259E+03 1.67270E+02 2.21180E+03-4.48241E+01
 -1      2771-1.23847E+03-7.59860E+02-5.95630E+03-7.50760E+01 2.66230E+03 1.38932E+02
 -1      2772-1.18224E+03-8.45079E+02-5.03984E+03-8.80998E+02 2.36811E+03 7.94477E+02
 -1      2773-6.58657E+02 7.93087E+01-1.35953E+03-9.75624E+02 5.02075E+02 8.58257E+02
 -1      2774-6.04578E+02 5.17732E+01 8.30692E+00-3.34498E+02-4.70814E+00 3.38118E+02
 -1      2775-3.29139E+02-3.05079E+01 5.27990E+01-4.37117E+01-1.77542E+01 1.16700E+02
 -1      2776-1.26788E+02-1.20308E+02-1.17425E+03 4.13762E+02 4.75161E+02-4.33711E+02
 -1      2777-1.74905E+02-3.80300E+02-1.84606E+03 3.85888E+02 9.63143E+02-4.18624E+02
 -1      2778-2.74537E+02-4.57718E+02-2.32870E+03 1.78768E+02 1.20087E+03-2.34876E+02
 -1      2779-4.33353E+02-4.52699E+02-2.43800E+03 3.60749E+01 1.24763E+03-9.28408E+01
 -1      2780-6.02334E+02-4.42040E+02-2.39927E+03-1.39828E+01 1.23606E+03-2.31313E+01
 -1      2781-7.16675E+02-4.41852E+02-2.36000E+03-2.03215E+01 1.22229E+03 6.88215E+00
 -1      2782-7.75386E+02-4.44593E+02-2.34596E+03-1.56184E+01 1.21593E+03 2.40516E+01
 -1      2783-8.02764E+02-4.46561E+02-2.34628E+03-1.15026E+01 1.21413E+03 3.66550E+01
 -1      2784-8.16105E+02-4.47488E+02-2.35007E+03-9.59808E+00 1.21407E+03 4.59705E+01
 -1      2785-8.22918E+02-4.47835E+02-2.35322E+03-8.99245E+00 1.21441E+03 5.25110E+01
 -1      2786-8.25237E+02-4.47905E+02-2.35540E+03-8.97897E+00 1.21477E+03 5.71579E+01
 -1      2787-8.23018E+02-4.47885E+02-2.35713E+03-9.65851E+00 1.21503E+03 6.10994E+01
 -1      2788-8.16601E+02-4.48060E+02-2.35719E+03-1.20100E+01 1.21469E+03 6.62693E+01
 -1      2789-8.10057E+02-4.48558E+02-2.34874E+03-1.72458E+01 1.21198E+03 7.58954E+01
 -1      2790-8.12844E+02-4.47062E+02-2.31776E+03-2.37238E+01 1.20243E+03 9.19334E+01
 -1      2791-8.19800E+02-4.33544E+02-2.25823E+03-1.93859E+01 1.17961E+03 1.02623E+02
 -1      2792-7.58364E+02-4.02041E+02-2.24161E+03 2.47766E+01 1.15649E+03 7.40684E+01
 -1      2793-5.33763E+02-4.03747E+02-2.47253E+03 9.49425E+01 1.21270E+03 2.48134E+01
 -1      2794-3.34630E+02-5.92857E+02-2.85260E+03-7.15003E+01 1.46174E+03 1.60612E+02
 -1      2795-3.73463E+02-6.05755E+02-2.31876E+03-5.54184E+02 1.28514E+03 5.06659E+02
 -1      2796-4.17872E+02 1.77595E+00-7.15012E+02-6.13568E+02 2.79187E+02 5.51724E+02
 -1      2797-5.05086E+02 4.49876E+01 8.07223E+01-2.32869E+02-6.56399E+00 2.87533E+02
 -1      2798-3.21486E+02-2.13268E+01 7.06531E+01-4.04311E+01-9.35078E+00 1.29253E+02
 -1      2799-5.41216E+00-2.16237E+02-6.54839E+02-3.89671E+02-2.69028E+02-1.34644E+02
 -1      2800-8.09963E+00-6.40632E+02-9.91742E+02-3.42579E+02-6.04278E+02-1.64451E+02
 -1      2801-7.17598E+01-7.43371E+02-1.23790E+03-1.36034E+02-7.31977E+02-8.42802E+01
 -1      2802-1.97353E+02-7.35645E+02-1.27860E+03-1.31578E+01-7.30000E+02-2.53336E+01
 -1      2803-3.32352E+02-7.16161E+02-1.24205E+03 2.40540E+01-7.07586E+02-3.13657E+00
 -1      2804-4.32345E+02-7.08766E+02-1.21398E+03 2.63155E+01-6.95549E+02 7.84092E+00
 -1      2805-4.92946E+02-7.08352E+02-1.20501E+03 2.11258E+01-6.91912E+02 1.85789E+01
 -1      2806-5.26773E+02-7.09418E+02-1.20572E+03 1.74674E+01-6.91457E+02 2.86428E+01
 -1      2807-5.45149E+02-7.10340E+02-1.20843E+03 1.59699E+01-6.91725E+02 3.62846E+01
 -1      2808-5.54667E+02-7.10840E+02-1.21051E+03 1.55692E+01-6.91995E+02 4.13805E+01
 -1      2809-5.58439E+02-7.11096E+02-1.21194E+03 1.55802E+01-6.92228E+02 4.46389E+01
 -1      2810-5.57721E+02-7.11323E+02-1.21326E+03 1.60852E+01-6.92550E+02 4.68428E+01
 -1      2811-5.53264E+02-7.11584E+02-1.21389E+03 1.79705E+01-6.92941E+02 4.92408E+01
 -1      2812-5.46273E+02-7.11131E+02-1.20948E+03 2.25455E+01-6.92487E+02 5.47558E+01
 -1      2813-5.38620E+02-7.07012E+02-1.19099E+03 2.90174E+01-6.87612E+02 6.73754E+01
 -1      2814-5.26513E+02-6.89123E+02-1.15527E+03 2.84338E+01-6.69397E+02 8.17904E+01
 -1      2815-4.74068E+02-6.57894E+02-1.13883E+03-5.84172E+00-6.37739E+02 6.72574E+01
 -1      2816-3.16751E+02-6.49936E+02-1.29290E+03-9.85033E+01-6.65050E+02 1.17208E+01
 -1      2817-2.08813E+02-9.39436E+02-1.54846E+03 2.15425E+01-9.31117E+02 4.39927E+01
 -1      2818-2.83062E+02-1.00013E+03-1.23876E+03 5.29820E+02-8.68143E+02 2.11489E+02
 -1      2819-2.39223E+02 5.23484E+01-3.47816E+02 5.73350E+02-3.91170E+01 2.23394E+02
 -1      2820-3.32516E+02 5.49140E+01 1.20934E+02 1.63505E+02 8.11547E+01 8.73065E+01
 -1      2821-2.08825E+02-8.35218E+00 5.83897E+01 1.84956E+01 1.93854E+01 3.50471E+01
 -1      2822-2.49829E+02-2.39808E+02-1.68782E+03-6.57034E+02-7.21102E+02-3.38796E+02
 -1      2823-5.47809E+02-7.58427E+02-2.98059E+03-5.69092E+02-1.62652E+03-3.49107E+02
 -1      2824-7.90101E+02-8.65855E+02-3.66889E+03-2.06502E+02-1.96774E+03-1.37555E+02
 -1      2825-9.91647E+02-8.45693E+02-3.79793E+03-8.34062E+00-1.98721E+03-1.48199E+01
 -1      2826-1.13471E+03-8.23745E+02-3.75300E+03 4.59474E+01-1.94394E+03 1.95542E+01
 -1      2827-1.22058E+03-8.15485E+02-3.70100E+03 4.62360E+01-1.91613E+03 2.79929E+01
 -1      2828-1.27101E+03-8.15577E+02-3.67786E+03 3.65332E+01-1.90594E+03 3.49983E+01
 -1      2829-1.30055E+03-8.17127E+02-3.67285E+03 3.04539E+01-1.90374E+03 4.29298E+01
 -1      2830-1.31783E+03-8.18327E+02-3.67402E+03 2.81184E+01-1.90395E+03 4.95792E+01
 -1      2831-1.32732E+03-8.18947E+02-3.67606E+03 2.75320E+01-1.90452E+03 5.42332E+01
 -1      2832-1.33139E+03-8.19251E+02-3.67783E+03 2.75104E+01-1.90510E+03 5.72837E+01
 -1      2833-1.33097E+03-8.19530E+02-3.67929E+03 2.81854E+01-1.90576E+03 5.94963E+01
 -1      2834-1.32583E+03-8.19882E+02-3.67851E+03 3.10181E+01-1.90615E+03 6.24292E+01
 -1      2835-1.31500E+03-8.19601E+02-3.66796E+03 3.84922E+01-1.90349E+03 6.98882E+01
 -1      2836-1.29769E+03-8.14677E+02-3.63148E+03 4.99715E+01-1.89043E+03 8.68880E+01
 -1      2837-1.27976E+03-7.95899E+02-3.56473E+03 5.10513E+01-1.84807E+03 1.04987E+02
 -1      2838-1.25568E+03-7.58007E+02-3.50860E+03-2.03475E-01-1.78584E+03 7.51706E+01
 -1      2839-1.11313E+03-7.22619E+02-3.70258E+03-1.80350E+02-1.83827E+03-5.62511E+01
 -1      2840-1.04795E+03-1.10885E+03-4.46329E+03-2.01548E+01-2.45577E+03 2.95591E+01
 -1      2841-1.04456E+03-1.27286E+03-3.81912E+03 9.06905E+02-2.33379E+03 5.50452E+02
 -1      2842-4.60772E+02 1.51306E+02-8.61856E+02 9.78372E+02-1.57045E+02 5.76325E+02
 -1      2843-4.31110E+02 7.11650E+01 7.33097E+01 2.24696E+02 1.20574E+02 1.49294E+02
 -1      2844-2.03852E+02-1.37421E+01 2.88447E+01 1.37395E+01 3.36289E+01 3.08859E+01
 -1      2845-7.48122E+02-3.63427E+02-3.45107E+03-7.38451E+02-9.94587E+02-6.69579E+02
 -1      2846-1.67435E+03-1.08758E+03-6.89834E+03-6.32297E+02-2.28067E+03-6.29754E+02
 -1      2847-2.17301E+03-1.21456E+03-8.29857E+03-2.22504E+02-2.76917E+03-1.96789E+02
 -1      2848-2.47682E+03-1.17323E+03-8.50521E+03-4.79309E+00-2.81263E+03 8.65906E+00
 -1      2849-2.63615E+03-1.14333E+03-8.40810E+03 5.31355E+01-2.76162E+03 5.56253E+01
 -1      2850-2.70635E+03-1.13125E+03-8.30342E+03 5.29065E+01-2.72542E+03 5.77717E+01
 -1      2851-2.74465E+03-1.13133E+03-8.25597E+03 4.20867E+01-2.71101E+03 5.89841E+01
 -1      2852-2.76837E+03-1.13340E+03-8.24245E+03 3.53955E+01-2.70742E+03 6.42219E+01
 -1      2853-2.78391E+03-1.13497E+03-8.24183E+03 3.28280E+01-2.70743E+03 6.98796E+01
 -1      2854-2.79325E+03-1.13575E+03-8.24408E+03 3.21809E+01-2.70817E+03 7.42002E+01
 -1      2855-2.79761E+03-1.13610E+03-8.24658E+03 3.21449E+01-2.70898E+03 7.70907E+01
 -1      2856-2.79732E+03-1.13647E+03-8.24877E+03 3.28636E+01-2.70982E+03 7.92953E+01
 -1      2857-2.79075E+03-1.13699E+03-8.24691E+03 3.59157E+01-2.71000E+03 8.29804E+01
 -1      2858-2.77456E+03-1.13686E+03-8.22796E+03 4.40436E+01-2.70557E+03 9.31562E+01
 -1      2859-2.74485E+03-1.12985E+03-8.16178E+03 5.65791E+01-2.68722E+03 1.18173E+02
 -1      2860-2.71355E+03-1.10518E+03-8.02186E+03 5.83488E+01-2.63214E+03 1.42362E+02
 -1      2861-2.72233E+03-1.05654E+03-7.87669E+03 4.06292E+00-2.55605E+03 1.01591E+02
 -1      2862-2.52462E+03-9.53909E+02-7.99341E+03-2.03802E+02-2.62849E+03-1.71828E+02
 -1      2863-2.66228E+03-1.55745E+03-1.01046E+04-5.12027E+01-3.43768E+03-7.77980E+01
 -1      2864-2.68527E+03-1.86956E+03-9.40137E+03 1.01716E+03-3.34403E+03 1.10909E+03
 -1      2865-6.40199E+02 3.50008E+02-1.07027E+03 1.10615E+03-2.56166E+02 1.14867E+03
 -1      2866-6.24379E+02 9.03265E+01 8.51578E+01 2.32224E+02 1.19331E+02 1.73966E+02
 -1      2867-2.27132E+02-2.53908E+01-2.33419E+00 1.05518E+01 3.86493E+01 2.13227E+01
 -1      2868-1.20484E+03-4.53807E+02-5.06349E+03-5.96568E+02-7.76659E+02-1.00334E+03
 -1      2869-2.73757E+03-1.32752E+03-1.06928E+04-5.14606E+02-1.81645E+03-9.19910E+02
 -1      2870-3.48160E+03-1.45402E+03-1.28212E+04-1.82511E+02-2.24023E+03-2.59622E+02
 -1      2871-3.88398E+03-1.38835E+03-1.30980E+04-4.14463E+00-2.28560E+03 3.12607E+01
 -1      2872-4.06531E+03-1.35181E+03-1.29517E+04 4.39209E+01-2.24808E+03 9.07450E+01
 -1      2873-4.12479E+03-1.33722E+03-1.27974E+04 4.42578E+01-2.21983E+03 8.70383E+01
 -1      2874-4.15308E+03-1.33780E+03-1.27271E+04 3.56927E+01-2.20816E+03 8.25902E+01
 -1      2875-4.17159E+03-1.34062E+03-1.27058E+04 3.02606E+01-2.20511E+03 8.52425E+01
 -1      2876-4.18546E+03-1.34262E+03-1.27036E+04 2.81431E+01-2.20507E+03 8.99938E+01
 -1      2877-4.19464E+03-1.34357E+03-1.27062E+04 2.75973E+01-2.20568E+03 9.40473E+01
 -1      2878-4.19926E+03-1.34398E+03-1.27096E+04 2.75686E+01-2.20636E+03 9.68222E+01
 -1      2879-4.19901E+03-1.34446E+03-1.27127E+04 2.81631E+01-2.20705E+03 9.90632E+01
 -1      2880-4.19095E+03-1.34524E+03-1.27100E+04 3.06800E+01-2.20704E+03 1.03532E+02
 -1      2881-4.16988E+03-1.34551E+03-1.26833E+04 3.71693E+01-2.20329E+03 1.16566E+02
 -1      2882-4.12953E+03-1.33712E+03-1.25886E+04 4.69444E+01-2.18792E+03 1.49230E+02
 -1      2883-4.08889E+03-1.30858E+03-1.23813E+04 4.80279E+01-2.14594E+03 1.80167E+02
 -1      2884-4.12620E+03-1.25150E+03-1.21433E+04 1.38723E+00-2.08420E+03 1.25036E+02
 -1      2885-3.87707E+03-1.08510E+03-1.22136E+04-1.62145E+02-2.17192E+03-2.88288E+02
 -1      2886-4.17807E+03-1.84950E+03-1.56266E+04-4.67885E+01-2.79619E+03-2.08267E+02
 -1      2887-4.33488E+03-2.34957E+03-1.51899E+04 8.16041E+02-2.76187E+03 1.67212E+03
 -1      2888-7.95119E+02 5.70568E+02-1.21445E+03 9.03823E+02-2.78744E+02 1.74899E+03
 -1      2889-8.28551E+02 1.04842E+02 1.21472E+02 1.93531E+02 9.82883E+01 1.95432E+02
 -1      2890-2.60943E+02-3.64949E+01-3.03329E+01 8.56883E+00 3.13983E+01 1.10563E+01
 -1      2891-1.32738E+03-4.19677E+02-5.61463E+03-3.12329E+02-3.50118E+02-1.18209E+03
 -1      2892-3.04334E+03-1.25883E+03-1.21016E+04-2.74095E+02-8.38117E+02-1.09018E+03
 -1      2893-3.89893E+03-1.34824E+03-1.45920E+04-1.00307E+02-1.05895E+03-3.03153E+02
 -1      2894-4.36471E+03-1.26315E+03-1.49164E+04-3.21996E+00-1.08633E+03 4.36297E+01
 -1      2895-4.56956E+03-1.22433E+03-1.47582E+04 2.37793E+01-1.06955E+03 1.11822E+02
 -1      2896-4.62896E+03-1.21084E+03-1.45871E+04 2.44450E+01-1.05640E+03 1.05061E+02
 -1      2897-4.65322E+03-1.21295E+03-1.45078E+04 2.00205E+01-1.05083E+03 9.74305E+01
 -1      2898-4.66897E+03-1.21667E+03-1.44829E+04 1.71013E+01-1.04935E+03 9.85551E+01
 -1      2899-4.68176E+03-1.21902E+03-1.44799E+04 1.59413E+01-1.04933E+03 1.02771E+02
 -1      2900-4.69071E+03-1.22002E+03-1.44826E+04 1.56359E+01-1.04964E+03 1.06667E+02
 -1      2901-4.69537E+03-1.22040E+03-1.44863E+04 1.56230E+01-1.04998E+03 1.09377E+02
 -1      2902-4.69496E+03-1.22088E+03-1.44896E+04 1.59546E+01-1.05030E+03 1.11662E+02
 -1      2903-4.68588E+03-1.22188E+03-1.44863E+04 1.73438E+01-1.05024E+03 1.16582E+02
 -1      2904-4.66225E+03-1.22276E+03-1.44561E+04 2.07797E+01-1.04838E+03 1.31472E+02
 -1      2905-4.61777E+03-1.21499E+03-1.43493E+04 2.57152E+01-1.04080E+03 1.67843E+02
 -1      2906-4.58201E+03-1.18824E+03-1.41230E+04 2.59393E+01-1.02162E+03 2.04064E+02
 -1      2907-4.63845E+03-1.12583E+03-1.38357E+04-1.99510E+00-9.90804E+02 1.31541E+02
 -1      2908-4.38623E+03-9.37556E+02-1.39751E+04-8.30284E+01-1.05482E+03-3.57094E+02
 -1      2909-4.65259E+03-1.71804E+03-1.78365E+04-1.96931E+01-1.34011E+03-2.71984E+02
 -1      2910-4.89466E+03-2.30453E+03-1.76095E+04 4.22426E+02-1.33057E+03 1.97506E+03
 -1      2911-9.41628E+02 6.89524E+02-1.45679E+03 4.78451E+02-1.84737E+02 2.09796E+03
 -1      2912-9.54998E+02 1.25979E+02 1.73236E+02 1.12294E+02 5.66024E+01 2.30803E+02
 -1      2913-2.90921E+02-4.30313E+01-4.86842E+01 5.12268E+00 1.68905E+01-7.05789E-01
 -1      2914-1.33404E+03-4.11191E+02-5.68050E+03 1.64731E-05-2.75754E-05-1.23374E+03
 -1      2915-3.07106E+03-1.24057E+03-1.23171E+04 1.51905E-05-1.08180E-05-1.14358E+03
 -1      2916-3.95323E+03-1.31555E+03-1.48977E+04 5.85834E-06-3.45111E-06-3.18616E+02
 -1      2917-4.43982E+03-1.22362E+03-1.52392E+04 1.95112E-06-2.36925E-06 4.64145E+01
 -1      2918-4.65402E+03-1.18313E+03-1.50815E+04 7.78419E-07-3.98828E-06 1.17753E+02
 -1      2919-4.71465E+03-1.16975E+03-1.49082E+04 4.53861E-07-3.59103E-06 1.10101E+02
 -1      2920-4.73801E+03-1.17233E+03-1.48272E+04-1.52051E-07-4.02180E-06 1.01516E+02
 -1      2921-4.75296E+03-1.17635E+03-1.48016E+04-3.36526E-07-5.24512E-06 1.02170E+02
 -1      2922-4.76538E+03-1.17882E+03-1.47983E+04-5.40092E-07-5.73660E-06 1.06216E+02
 -1      2923-4.77423E+03-1.17984E+03-1.48009E+04-6.64379E-07-7.19592E-06 1.10062E+02
 -1      2924-4.77887E+03-1.18020E+03-1.48046E+04-3.35600E-07-8.63128E-06 1.12753E+02
 -1      2925-4.77836E+03-1.18067E+03-1.48079E+04-1.62114E-07-9.20081E-06 1.15047E+02
 -1      2926-4.76895E+03-1.18178E+03-1.48044E+04-3.55792E-07-9.27285E-06 1.20132E+02
 -1      2927-4.74454E+03-1.18280E+03-1.47732E+04-2.21834E-07-1.10221E-05 1.35548E+02
 -1      2928-4.69940E+03-1.17541E+03-1.46645E+04 1.14113E-07-1.05261E-05 1.73104E+02
 -1      2929-4.66696E+03-1.14832E+03-1.44363E+04 1.34019E-07-1.09198E-05 2.10835E+02
 -1      2930-4.73033E+03-1.08403E+03-1.41376E+04 2.38684E-07-1.09880E-05 1.31588E+02
 -1      2931-4.47997E+03-8.87500E+02-1.43172E+04-1.30748E-06-1.18634E-05-3.79186E+02
 -1      2932-4.71632E+03-1.67945E+03-1.82465E+04-7.45713E-07-1.89159E-05-2.91757E+02
 -1      2933-4.97559E+03-2.27611E+03-1.80699E+04 5.10012E-06-1.71227E-05 2.06375E+03
 -1      2934-9.97216E+02 7.28246E+02-1.57109E+03 5.42674E-06-1.95580E-06 2.20558E+03
 -1      2935-9.94632E+02 1.35358E+02 1.95317E+02 9.38693E-07 1.60259E-06 2.45403E+02
 -1      2936-3.02746E+02-4.44633E+01-5.40642E+01-3.55569E-08 4.51379E-07-4.79407E+00
 -1      2937-1.32738E+03-4.19677E+02-5.61463E+03 3.12329E+02 3.50118E+02-1.18209E+03
 -1      2938-3.04334E+03-1.25883E+03-1.21016E+04 2.74095E+02 8.38117E+02-1.09018E+03
 -1      2939-3.89893E+03-1.34824E+03-1.45920E+04 1.00307E+02 1.05895E+03-3.03153E+02
 -1      2940-4.36471E+03-1.26315E+03-1.49164E+04 3.21997E+00 1.08633E+03 4.36297E+01
 -1      2941-4.56956E+03-1.22433E+03-1.47582E+04-2.37793E+01 1.06955E+03 1.11822E+02
 -1      2942-4.62896E+03-1.21084E+03-1.45871E+04-2.44450E+01 1.05640E+03 1.05061E+02
 -1      2943-4.65322E+03-1.21295E+03-1.45078E+04-2.00205E+01 1.05083E+03 9.74305E+01
 -1      2944-4.66897E+03-1.21667E+03-1.44829E+04-1.71013E+01 1.04935E+03 9.85551E+01
 -1      2945-4.68176E+03-1.21902E+03-1.44799E+04-1.59413E+01 1.04933E+03 1.02771E+02
 -1      2946-4.69071E+03-1.22002E+03-1.44826E+04-1.56359E+01 1.04964E+03 1.06667E+02
 -1      2947-4.69537E+03-1.22040E+03-1.44863E+04-1.56230E+01 1.04998E+03 1.09377E+02
 -1      2948-4.69496E+03-1.22088E+03-1.44896E+04-1.59546E+01 1.05030E+03 1.11662E+02
 -1      2949-4.68588E+03-1.22188E+03-1.44863E+04-1.73438E+01 1.05024E+03 1.16582E+02
 -1      2950-4.66225E+03-1.22276E+03-1.44561E+04-2.07797E+01 1.04838E+03 1.31472E+02
 -1      2951-4.61777E+03-1.21499E+03-1.43493E+04-2.57152E+01 1.04080E+03 1.67843E+02
 -1      2952-4.58201E+03-1.18824E+03-1.41230E+04-2.59393E+01 1.02162E+03 2.04064E+02
 -1      2953-4.63845E+03-1.12583E+03-1.38357E+04 1.99510E+00 9.90804E+02 1.31541E+02
 -1      2954-4.38623E+03-9.37556E+02-1.39751E+04 8.30284E+01 1.05482E+03-3.57094E+02
 -1      2955-4.65259E+03-1.71804E+03-1.78365E+04 1.96931E+01 1.34011E+03-2.71984E+02
 -1      2956-4.89466E+03-2.30453E+03-1.76095E+04-4.22426E+02 1.33057E+03 1.97506E+03
 -1      2957-9.41628E+02 6.89524E+02-1.45679E+03-4.78451E+02 1.84737E+02 2.09796E+03
 -1      2958-9.54998E+02 1.25979E+02 1.73236E+02-1.12294E+02-5.66024E+01 2.30803E+02
 -1      2959-2.90921E+02-4.30313E+01-4.86842E+01-5.12268E+00-1.68905E+01-7.05789E-01
 -1      2960-1.20484E+03-4.53807E+02-5.06349E+03 5.96568E+02 7.76659E+02-1.00334E+03
 -1      2961-2.73757E+03-1.32752E+03-1.06928E+04 5.14606E+02 1.81645E+03-9.19910E+02
 -1      2962-3.48160E+03-1.45402E+03-1.28212E+04 1.82511E+02 2.24023E+03-2.59622E+02
 -1      2963-3.88398E+03-1.38835E+03-1.30980E+04 4.14463E+00 2.28560E+03 3.12607E+01
 -1      2964-4.06531E+03-1.35181E+03-1.29517E+04-4.39209E+01 2.24808E+03 9.07450E+01
 -1      2965-4.12479E+03-1.33722E+03-1.27974E+04-4.42578E+01 2.21983E+03 8.70383E+01
 -1      2966-4.15308E+03-1.33780E+03-1.27271E+04-3.56927E+01 2.20816E+03 8.25902E+01
 -1      2967-4.17159E+03-1.34062E+03-1.27058E+04-3.02606E+01 2.20511E+03 8.52425E+01
 -1      2968-4.18546E+03-1.34262E+03-1.27036E+04-2.81431E+01 2.20507E+03 8.99938E+01
 -1      2969-4.19464E+03-1.34357E+03-1.27062E+04-2.75973E+01 2.20568E+03 9.40473E+01
 -1      2970-4.19926E+03-1.34398E+03-1.27096E+04-2.75686E+01 2.20636E+03 9.68222E+01
 -1      2971-4.19901E+03-1.34446E+03-1.27127E+04-2.81631E+01 2.20705E+03 9.90632E+01
 -1      2972-4.19095E+03-1.34524E+03-1.27100E+04-3.06800E+01 2.20704E+03 1.03532E+02
 -1      2973-4.16988E+03-1.34551E+03-1.26833E+04-3.71693E+01 2.20328E+03 1.16566E+02
 -1      2974-4.12953E+03-1.33712E+03-1.25886E+04-4.69444E+01 2.18792E+03 1.49230E+02
 -1      2975-4.08889E+03-1.30858E+03-1.23813E+04-4.80279E+01 2.14594E+03 1.80167E+02
 -1      2976-4.12620E+03-1.25150E+03-1.21433E+04-1.38723E+00 2.08420E+03 1.25036E+02
 -1      2977-3.87707E+03-1.08510E+03-1.22136E+04 1.62145E+02 2.17192E+03-2.88288E+02
 -1      2978-4.17807E+03-1.84950E+03-1.56266E+04 4.67885E+01 2.79619E+03-2.08267E+02
 -1      2979-4.33488E+03-2.34957E+03-1.51899E+04-8.16041E+02 2.76187E+03 1.67212E+03
 -1      2980-7.95119E+02 5.70568E+02-1.21445E+03-9.03823E+02 2.78744E+02 1.74899E+03
 -1      2981-8.28551E+02 1.04842E+02 1.21472E+02-1.93531E+02-9.82883E+01 1.95432E+02
 -1      2982-2.60943E+02-3.64949E+01-3.03329E+01-8.56883E+00-3.13983E+01 1.10563E+01
 -1      2983-7.48122E+02-3.63427E+02-3.45107E+03 7.38451E+02 9.94587E+02-6.69579E+02
 -1      2984-1.67435E+03-1.08758E+03-6.89834E+03 6.32297E+02 2.28067E+03-6.29754E+02
 -1      2985-2.17301E+03-1.21456E+03-8.29857E+03 2.22504E+02 2.76917E+03-1.96789E+02
 -1      2986-2.47682E+03-1.17323E+03-8.50521E+03 4.79309E+00 2.81263E+03 8.65906E+00
 -1      2987-2.63615E+03-1.14333E+03-8.40810E+03-5.31355E+01 2.76162E+03 5.56253E+01
 -1      2988-2.70635E+03-1.13125E+03-8.30342E+03-5.29065E+01 2.72542E+03 5.77717E+01
 -1      2989-2.74465E+03-1.13133E+03-8.25597E+03-4.20867E+01 2.71101E+03 5.89841E+01
 -1      2990-2.76837E+03-1.13340E+03-8.24245E+03-3.53955E+01 2.70742E+03 6.42219E+01
 -1      2991-2.78391E+03-1.13497E+03-8.24183E+03-3.28280E+01 2.70743E+03 6.98796E+01
 -1      2992-2.79325E+03-1.13575E+03-8.24408E+03-3.21809E+01 2.70817E+03 7.42002E+01
 -1      2993-2.79761E+03-1.13610E+03-8.24658E+03-3.21449E+01 2.70898E+03 7.70907E+01
 -1      2994-2.79732E+03-1.13647E+03-8.24877E+03-3.28636E+01 2.70982E+03 7.92953E+01
 -1      2995-2.79075E+03-1.13699E+03-8.24691E+03-3.59157E+01 2.71000E+03 8.29804E+01
 -1      2996-2.77456E+03-1.13686E+03-8.22796E+03-4.40436E+01 2.70557E+03 9.31562E+01
 -1      2997-2.74485E+03-1.12985E+03-8.16178E+03-5.65791E+01 2.68722E+03 1.18173E+02
 -1      2998-2.71355E+03-1.10518E+03-8.02186E+03-5.83488E+01 2.63214E+03 1.42362E+02
 -1      2999-2.72233E+03-1.05654E+03-7.87669E+03-4.06292E+00 2.55605E+03 1.01591E+02
 -1      3000-2.52462E+03-9.53909E+02-7.99341E+03 2.03802E+02 2.62849E+03-1.71828E+02
 -1      3001-2.66228E+03-1.55745E+03-1.01046E+04 5.12027E+01 3.43768E+03-7.77980E+01
 -1      3002-2.68527E+03-1.86956E+03-9.40137E+03-1.01716E+03 3.34403E+03 1.10909E+03
 -1      3003-6.40199E+02 3.50008E+02-1.07027E+03-1.10615E+03 2.56166E+02 1.14867E+03
 -1      3004-6.24379E+02 9.03265E+01 8.51578E+01-2.32224E+02-1.19331E+02 1.73966E+02
 -1      3005-2.27132E+02-2.53908E+01-2.33419E+00-1.05518E+01-3.86493E+01 2.13227E+01
 -1      3006-2.49829E+02-2.39808E+02-1.68782E+03 6.57034E+02 7.21102E+02-3.38796E+02
 -1      3007-5.47809E+02-7.58427E+02-2.98059E+03 5.69092E+02 1.62652E+03-3.49107E+02
 -1      3008-7.90101E+02-8.65855E+02-3.66889E+03 2.06502E+02 1.96774E+03-1.37555E+02
 -1      3009-9.91647E+02-8.45693E+02-3.79793E+03 8.34063E+00 1.98721E+03-1.48199E+01
 -1      3010-1.13471E+03-8.23745E+02-3.75300E+03-4.59474E+01 1.94394E+03 1.95542E+01
 -1      3011-1.22058E+03-8.15485E+02-3.70100E+03-4.62360E+01 1.91613E+03 2.79929E+01
 -1      3012-1.27101E+03-8.15577E+02-3.67786E+03-3.65332E+01 1.90594E+03 3.49983E+01
 -1      3013-1.30055E+03-8.17127E+02-3.67285E+03-3.04539E+01 1.90374E+03 4.29298E+01
 -1      3014-1.31783E+03-8.18327E+02-3.67402E+03-2.81184E+01 1.90395E+03 4.95792E+01
 -1      3015-1.32732E+03-8.18947E+02-3.67606E+03-2.75320E+01 1.90452E+03 5.42332E+01
 -1      3016-1.33139E+03-8.19251E+02-3.67783E+03-2.75104E+01 1.90510E+03 5.72837E+01
 -1      3017-1.33097E+03-8.19530E+02-3.67929E+03-2.81854E+01 1.90576E+03 5.94963E+01
 -1      3018-1.32583E+03-8.19881E+02-3.67851E+03-3.10181E+01 1.90615E+03 6.24291E+01
 -1      3019-1.31500E+03-8.19601E+02-3.66796E+03-3.84922E+01 1.90349E+03 6.98882E+01
 -1      3020-1.29769E+03-8.14677E+02-3.63148E+03-4.99715E+01 1.89043E+03 8.68880E+01
 -1      3021-1.27976E+03-7.95899E+02-3.56473E+03-5.10513E+01 1.84807E+03 1.04987E+02
 -1      3022-1.25568E+03-7.58007E+02-3.50860E+03 2.03475E-01 1.78584E+03 7.51706E+01
 -1      3023-1.11313E+03-7.22619E+02-3.70258E+03 1.80350E+02 1.83827E+03-5.62511E+01
 -1      3024-1.04795E+03-1.10885E+03-4.46329E+03 2.01548E+01 2.45577E+03 2.95591E+01
 -1      3025-1.04456E+03-1.27286E+03-3.81912E+03-9.06905E+02 2.33379E+03 5.50452E+02
 -1      3026-4.60772E+02 1.51306E+02-8.61856E+02-9.78372E+02 1.57045E+02 5.76325E+02
 -1      3027-4.31111E+02 7.11650E+01 7.33097E+01-2.24696E+02-1.20574E+02 1.49294E+02
 -1      3028-2.03852E+02-1.37421E+01 2.88447E+01-1.37395E+01-3.36289E+01 3.08859E+01
 -1      3029-5.41219E+00-2.16237E+02-6.54839E+02 3.89671E+02 2.69028E+02-1.34644E+02
 -1      3030-8.09965E+00-6.40632E+02-9.91742E+02 3.42579E+02 6.04278E+02-1.64451E+02
 -1      3031-7.17598E+01-7.43371E+02-1.23790E+03 1.36034E+02 7.31977E+02-8.42802E+01
 -1      3032-1.97353E+02-7.35645E+02-1.27860E+03 1.31578E+01 7.30000E+02-2.53336E+01
 -1      3033-3.32352E+02-7.16161E+02-1.24205E+03-2.40540E+01 7.07586E+02-3.13657E+00
 -1      3034-4.32345E+02-7.08766E+02-1.21398E+03-2.63155E+01 6.95549E+02 7.84091E+00
 -1      3035-4.92946E+02-7.08352E+02-1.20501E+03-2.11258E+01 6.91912E+02 1.85789E+01
 -1      3036-5.26773E+02-7.09418E+02-1.20572E+03-1.74674E+01 6.91457E+02 2.86428E+01
 -1      3037-5.45149E+02-7.10340E+02-1.20843E+03-1.59699E+01 6.91725E+02 3.62846E+01
 -1      3038-5.54667E+02-7.10840E+02-1.21051E+03-1.55692E+01 6.91995E+02 4.13805E+01
 -1      3039-5.58439E+02-7.11096E+02-1.21194E+03-1.55802E+01 6.92228E+02 4.46389E+01
 -1      3040-5.57721E+02-7.11323E+02-1.21326E+03-1.60852E+01 6.92550E+02 4.68428E+01
 -1      3041-5.53264E+02-7.11584E+02-1.21389E+03-1.79705E+01 6.92941E+02 4.92408E+01
 -1      3042-5.46273E+02-7.11131E+02-1.20948E+03-2.25455E+01 6.92487E+02 5.47558E+01
 -1      3043-5.38620E+02-7.07012E+02-1.19099E+03-2.90174E+01 6.87612E+02 6.73754E+01
 -1      3044-5.26513E+02-6.89123E+02-1.15527E+03-2.84338E+01 6.69397E+02 8.17904E+01
 -1      3045-4.74068E+02-6.57894E+02-1.13883E+03 5.84172E+00 6.37739E+02 6.72574E+01
 -1      3046-3.16751E+02-6.49936E+02-1.29290E+03 9.85033E+01 6.65050E+02 1.17208E+01
 -1      3047-2.08813E+02-9.39436E+02-1.54846E+03-2.15425E+01 9.31117E+02 4.39927E+01
 -1      3048-2.83062E+02-1.00013E+03-1.23876E+03-5.29820E+02 8.68143E+02 2.11489E+02
 -1      3049-2.39223E+02 5.23484E+01-3.47816E+02-5.73350E+02 3.91170E+01 2.23394E+02
 -1      3050-3.32516E+02 5.49140E+01 1.20934E+02-1.63505E+02-8.11547E+01 8.73065E+01
 -1      3051-2.08825E+02-8.35218E+00 5.83897E+01-1.84956E+01-1.93854E+01 3.50471E+01
 -1      3052 3.34483E+01-3.16393E+02-3.57672E+02-1.55742E+02-6.19279E+01 4.71735E+01
 -1      3053-5.97467E+01-8.75727E+02-6.08084E+02-1.13560E+02-1.63029E+02 1.06297E+01
 -1      3054-1.19493E+02-9.78591E+02-7.17631E+02-1.71680E+01-1.88899E+02-2.99702E+00
 -1      3055-1.89006E+02-9.68373E+02-7.32157E+02 2.37330E+01-1.60931E+02-2.34665E+00
 -1      3056-2.56141E+02-9.39060E+02-7.07460E+02 3.21158E+01-1.43209E+02-2.27201E-01
 -1      3057-3.24093E+02-9.23705E+02-6.88276E+02 2.98975E+01-1.37365E+02 4.21033E+00
 -1      3058-3.81695E+02-9.19598E+02-6.81638E+02 2.66504E+01-1.36776E+02 1.04398E+01
 -1      3059-4.21502E+02-9.19798E+02-6.81769E+02 2.51060E+01-1.37293E+02 1.63056E+01
 -1      3060-4.44966E+02-9.20784E+02-6.83443E+02 2.47555E+01-1.37669E+02 2.06176E+01
 -1      3061-4.57080E+02-9.21463E+02-6.84771E+02 2.48174E+01-1.37826E+02 2.33903E+01
 -1      3062-4.62298E+02-9.21927E+02-6.85717E+02 2.48918E+01-1.37913E+02 2.50795E+01
 -1      3063-4.63630E+02-9.22413E+02-6.86627E+02 2.50197E+01-1.38131E+02 2.60767E+01
 -1      3064-4.62633E+02-9.22923E+02-6.87097E+02 2.56376E+01-1.38700E+02 2.68843E+01
 -1      3065-4.56386E+02-9.21180E+02-6.83993E+02 2.73874E+01-1.39620E+02 2.87920E+01
 -1      3066-4.34440E+02-9.14491E+02-6.72640E+02 3.00854E+01-1.38942E+02 3.36820E+01
 -1      3067-3.83316E+02-8.90078E+02-6.53029E+02 3.05103E+01-1.31780E+02 4.01186E+01
 -1      3068-3.31464E+02-8.70240E+02-6.51264E+02 2.28760E+01-1.05835E+02 3.86579E+01
 -1      3069-2.99680E+02-8.37558E+02-7.16442E+02-3.11765E+01-1.07420E+02 3.72113E+01
 -1      3070-4.25604E+02-1.20791E+03-8.94815E+02-2.06944E+01-2.80463E+02 2.57502E+01
 -1      3071-4.96202E+02-1.33519E+03-7.79973E+02 2.15098E+02-2.80199E+02-3.72054E+01
 -1      3072-7.03734E+00 1.58447E+02-1.07151E+02 2.14433E+02 8.61727E+01-4.33748E+01
 -1      3073-4.81191E+01 3.91165E+01 6.62062E+01 1.25667E+01 9.44334E+01 3.34267E+00
 -1      3074-2.46880E+01 1.72233E+01 4.14295E+01-9.82218E+00 1.17576E+01 7.89544E+00
 -1      3075-8.79130E+01-4.12522E+02-8.73422E+02-3.68010E+02-4.87121E+02-6.13700E+01
 -1      3076-3.66687E+02-1.18306E+03-1.52158E+03-2.66971E+02-1.16856E+03-9.05696E+01
 -1      3077-5.65024E+02-1.32894E+03-1.87022E+03-3.19272E+01-1.37610E+03-4.16556E+01
 -1      3078-6.80882E+02-1.30969E+03-1.93544E+03 4.94320E+01-1.35087E+03 1.59022E+00
 -1      3079-7.39636E+02-1.26968E+03-1.91435E+03 6.52108E+01-1.30963E+03 1.45970E+01
 -1      3080-7.90367E+02-1.24895E+03-1.88427E+03 5.89031E+01-1.28782E+03 1.86993E+01
 -1      3081-8.38772E+02-1.24399E+03-1.87049E+03 5.18182E+01-1.28131E+03 2.30088E+01
 -1      3082-8.75412E+02-1.24446E+03-1.86754E+03 4.86008E+01-1.28035E+03 2.75626E+01
 -1      3083-8.98338E+02-1.24575E+03-1.86836E+03 4.78169E+01-1.28073E+03 3.12202E+01
 -1      3084-9.10625E+02-1.24660E+03-1.86969E+03 4.78691E+01-1.28115E+03 3.36937E+01
 -1      3085-9.16228E+02-1.24718E+03-1.87084E+03 4.79518E+01-1.28154E+03 3.52634E+01
 -1      3086-9.18140E+02-1.24787E+03-1.87185E+03 4.81089E+01-1.28212E+03 3.63095E+01
 -1      3087-9.17254E+02-1.24872E+03-1.87133E+03 4.93213E+01-1.28281E+03 3.75337E+01
 -1      3088-9.09067E+02-1.24721E+03-1.86527E+03 5.26426E+01-1.28218E+03 4.06987E+01
 -1      3089-8.79483E+02-1.23798E+03-1.84339E+03 5.99948E+01-1.27416E+03 4.80298E+01
 -1      3090-8.18858E+02-1.20523E+03-1.81414E+03 6.01828E+01-1.24423E+03 5.58819E+01
 -1      3091-7.83223E+02-1.17393E+03-1.79179E+03 5.66075E+01-1.18523E+03 3.88887E+01
 -1      3092-8.07461E+02-1.14040E+03-1.90880E+03-8.01006E+01-1.17271E+03 9.24206E+00
 -1      3093-9.76827E+02-1.63958E+03-2.27017E+03-1.15818E+02-1.75837E+03 6.07745E+01
 -1      3094-1.00491E+03-1.92422E+03-1.91307E+03 5.48310E+02-1.76619E+03 1.38026E+02
 -1      3095-1.50634E+02 2.53696E+02-4.91147E+02 5.36160E+02 9.49451E+01 1.40339E+02
 -1      3096-5.31494E+01 6.16398E+01 5.19743E+01-2.06897E+01 1.50909E+02 7.03886E+01
 -1      3097 1.58224E+01 3.17779E+01 1.81528E+01-1.21652E+01 1.76780E+01 1.06601E+01
 -1      3098-8.15714E+02-7.16465E+02-3.19917E+03-5.10142E+02-8.04212E+02-3.40255E+02
 -1      3099-2.14543E+03-1.98334E+03-7.08601E+03-3.75414E+02-1.95887E+03-3.07082E+02
 -1      3100-2.65777E+03-2.20704E+03-8.19558E+03-4.79654E+01-2.32724E+03-7.52754E+01
 -1      3101-2.88307E+03-2.19351E+03-8.36345E+03 5.70892E+01-2.32074E+03 4.44562E+01
 -1      3102-2.91559E+03-2.13062E+03-8.24860E+03 7.87718E+01-2.26923E+03 7.01239E+01
 -1      3103-2.93360E+03-2.09700E+03-8.14317E+03 7.16483E+01-2.23718E+03 6.95773E+01
 -1      3104-2.96463E+03-2.08866E+03-8.09714E+03 6.29710E+01-2.22598E+03 6.90061E+01
 -1      3105-2.99467E+03-2.08859E+03-8.08335E+03 5.88351E+01-2.22353E+03 7.12155E+01
 -1      3106-3.01621E+03-2.09006E+03-8.08226E+03 5.76715E+01-2.22375E+03 7.40231E+01
 -1      3107-3.02861E+03-2.09099E+03-8.08393E+03 5.76177E+01-2.22438E+03 7.62298E+01
 -1      3108-3.03478E+03-2.09163E+03-8.08602E+03 5.76864E+01-2.22505E+03 7.76991E+01
 -1      3109-3.03719E+03-2.09251E+03-8.08790E+03 5.79179E+01-2.22587E+03 7.88131E+01
 -1      3110-3.03594E+03-2.09368E+03-8.08672E+03 5.95476E+01-2.22641E+03 8.07639E+01
 -1      3111-3.02113E+03-2.09117E+03-8.06821E+03 6.36634E+01-2.22401E+03 8.65349E+01
 -1      3112-2.97831E+03-2.07689E+03-8.01304E+03 7.32363E+01-2.20996E+03 1.00258E+02
 -1      3113-2.86668E+03-2.01866E+03-7.85492E+03 7.31068E+01-2.16502E+03 1.13675E+02
 -1      3114-2.86030E+03-1.98276E+03-7.76708E+03 7.27778E+01-2.08892E+03 7.98052E+01
 -1      3115-2.83674E+03-1.89235E+03-7.57440E+03-1.05193E+02-2.07561E+03-6.41302E+01
 -1      3116-3.47639E+03-2.72278E+03-9.96339E+03-2.00425E+02-2.92266E+03 4.87941E+01
 -1      3117-3.67655E+03-3.22253E+03-1.00677E+04 7.73684E+02-3.02022E+03 6.23570E+02
 -1      3118-1.23968E+02 4.78883E+02 1.90897E+01 7.73983E+02 5.34555E+01 6.02091E+02
 -1      3119-2.37237E+02 3.73986E+01-1.23032E+02-4.53345E+01 1.56851E+02 1.26423E+02
 -1      3120 7.81195E+01 5.54759E+01 3.74371E+01-2.37469E+00 1.73628E+01 1.61402E+00
 -1      3121-1.51493E+03-1.04576E+03-5.35417E+03-3.66936E+02-5.53986E+02-6.28400E+02
 -1      3122-3.92174E+03-2.82220E+03-1.26118E+04-2.81514E+02-1.41288E+03-5.39697E+02
 -1      3123-4.77302E+03-3.14915E+03-1.45812E+04-4.09765E+01-1.72275E+03-1.15196E+02
 -1      3124-5.10479E+03-3.13851E+03-1.48347E+04 4.35104E+01-1.72706E+03 8.69860E+01
 -1      3125-5.12305E+03-3.05686E+03-1.46423E+04 6.21747E+01-1.69210E+03 1.25877E+02
 -1      3126-5.11363E+03-3.01023E+03-1.44664E+04 5.84036E+01-1.66954E+03 1.21033E+02
 -1      3127-5.12970E+03-2.99848E+03-1.43901E+04 5.22408E+01-1.66129E+03 1.15668E+02
 -1      3128-5.15378E+03-2.99797E+03-1.43665E+04 4.90554E+01-1.65944E+03 1.15555E+02
 -1      3129-5.17408E+03-2.99977E+03-1.43641E+04 4.80903E+01-1.65960E+03 1.17546E+02
 -1      3130-5.18677E+03-3.00100E+03-1.43668E+04 4.80105E+01-1.66013E+03 1.19520E+02
 -1      3131-5.19368E+03-3.00189E+03-1.43705E+04 4.80616E+01-1.66069E+03 1.20919E+02
 -1      3132-5.19672E+03-3.00315E+03-1.43740E+04 4.83115E+01-1.66131E+03 1.22137E+02
 -1      3133-5.19495E+03-3.00475E+03-1.43724E+04 4.95536E+01-1.66163E+03 1.24871E+02
 -1      3134-5.17447E+03-3.00133E+03-1.43432E+04 5.28921E+01-1.65965E+03 1.33359E+02
 -1      3135-5.11850E+03-2.98136E+03-1.42530E+04 5.82035E+01-1.64887E+03 1.53278E+02
 -1      3136-4.96541E+03-2.89956E+03-1.39846E+04 5.91461E+01-1.61821E+03 1.72481E+02
 -1      3137-4.97626E+03-2.85803E+03-1.38125E+04 4.89444E+01-1.55839E+03 1.18713E+02
 -1      3138-4.93733E+03-2.72825E+03-1.34090E+04-6.47876E+01-1.58860E+03-1.42312E+02
 -1      3139-5.95012E+03-3.83720E+03-1.76107E+04-1.39583E+02-2.18122E+03 1.22591E+01
 -1      3140-6.59908E+03-4.65642E+03-1.90432E+04 5.45795E+02-2.32121E+03 1.12796E+03
 -1      3141-6.50277E+01 7.06173E+02 6.64014E+02 5.80556E+02-3.93151E+01 1.10534E+03
 -1      3142-4.56151E+02 5.28356E-01-3.04484E+02-1.43410E+01 1.30293E+02 1.85270E+02
 -1      3143 1.31938E+02 8.11317E+01 6.37753E+01-3.37264E+00 1.39194E+01-9.30863E+00
 -1      3144-1.52322E+03-1.16407E+03-5.34972E+03-1.42412E+02-1.60182E+02-7.28674E+02
 -1      3145-4.07946E+03-3.13332E+03-1.30419E+04-1.17279E+02-4.62015E+02-6.44677E+02
 -1      3146-5.02400E+03-3.49807E+03-1.52072E+04-2.05690E+01-5.99796E+02-1.50817E+02
 -1      3147-5.40912E+03-3.48964E+03-1.55101E+04 2.00989E+01-6.04814E+02 9.30148E+01
 -1      3148-5.43477E+03-3.39598E+03-1.53226E+04 3.03754E+01-5.92053E+02 1.40235E+02
 -1      3149-5.42184E+03-3.34342E+03-1.51442E+04 2.95294E+01-5.84232E+02 1.34222E+02
 -1      3150-5.43392E+03-3.33019E+03-1.50646E+04 2.69797E+01-5.81371E+02 1.27066E+02
 -1      3151-5.45589E+03-3.32974E+03-1.50391E+04 2.55015E+01-5.80778E+02 1.25983E+02
 -1      3152-5.47546E+03-3.33172E+03-1.50360E+04 2.50320E+01-5.80892E+02 1.27609E+02
 -1      3153-5.48805E+03-3.33300E+03-1.50386E+04 2.49912E+01-5.81116E+02 1.29467E+02
 -1      3154-5.49504E+03-3.33390E+03-1.50422E+04 2.50244E+01-5.81343E+02 1.30830E+02
 -1      3155-5.49813E+03-3.33523E+03-1.50457E+04 2.51711E+01-5.81578E+02 1.32100E+02
 -1      3156-5.49571E+03-3.33703E+03-1.50432E+04 2.57617E+01-5.81715E+02 1.35189E+02
 -1      3157-5.47441E+03-3.33350E+03-1.50131E+04 2.73431E+01-5.80959E+02 1.44851E+02
 -1      3158-5.41351E+03-3.30986E+03-1.49140E+04 2.85455E+01-5.77032E+02 1.66999E+02
 -1      3159-5.26525E+03-3.22014E+03-1.46578E+04 2.92901E+01-5.67040E+02 1.88801E+02
 -1      3160-5.27398E+03-3.16354E+03-1.44339E+04 1.75488E+01-5.39637E+02 1.16979E+02
 -1      3161-5.31036E+03-3.05491E+03-1.42011E+04-1.96359E+01-5.84452E+02-1.82871E+02
 -1      3162-6.26134E+03-4.25867E+03-1.84075E+04-4.18967E+01-7.90175E+02-5.87278E+00
 -1      3163-7.07966E+03-5.16370E+03-2.03982E+04 2.00556E+02-8.65263E+02 1.29924E+03
 -1      3164-1.76072E+02 7.51425E+02 4.98211E+02 2.33982E+02-7.31380E+01 1.31738E+03
 -1      3165-5.11851E+02 1.72893E+01-2.65286E+02 1.23895E+01 7.47858E+01 2.35342E+02
 -1      3166 1.40286E+02 9.42245E+01 4.73216E+01-5.15270E+00 8.33634E+00-1.65352E+01
 -1      3167-1.58522E+03-1.37757E+03-5.36761E+03 3.66929E-05-3.01832E-05-7.39226E+02
 -1      3168-4.27965E+03-3.64608E+03-1.32609E+04 1.95010E-05-5.25116E-06-6.64599E+02
 -1      3169-5.27129E+03-4.07504E+03-1.54968E+04 6.59056E-06-2.85544E-06-1.60727E+02
 -1      3170-5.67440E+03-4.07001E+03-1.58187E+04 2.88077E-06-6.71189E-07 9.33327E+01
 -1      3171-5.69953E+03-3.96453E+03-1.56309E+04 1.64557E-06-2.75277E-06 1.43232E+02
 -1      3172-5.68342E+03-3.90425E+03-1.54501E+04 1.29760E-06-1.77980E-06 1.37147E+02
 -1      3173-5.69352E+03-3.88838E+03-1.53692E+04 4.10766E-07-2.14244E-06 1.29690E+02
 -1      3174-5.71454E+03-3.88730E+03-1.53429E+04 4.13213E-07-3.02353E-06 1.28418E+02
 -1      3175-5.73388E+03-3.88934E+03-1.53396E+04 5.75808E-07-3.13551E-06 1.29962E+02
 -1      3176-5.74647E+03-3.89074E+03-1.53421E+04 1.32024E-07-3.42954E-06 1.31793E+02
 -1      3177-5.75356E+03-3.89180E+03-1.53458E+04-2.07840E-08-5.14670E-06 1.33147E+02
 -1      3178-5.75666E+03-3.89327E+03-1.53492E+04 6.46631E-07-5.33034E-06 1.34426E+02
 -1      3179-5.75424E+03-3.89535E+03-1.53467E+04 2.16641E-07-4.87577E-06 1.37603E+02
 -1      3180-5.73195E+03-3.89063E+03-1.53152E+04 4.37958E-07-6.46724E-06 1.47456E+02
 -1      3181-5.67003E+03-3.86469E+03-1.52158E+04 8.46091E-07-5.14445E-06 1.70018E+02
 -1      3182-5.51691E+03-3.75967E+03-1.49539E+04 5.64730E-07-5.47570E-06 1.92036E+02
 -1      3183-5.52814E+03-3.69853E+03-1.47269E+04 1.15399E-06-5.23110E-06 1.13700E+02
 -1      3184-5.56739E+03-3.56175E+03-1.45152E+04 1.06686E-07-5.92446E-06-1.91020E+02
 -1      3185-6.57912E+03-4.95694E+03-1.88149E+04-7.72834E-07-1.01487E-05-6.01099E+00
 -1      3186-7.44429E+03-5.91035E+03-2.09405E+04 1.20794E-06-7.78617E-06 1.32278E+03
 -1      3187-1.81037E+02 8.24876E+02 4.73524E+02 5.71794E-07-1.24195E-06 1.35660E+03
 -1      3188-5.35318E+02 7.24222E+00-2.63575E+02-1.05412E-06 1.60480E-06 2.53660E+02
 -1      3189 1.45004E+02 1.05310E+02 4.72201E+01-3.37159E-07 2.58792E-07-1.85851E+01
 -1      3190-1.52322E+03-1.16407E+03-5.34972E+03 1.42412E+02 1.60182E+02-7.28674E+02
 -1      3191-4.07946E+03-3.13332E+03-1.30419E+04 1.17279E+02 4.62015E+02-6.44677E+02
 -1      3192-5.02400E+03-3.49807E+03-1.52072E+04 2.05690E+01 5.99796E+02-1.50817E+02
 -1      3193-5.40912E+03-3.48964E+03-1.55101E+04-2.00989E+01 6.04814E+02 9.30148E+01
 -1      3194-5.43477E+03-3.39598E+03-1.53226E+04-3.03754E+01 5.92053E+02 1.40235E+02
 -1      3195-5.42184E+03-3.34342E+03-1.51442E+04-2.95294E+01 5.84232E+02 1.34222E+02
 -1      3196-5.43392E+03-3.33019E+03-1.50646E+04-2.69797E+01 5.81371E+02 1.27066E+02
 -1      3197-5.45589E+03-3.32974E+03-1.50391E+04-2.55015E+01 5.80778E+02 1.25983E+02
 -1      3198-5.47546E+03-3.33172E+03-1.50360E+04-2.50320E+01 5.80892E+02 1.27609E+02
 -1      3199-5.48805E+03-3.33300E+03-1.50386E+04-2.49912E+01 5.81116E+02 1.29467E+02
 -1      3200-5.49504E+03-3.33390E+03-1.50422E+04-2.50244E+01 5.81343E+02 1.30830E+02
 -1      3201-5.49813E+03-3.33523E+03-1.50457E+04-2.51711E+01 5.81578E+02 1.32100E+02
 -1      3202-5.49571E+03-3.33703E+03-1.50432E+04-2.57617E+01 5.81715E+02 1.35189E+02
 -1      3203-5.47441E+03-3.33350E+03-1.50131E+04-2.73431E+01 5.80959E+02 1.44851E+02
 -1      3204-5.41351E+03-3.30986E+03-1.49140E+04-2.85455E+01 5.77032E+02 1.66999E+02
 -1      3205-5.26525E+03-3.22014E+03-1.46578E+04-2.92901E+01 5.67040E+02 1.88801E+02
 -1      3206-5.27398E+03-3.16354E+03-1.44339E+04-1.75488E+01 5.39637E+02 1.16979E+02
 -1      3207-5.31036E+03-3.05491E+03-1.42011E+04 1.96359E+01 5.84452E+02-1.82871E+02
 -1      3208-6.26134E+03-4.25867E+03-1.84075E+04 4.18967E+01 7.90175E+02-5.87278E+00
 -1      3209-7.07966E+03-5.16370E+03-2.03982E+04-2.00556E+02 8.65263E+02 1.29924E+03
 -1      3210-1.76072E+02 7.51425E+02 4.98211E+02-2.33982E+02 7.31380E+01 1.31738E+03
 -1      3211-5.11851E+02 1.72893E+01-2.65286E+02-1.23895E+01-7.47858E+01 2.35342E+02
 -1      3212 1.40286E+02 9.42245E+01 4.73216E+01 5.15270E+00-8.33634E+00-1.65352E+01
 -1      3213-1.51493E+03-1.04576E+03-5.35417E+03 3.66936E+02 5.53986E+02-6.28400E+02
 -1      3214-3.92174E+03-2.82220E+03-1.26118E+04 2.81514E+02 1.41288E+03-5.39697E+02
 -1      3215-4.77302E+03-3.14915E+03-1.45812E+04 4.09765E+01 1.72275E+03-1.15196E+02
 -1      3216-5.10479E+03-3.13851E+03-1.48347E+04-4.35104E+01 1.72706E+03 8.69860E+01
 -1      3217-5.12305E+03-3.05686E+03-1.46423E+04-6.21747E+01 1.69210E+03 1.25877E+02
 -1      3218-5.11363E+03-3.01023E+03-1.44664E+04-5.84036E+01 1.66954E+03 1.21033E+02
 -1      3219-5.12970E+03-2.99848E+03-1.43901E+04-5.22408E+01 1.66129E+03 1.15668E+02
 -1      3220-5.15378E+03-2.99797E+03-1.43665E+04-4.90554E+01 1.65944E+03 1.15555E+02
 -1      3221-5.17408E+03-2.99977E+03-1.43641E+04-4.80903E+01 1.65960E+03 1.17546E+02
 -1      3222-5.18677E+03-3.00100E+03-1.43668E+04-4.80105E+01 1.66013E+03 1.19520E+02
 -1      3223-5.19368E+03-3.00189E+03-1.43705E+04-4.80615E+01 1.66069E+03 1.20919E+02
 -1      3224-5.19672E+03-3.00315E+03-1.43740E+04-4.83115E+01 1.66131E+03 1.22137E+02
 -1      3225-5.19495E+03-3.00475E+03-1.43724E+04-4.95536E+01 1.66163E+03 1.24871E+02
 -1      3226-5.17447E+03-3.00133E+03-1.43432E+04-5.28921E+01 1.65965E+03 1.33359E+02
 -1      3227-5.11850E+03-2.98136E+03-1.42530E+04-5.82035E+01 1.64887E+03 1.53278E+02
 -1      3228-4.96541E+03-2.89956E+03-1.39846E+04-5.91461E+01 1.61821E+03 1.72481E+02
 -1      3229-4.97626E+03-2.85803E+03-1.38125E+04-4.89444E+01 1.55839E+03 1.18713E+02
 -1      3230-4.93733E+03-2.72825E+03-1.34090E+04 6.47876E+01 1.58860E+03-1.42312E+02
 -1      3231-5.95012E+03-3.83720E+03-1.76107E+04 1.39583E+02 2.18122E+03 1.22591E+01
 -1      3232-6.59908E+03-4.65642E+03-1.90432E+04-5.45795E+02 2.32121E+03 1.12796E+03
 -1      3233-6.50277E+01 7.06173E+02 6.64014E+02-5.80556E+02 3.93151E+01 1.10534E+03
 -1      3234-4.56151E+02 5.28356E-01-3.04484E+02 1.43410E+01-1.30293E+02 1.85270E+02
 -1      3235 1.31938E+02 8.11317E+01 6.37753E+01 3.37264E+00-1.39194E+01-9.30863E+00
 -1      3236-8.15714E+02-7.16464E+02-3.19917E+03 5.10142E+02 8.04212E+02-3.40255E+02
 -1      3237-2.14543E+03-1.98334E+03-7.08601E+03 3.75414E+02 1.95887E+03-3.07082E+02
 -1      3238-2.65777E+03-2.20704E+03-8.19558E+03 4.79654E+01 2.32724E+03-7.52754E+01
 -1      3239-2.88307E+03-2.19351E+03-8.36345E+03-5.70892E+01 2.32074E+03 4.44562E+01
 -1      3240-2.91559E+03-2.13062E+03-8.24860E+03-7.87718E+01 2.26923E+03 7.01239E+01
 -1      3241-2.93360E+03-2.09700E+03-8.14317E+03-7.16483E+01 2.23718E+03 6.95773E+01
 -1      3242-2.96463E+03-2.08866E+03-8.09714E+03-6.29710E+01 2.22598E+03 6.90061E+01
 -1      3243-2.99467E+03-2.08859E+03-8.08335E+03-5.88351E+01 2.22353E+03 7.12155E+01
 -1      3244-3.01621E+03-2.09006E+03-8.08226E+03-5.76715E+01 2.22375E+03 7.40231E+01
 -1      3245-3.02861E+03-2.09099E+03-8.08393E+03-5.76177E+01 2.22438E+03 7.62298E+01
 -1      3246-3.03478E+03-2.09163E+03-8.08602E+03-5.76864E+01 2.22505E+03 7.76991E+01
 -1      3247-3.03719E+03-2.09251E+03-8.08790E+03-5.79179E+01 2.22587E+03 7.88131E+01
 -1      3248-3.03594E+03-2.09368E+03-8.08672E+03-5.95476E+01 2.22641E+03 8.07639E+01
 -1      3249-3.02113E+03-2.09117E+03-8.06821E+03-6.36634E+01 2.22401E+03 8.65349E+01
 -1      3250-2.97831E+03-2.07689E+03-8.01304E+03-7.32363E+01 2.20996E+03 1.00258E+02
 -1      3251-2.86669E+03-2.01866E+03-7.85492E+03-7.31068E+01 2.16502E+03 1.13675E+02
 -1      3252-2.86030E+03-1.98276E+03-7.76708E+03-7.27778E+01 2.08892E+03 7.98052E+01
 -1      3253-2.83674E+03-1.89235E+03-7.57440E+03 1.05193E+02 2.07561E+03-6.41302E+01
 -1      3254-3.47639E+03-2.72278E+03-9.96339E+03 2.00425E+02 2.92266E+03 4.87941E+01
 -1      3255-3.67655E+03-3.22253E+03-1.00677E+04-7.73684E+02 3.02022E+03 6.23570E+02
 -1      3256-1.23968E+02 4.78883E+02 1.90897E+01-7.73983E+02-5.34555E+01 6.02091E+02
 -1      3257-2.37237E+02 3.73986E+01-1.23032E+02 4.53345E+01-1.56851E+02 1.26423E+02
 -1      3258 7.81195E+01 5.54759E+01 3.74371E+01 2.37469E+00-1.73628E+01 1.61402E+00
 -1      3259-8.79131E+01-4.12522E+02-8.73422E+02 3.68010E+02 4.87121E+02-6.13700E+01
 -1      3260-3.66687E+02-1.18306E+03-1.52158E+03 2.66971E+02 1.16856E+03-9.05696E+01
 -1      3261-5.65024E+02-1.32894E+03-1.87022E+03 3.19272E+01 1.37610E+03-4.16556E+01
 -1      3262-6.80882E+02-1.30969E+03-1.93544E+03-4.94320E+01 1.35087E+03 1.59022E+00
 -1      3263-7.39636E+02-1.26968E+03-1.91435E+03-6.52108E+01 1.30963E+03 1.45970E+01
 -1      3264-7.90367E+02-1.24895E+03-1.88427E+03-5.89031E+01 1.28782E+03 1.86993E+01
 -1      3265-8.38772E+02-1.24399E+03-1.87049E+03-5.18182E+01 1.28131E+03 2.30088E+01
 -1      3266-8.75412E+02-1.24446E+03-1.86754E+03-4.86008E+01 1.28035E+03 2.75626E+01
 -1      3267-8.98338E+02-1.24575E+03-1.86836E+03-4.78169E+01 1.28073E+03 3.12202E+01
 -1      3268-9.10625E+02-1.24660E+03-1.86969E+03-4.78691E+01 1.28115E+03 3.36937E+01
 -1      3269-9.16228E+02-1.24718E+03-1.87084E+03-4.79518E+01 1.28154E+03 3.52634E+01
 -1      3270-9.18140E+02-1.24787E+03-1.87185E+03-4.81089E+01 1.28212E+03 3.63095E+01
 -1      3271-9.17254E+02-1.24872E+03-1.87133E+03-4.93213E+01 1.28281E+03 3.75337E+01
 -1      3272-9.09067E+02-1.24721E+03-1.86527E+03-5.26426E+01 1.28218E+03 4.06987E+01
 -1      3273-8.79483E+02-1.23798E+03-1.84339E+03-5.99948E+01 1.27416E+03 4.80298E+01
 -1      3274-8.18858E+02-1.20523E+03-1.81414E+03-6.01828E+01 1.24423E+03 5.58819E+01
 -1      3275-7.83223E+02-1.17393E+03-1.79179E+03-5.66075E+01 1.18523E+03 3.88887E+01
 -1      3276-8.07461E+02-1.14040E+03-1.90880E+03 8.01006E+01 1.17271E+03 9.24206E+00
 -1      3277-9.76827E+02-1.63958E+03-2.27017E+03 1.15818E+02 1.75837E+03 6.07745E+01
 -1      3278-1.00491E+03-1.92422E+03-1.91307E+03-5.48310E+02 1.76619E+03 1.38026E+02
 -1      3279-1.50634E+02 2.53696E+02-4.91147E+02-5.36160E+02-9.49451E+01 1.40339E+02
 -1      3280-5.31494E+01 6.16398E+01 5.19743E+01 2.06897E+01-1.50909E+02 7.03886E+01
 -1      3281 1.58224E+01 3.17779E+01 1.81528E+01 1.21652E+01-1.76780E+01 1.06601E+01
 -1      3282 3.34483E+01-3.16393E+02-3.57672E+02 1.55742E+02 6.19280E+01 4.71735E+01
 -1      3283-5.97467E+01-8.75727E+02-6.08084E+02 1.13560E+02 1.63029E+02 1.06297E+01
 -1      3284-1.19493E+02-9.78591E+02-7.17631E+02 1.71680E+01 1.88899E+02-2.99702E+00
 -1      3285-1.89006E+02-9.68373E+02-7.32157E+02-2.37330E+01 1.60931E+02-2.34665E+00
 -1      3286-2.56141E+02-9.39060E+02-7.07460E+02-3.21158E+01 1.43209E+02-2.27201E-01
 -1      3287-3.24093E+02-9.23705E+02-6.88276E+02-2.98975E+01 1.37365E+02 4.21033E+00
 -1      3288-3.81695E+02-9.19598E+02-6.81638E+02-2.66504E+01 1.36776E+02 1.04398E+01
 -1      3289-4.21502E+02-9.19798E+02-6.81769E+02-2.51060E+01 1.37293E+02 1.63056E+01
 -1      3290-4.44966E+02-9.20784E+02-6.83443E+02-2.47555E+01 1.37669E+02 2.06176E+01
 -1      3291-4.57081E+02-9.21463E+02-6.84771E+02-2.48174E+01 1.37826E+02 2.33903E+01
 -1      3292-4.62298E+02-9.21927E+02-6.85717E+02-2.48918E+01 1.37913E+02 2.50795E+01
 -1      3293-4.63630E+02-9.22413E+02-6.86627E+02-2.50197E+01 1.38131E+02 2.60767E+01
 -1      3294-4.62633E+02-9.22923E+02-6.87097E+02-2.56376E+01 1.38700E+02 2.68843E+01
 -1      3295-4.56386E+02-9.21180E+02-6.83993E+02-2.73874E+01 1.39620E+02 2.87920E+01
 -1      3296-4.34440E+02-9.14491E+02-6.72641E+02-3.00854E+01 1.38942E+02 3.36820E+01
 -1      3297-3.83316E+02-8.90078E+02-6.53029E+02-3.05103E+01 1.31780E+02 4.01186E+01
 -1      3298-3.31464E+02-8.70240E+02-6.51264E+02-2.28760E+01 1.05835E+02 3.86579E+01
 -1      3299-2.99680E+02-8.37558E+02-7.16442E+02 3.11765E+01 1.07420E+02 3.72113E+01
 -1      3300-4.25604E+02-1.20791E+03-8.94815E+02 2.06944E+01 2.80463E+02 2.57502E+01
 -1      3301-4.96202E+02-1.33519E+03-7.79973E+02-2.15098E+02 2.80199E+02-3.72054E+01
 -1      3302-7.03734E+00 1.58447E+02-1.07151E+02-2.14433E+02-8.61727E+01-4.33748E+01
 -1      3303-4.81191E+01 3.91165E+01 6.62062E+01-1.25667E+01-9.44334E+01 3.34267E+00
 -1      3304-2.46880E+01 1.72233E+01 4.14295E+01 9.82218E+00-1.17576E+01 7.89544E+00
 -3
    1PSTEP                        12           4           1          
  100CL  104 5.75000E-01        3304                     0    4           1
 -4  ERROR       1    1
 -5  STR(%)      1    1    0    0
 -1         1 1.59660E+01
 -1         2 2.16405E+01
 -1         3 1.59660E+01
 -1         4 2.16405E+01
 -1         5 1.42484E+01
 -1         6 1.36704E+01
 -1         7 1.35649E+01
 -1         8 1.31388E+01
 -1         9 1.42484E+01
 -1        10 1.36704E+01
 -1        11 1.59660E+01
 -1        12 2.16405E+01
 -1        13 1.59660E+01
 -1        14 2.16405E+01
 -1        15 1.72943E+01
 -1        16 2.16405E+01
 -1        17 1.72943E+01
 -1        18 2.16405E+01
 -1        19 1.55050E+01
 -1        20 1.83273E+01
 -1        21 1.48617E+01
 -1        22 1.83273E+01
 -1        23 1.55050E+01
 -1        24 1.83273E+01
 -1        25 1.72943E+01
 -1        26 2.16405E+01
 -1        27 1.72943E+01
 -1        28 2.16405E+01
 -1        29 1.91821E+01
 -1        30 1.45935E+01
 -1        31 1.91821E+01
 -1        32 2.42157E+01
 -1        33 1.75948E+01
 -1        34 2.43554E+01
 -1        35 1.67275E+01
 -1        36 2.43554E+01
 -1        37 1.75948E+01
 -1        38 2.43554E+01
 -1        39 1.91821E+01
 -1        40 2.42157E+01
 -1        41 1.91821E+01
 -1        42 1.45935E+01
 -1        43 2.20648E+01
 -1        44 1.82542E+01
 -1        45 2.20648E+01
 -1        46 3.16972E+01
 -1        47 2.05327E+01
 -1        48 3.16972E+01
 -1        49 1.92063E+01
 -1        50 2.99933E+01
 -1        51 2.05327E+01
 -1        52 3.16972E+01
 -1        53 2.20648E+01
 -1        54 3.16972E+01
 -1        55 2.20648E+01
 -1        56 1.82542E+01
 -1        57 2.81955E+01
 -1        58 4.05459E+01
 -1        59 2.81955E+01
 -1        60 4.05459E+01
 -1        61 2.41051E+01
 -1        62 3.78600E+01
 -1        63 2.28410E+01
 -1        64 2.99933E+01
 -1        65 2.41051E+01
 -1        66 3.78600E+01
 -1        67 2.81955E+01
 -1        68 4.05459E+01
 -1        69 2.81955E+01
 -1        70 4.05459E+01
 -1        71 3.78670E+01
 -1        72 5.69375E+01
 -1        73 3.78670E+01
 -1        74 5.69375E+01
 -1        75 2.91955E+01
 -1        76 3.78600E+01
 -1        77 2.76120E+01
 -1        78 2.73260E+01
 -1        79 2.91955E+01
 -1        80 3.78600E+01
 -1        81 3.78670E+01
 -1        82 5.69375E+01
 -1        83 3.78670E+01
 -1        84 5.69375E+01
 -1        85 3.78670E+01
 -1        86 5.69375E+01
 -1        87 3.78670E+01
 -1        88 5.69375E+01
 -1        89 2.91955E+01
 -1        90 2.96993E+01
 -1        91 2.76120E+01
 -1        92 2.73260E+01
 -1        93 2.91955E+01
 -1        94 2.96993E+01
 -1        95 3.78670E+01
 -1        96 5.69375E+01
 -1        97 3.78670E+01
 -1        98 5.69375E+01
 -1        99 1.59660E+01
 -1       100 1.59660E+01
 -1       101 3.19067E+00
 -1       102 3.19067E+00
 -1       103 8.98680E-01
 -1       104 8.98680E-01
 -1       105 3.27807E-01
 -1       106 3.27807E-01
 -1       107 2.32720E-01
 -1       108 2.32720E-01
 -1       109 9.12247E-02
 -1       110 9.12247E-02
 -1       111 3.37326E-02
 -1       112 3.37326E-02
 -1       113 3.98643E-02
 -1       114 3.98643E-02
 -1       115 4.00994E-02
 -1       116 4.00994E-02
 -1       117 4.00994E-02
 -1       118 4.00994E-02
 -1       119 4.00410E-02
 -1       120 4.00410E-02
 -1       121 4.00410E-02
 -1       122 4.00410E-02
 -1       123 3.84087E-02
 -1       124 3.84087E-02
 -1       125 5.66120E-02
 -1       126 5.66120E-02
 -1       127 1.90366E-01
 -1       128 1.90366E-01
 -1       129 4.43357E-01
 -1       130 4.43357E-01
 -1       131 4.66474E-01
 -1       132 4.66474E-01
 -1       133 3.44246E+00
 -1       134 3.44246E+00
 -1       135 2.16405E+01
 -1       136 2.16405E+01
 -1       137 1.72943E+01
 -1       138 1.72943E+01
 -1       139 3.44535E+00
 -1       140 3.44535E+00
 -1       141 8.98680E-01
 -1       142 8.98680E-01
 -1       143 4.11810E-01
 -1       144 4.11810E-01
 -1       145 2.83635E-01
 -1       146 2.83635E-01
 -1       147 1.25316E-01
 -1       148 1.25316E-01
 -1       149 1.18453E-01
 -1       150 1.18453E-01
 -1       151 1.22679E-01
 -1       152 1.22679E-01
 -1       153 1.22679E-01
 -1       154 1.22679E-01
 -1       155 1.21192E-01
 -1       156 1.21192E-01
 -1       157 1.19563E-01
 -1       158 1.19563E-01
 -1       159 1.17924E-01
 -1       160 1.17923E-01
 -1       161 1.14396E-01
 -1       162 1.14396E-01
 -1       163 1.30028E-01
 -1       164 1.30028E-01
 -1       165 2.82642E-01
 -1       166 2.82642E-01
 -1       167 6.83782E-01
 -1       168 6.83782E-01
 -1       169 9.95662E-01
 -1       170 9.95662E-01
 -1       171 3.44246E+00
 -1       172 3.44246E+00
 -1       173 2.16405E+01
 -1       174 2.16405E+01
 -1       175 1.91821E+01
 -1       176 1.91821E+01
 -1       177 3.63742E+00
 -1       178 3.63742E+00
 -1       179 7.68247E-01
 -1       180 7.68247E-01
 -1       181 7.68247E-01
 -1       182 7.68247E-01
 -1       183 4.82911E-01
 -1       184 4.82911E-01
 -1       185 3.93325E-01
 -1       186 3.93325E-01
 -1       187 4.13554E-01
 -1       188 4.13554E-01
 -1       189 4.13879E-01
 -1       190 4.13879E-01
 -1       191 4.13879E-01
 -1       192 4.13879E-01
 -1       193 4.10708E-01
 -1       194 4.10708E-01
 -1       195 4.07572E-01
 -1       196 4.07572E-01
 -1       197 4.04125E-01
 -1       198 4.04125E-01
 -1       199 3.98891E-01
 -1       200 3.98891E-01
 -1       201 4.03903E-01
 -1       202 4.03903E-01
 -1       203 5.24440E-01
 -1       204 5.24440E-01
 -1       205 9.85554E-01
 -1       206 9.85554E-01
 -1       207 1.56525E+00
 -1       208 1.56525E+00
 -1       209 2.06845E+00
 -1       210 2.06845E+00
 -1       211 1.45935E+01
 -1       212 1.45935E+01
 -1       213 2.20648E+01
 -1       214 2.20648E+01
 -1       215 3.68296E+00
 -1       216 3.68296E+00
 -1       217 1.39967E+00
 -1       218 1.39967E+00
 -1       219 1.37825E+00
 -1       220 1.37825E+00
 -1       221 1.05038E+00
 -1       222 1.05038E+00
 -1       223 1.10697E+00
 -1       224 1.10697E+00
 -1       225 1.11017E+00
 -1       226 1.11017E+00
 -1       227 1.11017E+00
 -1       228 1.11017E+00
 -1       229 1.10576E+00
 -1       230 1.10576E+00
 -1       231 1.09974E+00
 -1       232 1.09974E+00
 -1       233 1.09446E+00
 -1       234 1.09446E+00
 -1       235 1.08853E+00
 -1       236 1.08853E+00
 -1       237 1.08002E+00
 -1       238 1.08002E+00
 -1       239 1.07226E+00
 -1       240 1.07226E+00
 -1       241 1.13634E+00
 -1       242 1.13634E+00
 -1       243 1.43573E+00
 -1       244 1.43573E+00
 -1       245 2.64194E+00
 -1       246 2.64194E+00
 -1       247 2.64194E+00
 -1       248 2.64194E+00
 -1       249 1.82542E+01
 -1       250 1.82542E+01
 -1       251 2.81955E+01
 -1       252 2.81955E+01
 -1       253 4.05981E+00
 -1       254 4.05981E+00
 -1       255 4.05981E+00
 -1       256 4.05981E+00
 -1       257 3.09893E+00
 -1       258 3.09893E+00
 -1       259 2.76417E+00
 -1       260 2.76417E+00
 -1       261 2.76417E+00
 -1       262 2.76417E+00
 -1       263 2.75154E+00
 -1       264 2.75154E+00
 -1       265 2.73835E+00
 -1       266 2.73835E+00
 -1       267 2.72517E+00
 -1       268 2.72517E+00
 -1       269 2.71486E+00
 -1       270 2.71486E+00
 -1       271 2.70548E+00
 -1       272 2.70548E+00
 -1       273 2.69497E+00
 -1       274 2.69497E+00
 -1       275 2.68186E+00
 -1       276 2.68186E+00
 -1       277 2.66582E+00
 -1       278 2.66582E+00
 -1       279 2.71178E+00
 -1       280 2.71178E+00
 -1       281 2.91400E+00
 -1       282 2.91400E+00
 -1       283 3.73882E+00
 -1       284 3.73882E+00
 -1       285 8.12642E+00
 -1       286 8.12642E+00
 -1       287 4.05459E+01
 -1       288 4.05459E+01
 -1       289 3.78670E+01
 -1       290 3.78670E+01
 -1       291 3.75509E+01
 -1       292 3.75509E+01
 -1       293 3.20997E+01
 -1       294 3.20997E+01
 -1       295 1.10975E+01
 -1       296 1.10975E+01
 -1       297 1.10975E+01
 -1       298 1.10975E+01
 -1       299 1.07169E+01
 -1       300 1.07169E+01
 -1       301 1.05405E+01
 -1       302 1.05405E+01
 -1       303 1.04364E+01
 -1       304 1.04364E+01
 -1       305 1.03748E+01
 -1       306 1.03748E+01
 -1       307 1.03230E+01
 -1       308 1.03230E+01
 -1       309 1.02725E+01
 -1       310 1.02725E+01
 -1       311 1.02196E+01
 -1       312 1.02196E+01
 -1       313 1.01600E+01
 -1       314 1.01600E+01
 -1       315 1.00929E+01
 -1       316 1.00929E+01
 -1       317 1.00048E+01
 -1       318 1.00048E+01
 -1       319 9.98753E+00
 -1       320 9.98753E+00
 -1       321 1.14491E+01
 -1       322 1.14491E+01
 -1       323 1.76454E+01
 -1       324 1.76454E+01
 -1       325 5.69375E+01
 -1       326 5.69375E+01
 -1       327 3.78670E+01
 -1       328 3.78670E+01
 -1       329 3.75509E+01
 -1       330 3.75509E+01
 -1       331 3.20997E+01
 -1       332 3.20997E+01
 -1       333 1.10975E+01
 -1       334 1.10975E+01
 -1       335 1.10975E+01
 -1       336 1.10975E+01
 -1       337 1.07169E+01
 -1       338 1.07169E+01
 -1       339 1.05405E+01
 -1       340 1.05405E+01
 -1       341 1.04364E+01
 -1       342 1.04364E+01
 -1       343 1.03748E+01
 -1       344 1.03748E+01
 -1       345 1.03230E+01
 -1       346 1.03230E+01
 -1       347 1.02725E+01
 -1       348 1.02725E+01
 -1       349 1.02196E+01
 -1       350 1.02196E+01
 -1       351 1.01600E+01
 -1       352 1.01600E+01
 -1       353 1.00929E+01
 -1       354 1.00929E+01
 -1       355 1.00048E+01
 -1       356 1.00048E+01
 -1       357 9.98753E+00
 -1       358 9.98753E+00
 -1       359 1.14491E+01
 -1       360 1.14491E+01
 -1       361 1.76454E+01
 -1       362 1.76454E+01
 -1       363 5.69375E+01
 -1       364 5.69375E+01
 -1       365 1.59660E+01
 -1       366 3.78670E+01
 -1       367 3.19067E+00
 -1       368 3.75509E+01
 -1       369 8.98680E-01
 -1       370 3.20997E+01
 -1       371 3.27807E-01
 -1       372 1.10975E+01
 -1       373 3.07658E-01
 -1       374 1.10975E+01
 -1       375 1.94753E-01
 -1       376 1.07169E+01
 -1       377 1.32103E-01
 -1       378 1.05405E+01
 -1       379 1.36999E-01
 -1       380 1.04364E+01
 -1       381 1.37542E-01
 -1       382 1.03748E+01
 -1       383 1.37657E-01
 -1       384 1.03230E+01
 -1       385 1.38298E-01
 -1       386 1.02725E+01
 -1       387 1.38298E-01
 -1       388 1.02196E+01
 -1       389 1.37305E-01
 -1       390 1.01600E+01
 -1       391 1.44655E-01
 -1       392 1.00929E+01
 -1       393 2.15793E-01
 -1       394 1.00048E+01
 -1       395 4.76276E-01
 -1       396 9.98753E+00
 -1       397 4.95209E-01
 -1       398 1.14491E+01
 -1       399 3.44246E+00
 -1       400 1.76454E+01
 -1       401 2.16405E+01
 -1       402 5.69375E+01
 -1       403 1.42484E+01
 -1       404 2.91955E+01
 -1       405 2.75920E+00
 -1       406 8.27443E+00
 -1       407 7.44529E-01
 -1       408 2.44257E+00
 -1       409 3.07658E-01
 -1       410 2.43629E+00
 -1       411 3.07658E-01
 -1       412 2.43629E+00
 -1       413 1.94753E-01
 -1       414 2.38299E+00
 -1       415 1.32103E-01
 -1       416 2.34890E+00
 -1       417 1.36999E-01
 -1       418 2.33085E+00
 -1       419 1.37542E-01
 -1       420 2.32086E+00
 -1       421 1.37657E-01
 -1       422 2.31406E+00
 -1       423 1.38298E-01
 -1       424 2.30757E+00
 -1       425 1.38298E-01
 -1       426 2.29976E+00
 -1       427 1.37305E-01
 -1       428 2.28861E+00
 -1       429 1.44655E-01
 -1       430 2.27535E+00
 -1       431 2.15793E-01
 -1       432 2.32919E+00
 -1       433 4.76276E-01
 -1       434 2.43106E+00
 -1       435 4.95209E-01
 -1       436 2.85532E+00
 -1       437 2.40883E+00
 -1       438 1.03912E+01
 -1       439 1.36704E+01
 -1       440 2.96993E+01
 -1       441 1.35649E+01
 -1       442 2.76120E+01
 -1       443 2.71034E+00
 -1       444 8.27443E+00
 -1       445 5.97878E-01
 -1       446 1.37510E+00
 -1       447 2.87550E-01
 -1       448 1.54902E+00
 -1       449 2.74532E-01
 -1       450 1.54902E+00
 -1       451 1.82832E-01
 -1       452 1.48998E+00
 -1       453 1.18514E-01
 -1       454 1.45914E+00
 -1       455 1.23689E-01
 -1       456 1.43936E+00
 -1       457 1.24412E-01
 -1       458 1.43057E+00
 -1       459 1.24605E-01
 -1       460 1.42564E+00
 -1       461 1.25307E-01
 -1       462 1.42138E+00
 -1       463 1.25307E-01
 -1       464 1.41550E+00
 -1       465 1.24348E-01
 -1       466 1.40587E+00
 -1       467 1.33904E-01
 -1       468 1.39030E+00
 -1       469 1.97742E-01
 -1       470 1.42310E+00
 -1       471 3.45455E-01
 -1       472 1.69666E+00
 -1       473 3.49278E-01
 -1       474 2.28268E+00
 -1       475 1.88125E+00
 -1       476 7.71012E+00
 -1       477 1.31388E+01
 -1       478 2.73260E+01
 -1       479 1.42484E+01
 -1       480 2.91955E+01
 -1       481 2.75920E+00
 -1       482 8.27443E+00
 -1       483 7.44529E-01
 -1       484 2.44257E+00
 -1       485 3.07658E-01
 -1       486 2.43629E+00
 -1       487 3.07658E-01
 -1       488 2.43629E+00
 -1       489 1.94753E-01
 -1       490 2.38299E+00
 -1       491 1.32103E-01
 -1       492 2.34890E+00
 -1       493 1.36999E-01
 -1       494 2.33085E+00
 -1       495 1.37542E-01
 -1       496 2.32086E+00
 -1       497 1.37657E-01
 -1       498 2.31406E+00
 -1       499 1.38298E-01
 -1       500 2.30757E+00
 -1       501 1.38298E-01
 -1       502 2.29976E+00
 -1       503 1.37305E-01
 -1       504 2.28861E+00
 -1       505 1.44655E-01
 -1       506 2.27535E+00
 -1       507 2.15793E-01
 -1       508 2.32919E+00
 -1       509 4.76276E-01
 -1       510 2.43106E+00
 -1       511 4.95209E-01
 -1       512 2.85532E+00
 -1       513 2.40883E+00
 -1       514 1.03912E+01
 -1       515 1.36704E+01
 -1       516 2.96993E+01
 -1       517 1.59660E+01
 -1       518 3.78670E+01
 -1       519 3.19067E+00
 -1       520 3.75509E+01
 -1       521 8.98680E-01
 -1       522 3.20997E+01
 -1       523 3.27807E-01
 -1       524 1.10975E+01
 -1       525 3.07658E-01
 -1       526 1.10975E+01
 -1       527 1.94753E-01
 -1       528 1.07169E+01
 -1       529 1.32103E-01
 -1       530 1.05405E+01
 -1       531 1.36999E-01
 -1       532 1.04364E+01
 -1       533 1.37542E-01
 -1       534 1.03748E+01
 -1       535 1.37657E-01
 -1       536 1.03230E+01
 -1       537 1.38298E-01
 -1       538 1.02725E+01
 -1       539 1.38298E-01
 -1       540 1.02196E+01
 -1       541 1.37305E-01
 -1       542 1.01600E+01
 -1       543 1.44655E-01
 -1       544 1.00929E+01
 -1       545 2.15793E-01
 -1       546 1.00048E+01
 -1       547 4.76276E-01
 -1       548 9.98753E+00
 -1       549 4.95209E-01
 -1       550 1.14491E+01
 -1       551 3.44246E+00
 -1       552 1.76454E+01
 -1       553 2.16405E+01
 -1       554 5.69375E+01
 -1       555 1.72943E+01
 -1       556 3.44535E+00
 -1       557 8.98680E-01
 -1       558 5.46692E-01
 -1       559 5.20308E-01
 -1       560 3.63729E-01
 -1       561 2.90936E-01
 -1       562 2.93831E-01
 -1       563 2.94599E-01
 -1       564 2.95025E-01
 -1       565 2.96149E-01
 -1       566 2.96149E-01
 -1       567 2.96044E-01
 -1       568 2.84390E-01
 -1       569 2.89400E-01
 -1       570 6.93888E-01
 -1       571 9.95662E-01
 -1       572 3.44246E+00
 -1       573 2.16405E+01
 -1       574 1.55050E+01
 -1       575 2.93800E+00
 -1       576 8.41506E-01
 -1       577 5.94028E-01
 -1       578 5.20308E-01
 -1       579 3.63729E-01
 -1       580 2.90936E-01
 -1       581 2.93831E-01
 -1       582 2.94599E-01
 -1       583 2.95025E-01
 -1       584 2.96149E-01
 -1       585 2.96149E-01
 -1       586 2.96044E-01
 -1       587 2.84390E-01
 -1       588 2.89400E-01
 -1       589 6.93888E-01
 -1       590 8.14906E-01
 -1       591 2.40883E+00
 -1       592 1.83273E+01
 -1       593 1.48617E+01
 -1       594 2.77430E+00
 -1       595 6.92435E-01
 -1       596 5.94028E-01
 -1       597 4.74644E-01
 -1       598 3.41054E-01
 -1       599 2.67335E-01
 -1       600 2.70875E-01
 -1       601 2.71858E-01
 -1       602 2.72367E-01
 -1       603 2.73557E-01
 -1       604 2.73557E-01
 -1       605 2.73483E-01
 -1       606 2.65974E-01
 -1       607 2.65974E-01
 -1       608 4.22020E-01
 -1       609 5.85171E-01
 -1       610 1.88125E+00
 -1       611 1.83273E+01
 -1       612 1.55050E+01
 -1       613 2.93800E+00
 -1       614 8.41506E-01
 -1       615 5.94028E-01
 -1       616 5.20308E-01
 -1       617 3.63729E-01
 -1       618 2.90936E-01
 -1       619 2.93831E-01
 -1       620 2.94599E-01
 -1       621 2.95025E-01
 -1       622 2.96149E-01
 -1       623 2.96149E-01
 -1       624 2.96044E-01
 -1       625 2.84390E-01
 -1       626 2.89400E-01
 -1       627 6.93888E-01
 -1       628 8.14906E-01
 -1       629 2.40883E+00
 -1       630 1.83273E+01
 -1       631 1.72943E+01
 -1       632 3.44535E+00
 -1       633 8.98680E-01
 -1       634 5.46692E-01
 -1       635 5.20308E-01
 -1       636 3.63729E-01
 -1       637 2.90936E-01
 -1       638 2.93831E-01
 -1       639 2.94599E-01
 -1       640 2.95025E-01
 -1       641 2.96149E-01
 -1       642 2.96149E-01
 -1       643 2.96044E-01
 -1       644 2.84390E-01
 -1       645 2.89400E-01
 -1       646 6.93888E-01
 -1       647 9.95662E-01
 -1       648 3.44246E+00
 -1       649 2.16405E+01
 -1       650 1.91821E+01
 -1       651 3.63742E+00
 -1       652 1.09675E+00
 -1       653 9.72331E-01
 -1       654 7.97739E-01
 -1       655 6.37969E-01
 -1       656 5.74158E-01
 -1       657 5.73976E-01
 -1       658 5.74425E-01
 -1       659 5.74590E-01
 -1       660 5.75390E-01
 -1       661 5.76127E-01
 -1       662 5.76127E-01
 -1       663 5.67173E-01
 -1       664 5.41412E-01
 -1       665 9.85554E-01
 -1       666 1.56525E+00
 -1       667 2.06845E+00
 -1       668 2.42157E+01
 -1       669 1.75948E+01
 -1       670 2.98601E+00
 -1       671 1.09675E+00
 -1       672 9.72331E-01
 -1       673 7.97739E-01
 -1       674 6.37969E-01
 -1       675 5.74158E-01
 -1       676 5.73976E-01
 -1       677 5.74425E-01
 -1       678 5.74590E-01
 -1       679 5.75390E-01
 -1       680 5.76127E-01
 -1       681 5.76127E-01
 -1       682 5.67173E-01
 -1       683 5.41412E-01
 -1       684 8.74213E-01
 -1       685 1.35085E+00
 -1       686 1.91768E+00
 -1       687 2.43554E+01
 -1       688 1.67275E+01
 -1       689 2.77430E+00
 -1       690 8.82610E-01
 -1       691 8.82610E-01
 -1       692 6.18487E-01
 -1       693 4.83472E-01
 -1       694 4.19462E-01
 -1       695 4.21758E-01
 -1       696 4.22819E-01
 -1       697 4.23433E-01
 -1       698 4.24641E-01
 -1       699 4.25878E-01
 -1       700 4.25878E-01
 -1       701 4.17259E-01
 -1       702 3.97587E-01
 -1       703 4.33896E-01
 -1       704 9.41285E-01
 -1       705 1.39604E+00
 -1       706 2.43554E+01
 -1       707 1.75948E+01
 -1       708 2.98601E+00
 -1       709 1.09675E+00
 -1       710 9.72331E-01
 -1       711 7.97739E-01
 -1       712 6.37969E-01
 -1       713 5.74158E-01
 -1       714 5.73976E-01
 -1       715 5.74425E-01
 -1       716 5.74590E-01
 -1       717 5.75390E-01
 -1       718 5.76127E-01
 -1       719 5.76127E-01
 -1       720 5.67173E-01
 -1       721 5.41412E-01
 -1       722 8.74213E-01
 -1       723 1.35085E+00
 -1       724 1.91768E+00
 -1       725 2.43554E+01
 -1       726 1.91821E+01
 -1       727 3.63742E+00
 -1       728 1.09675E+00
 -1       729 9.72331E-01
 -1       730 7.97739E-01
 -1       731 6.37969E-01
 -1       732 5.74158E-01
 -1       733 5.73976E-01
 -1       734 5.74425E-01
 -1       735 5.74590E-01
 -1       736 5.75390E-01
 -1       737 5.76127E-01
 -1       738 5.76127E-01
 -1       739 5.67173E-01
 -1       740 5.41412E-01
 -1       741 9.85554E-01
 -1       742 1.56525E+00
 -1       743 2.06845E+00
 -1       744 2.42157E+01
 -1       745 2.20648E+01
 -1       746 3.68296E+00
 -1       747 1.97463E+00
 -1       748 1.44626E+00
 -1       749 1.11862E+00
 -1       750 1.10697E+00
 -1       751 1.11017E+00
 -1       752 1.11017E+00
 -1       753 1.10576E+00
 -1       754 1.09974E+00
 -1       755 1.09446E+00
 -1       756 1.08853E+00
 -1       757 1.08002E+00
 -1       758 1.07226E+00
 -1       759 1.13634E+00
 -1       760 1.43573E+00
 -1       761 2.64194E+00
 -1       762 2.64194E+00
 -1       763 3.16972E+01
 -1       764 2.05327E+01
 -1       765 2.98601E+00
 -1       766 1.97463E+00
 -1       767 1.44626E+00
 -1       768 1.11862E+00
 -1       769 9.87696E-01
 -1       770 9.40793E-01
 -1       771 9.32534E-01
 -1       772 9.32534E-01
 -1       773 9.32455E-01
 -1       774 9.31776E-01
 -1       775 9.32226E-01
 -1       776 9.32226E-01
 -1       777 9.29644E-01
 -1       778 8.92320E-01
 -1       779 9.94022E-01
 -1       780 1.99252E+00
 -1       781 2.04796E+00
 -1       782 3.16972E+01
 -1       783 1.92063E+01
 -1       784 2.64951E+00
 -1       785 1.34557E+00
 -1       786 8.82610E-01
 -1       787 6.18487E-01
 -1       788 4.83472E-01
 -1       789 4.19462E-01
 -1       790 4.21758E-01
 -1       791 4.22819E-01
 -1       792 4.23433E-01
 -1       793 4.24641E-01
 -1       794 4.25878E-01
 -1       795 4.25878E-01
 -1       796 4.17259E-01
 -1       797 3.97587E-01
 -1       798 5.50640E-01
 -1       799 1.43962E+00
 -1       800 2.04796E+00
 -1       801 2.99933E+01
 -1       802 2.05327E+01
 -1       803 2.98601E+00
 -1       804 1.97463E+00
 -1       805 1.44626E+00
 -1       806 1.11862E+00
 -1       807 9.87696E-01
 -1       808 9.40793E-01
 -1       809 9.32534E-01
 -1       810 9.32534E-01
 -1       811 9.32455E-01
 -1       812 9.31776E-01
 -1       813 9.32226E-01
 -1       814 9.32226E-01
 -1       815 9.29644E-01
 -1       816 8.92320E-01
 -1       817 9.94022E-01
 -1       818 1.99252E+00
 -1       819 2.04796E+00
 -1       820 3.16972E+01
 -1       821 2.20648E+01
 -1       822 3.68296E+00
 -1       823 1.97463E+00
 -1       824 1.44626E+00
 -1       825 1.11862E+00
 -1       826 1.10697E+00
 -1       827 1.11017E+00
 -1       828 1.11017E+00
 -1       829 1.10576E+00
 -1       830 1.09974E+00
 -1       831 1.09446E+00
 -1       832 1.08853E+00
 -1       833 1.08002E+00
 -1       834 1.07226E+00
 -1       835 1.13634E+00
 -1       836 1.43573E+00
 -1       837 2.64194E+00
 -1       838 2.64194E+00
 -1       839 3.16972E+01
 -1       840 2.81955E+01
 -1       841 4.05981E+00
 -1       842 4.05981E+00
 -1       843 3.09893E+00
 -1       844 2.76417E+00
 -1       845 2.76417E+00
 -1       846 2.75154E+00
 -1       847 2.73835E+00
 -1       848 2.72517E+00
 -1       849 2.71486E+00
 -1       850 2.70548E+00
 -1       851 2.69497E+00
 -1       852 2.68186E+00
 -1       853 2.66582E+00
 -1       854 2.71178E+00
 -1       855 2.91400E+00
 -1       856 3.73882E+00
 -1       857 8.12642E+00
 -1       858 4.05459E+01
 -1       859 2.41051E+01
 -1       860 2.67835E+00
 -1       861 2.67835E+00
 -1       862 1.44626E+00
 -1       863 1.11862E+00
 -1       864 9.87696E-01
 -1       865 9.40793E-01
 -1       866 9.32534E-01
 -1       867 9.32534E-01
 -1       868 9.32455E-01
 -1       869 9.31776E-01
 -1       870 9.32226E-01
 -1       871 9.32226E-01
 -1       872 9.29644E-01
 -1       873 8.92320E-01
 -1       874 1.05774E+00
 -1       875 1.99252E+00
 -1       876 5.17652E+00
 -1       877 3.78600E+01
 -1       878 2.28410E+01
 -1       879 2.10408E+00
 -1       880 1.34557E+00
 -1       881 8.75292E-01
 -1       882 6.74501E-01
 -1       883 6.82025E-01
 -1       884 6.82025E-01
 -1       885 6.79675E-01
 -1       886 6.74347E-01
 -1       887 6.70548E-01
 -1       888 6.67211E-01
 -1       889 6.62637E-01
 -1       890 6.55167E-01
 -1       891 6.51463E-01
 -1       892 7.43047E-01
 -1       893 9.68365E-01
 -1       894 1.57047E+00
 -1       895 5.17652E+00
 -1       896 2.99933E+01
 -1       897 2.41051E+01
 -1       898 2.67835E+00
 -1       899 2.67835E+00
 -1       900 1.44626E+00
 -1       901 1.11862E+00
 -1       902 9.87696E-01
 -1       903 9.40793E-01
 -1       904 9.32534E-01
 -1       905 9.32534E-01
 -1       906 9.32455E-01
 -1       907 9.31776E-01
 -1       908 9.32226E-01
 -1       909 9.32226E-01
 -1       910 9.29644E-01
 -1       911 8.92320E-01
 -1       912 1.05774E+00
 -1       913 1.99252E+00
 -1       914 5.17652E+00
 -1       915 3.78600E+01
 -1       916 2.81955E+01
 -1       917 4.05981E+00
 -1       918 4.05981E+00
 -1       919 3.09893E+00
 -1       920 2.76417E+00
 -1       921 2.76417E+00
 -1       922 2.75154E+00
 -1       923 2.73835E+00
 -1       924 2.72517E+00
 -1       925 2.71486E+00
 -1       926 2.70548E+00
 -1       927 2.69497E+00
 -1       928 2.68186E+00
 -1       929 2.66582E+00
 -1       930 2.71178E+00
 -1       931 2.91400E+00
 -1       932 3.73882E+00
 -1       933 8.12642E+00
 -1       934 4.05459E+01
 -1       935 3.78670E+01
 -1       936 3.75509E+01
 -1       937 3.20997E+01
 -1       938 1.10975E+01
 -1       939 1.10975E+01
 -1       940 1.07169E+01
 -1       941 1.05405E+01
 -1       942 1.04364E+01
 -1       943 1.03748E+01
 -1       944 1.03230E+01
 -1       945 1.02725E+01
 -1       946 1.02196E+01
 -1       947 1.01600E+01
 -1       948 1.00929E+01
 -1       949 1.00048E+01
 -1       950 9.98753E+00
 -1       951 1.14491E+01
 -1       952 1.76454E+01
 -1       953 5.69375E+01
 -1       954 2.91955E+01
 -1       955 8.27443E+00
 -1       956 2.67835E+00
 -1       957 2.43629E+00
 -1       958 2.43629E+00
 -1       959 2.38299E+00
 -1       960 2.34890E+00
 -1       961 2.33085E+00
 -1       962 2.32086E+00
 -1       963 2.31406E+00
 -1       964 2.30757E+00
 -1       965 2.29976E+00
 -1       966 2.28861E+00
 -1       967 2.27535E+00
 -1       968 2.32919E+00
 -1       969 2.43106E+00
 -1       970 2.85532E+00
 -1       971 1.03912E+01
 -1       972 3.78600E+01
 -1       973 2.76120E+01
 -1       974 8.27443E+00
 -1       975 1.37510E+00
 -1       976 1.54902E+00
 -1       977 1.54902E+00
 -1       978 1.48998E+00
 -1       979 1.45914E+00
 -1       980 1.43936E+00
 -1       981 1.43057E+00
 -1       982 1.42564E+00
 -1       983 1.42138E+00
 -1       984 1.41550E+00
 -1       985 1.40587E+00
 -1       986 1.39030E+00
 -1       987 1.42310E+00
 -1       988 1.69666E+00
 -1       989 2.28268E+00
 -1       990 7.71012E+00
 -1       991 2.73260E+01
 -1       992 2.91955E+01
 -1       993 8.27443E+00
 -1       994 2.67835E+00
 -1       995 2.43629E+00
 -1       996 2.43629E+00
 -1       997 2.38299E+00
 -1       998 2.34890E+00
 -1       999 2.33085E+00
 -1      1000 2.32086E+00
 -1      1001 2.31406E+00
 -1      1002 2.30757E+00
 -1      1003 2.29976E+00
 -1      1004 2.28861E+00
 -1      1005 2.27535E+00
 -1      1006 2.32919E+00
 -1      1007 2.43106E+00
 -1      1008 2.85532E+00
 -1      1009 1.03912E+01
 -1      1010 3.78600E+01
 -1      1011 3.78670E+01
 -1      1012 3.75509E+01
 -1      1013 3.20997E+01
 -1      1014 1.10975E+01
 -1      1015 1.10975E+01
 -1      1016 1.07169E+01
 -1      1017 1.05405E+01
 -1      1018 1.04364E+01
 -1      1019 1.03748E+01
 -1      1020 1.03230E+01
 -1      1021 1.02725E+01
 -1      1022 1.02196E+01
 -1      1023 1.01600E+01
 -1      1024 1.00929E+01
 -1      1025 1.00048E+01
 -1      1026 9.98753E+00
 -1      1027 1.14491E+01
 -1      1028 1.76454E+01
 -1      1029 5.69375E+01
 -1      1030 1.91029E+01
 -1      1031 1.70012E+01
 -1      1032 1.91029E+01
 -1      1033 1.97364E+01
 -1      1034 5.51501E+00
 -1      1035 2.10013E+01
 -1      1036 5.51501E+00
 -1      1037 2.11768E+01
 -1      1038 4.77959E+00
 -1      1039 2.11768E+01
 -1      1040 4.03215E+00
 -1      1041 2.09986E+01
 -1      1042 3.28666E+00
 -1      1043 2.06468E+01
 -1      1044 4.03215E+00
 -1      1045 2.09986E+01
 -1      1046 4.77959E+00
 -1      1047 2.11768E+01
 -1      1048 5.51501E+00
 -1      1049 2.11768E+01
 -1      1050 5.51501E+00
 -1      1051 2.10013E+01
 -1      1052 1.91029E+01
 -1      1053 1.97364E+01
 -1      1054 1.91029E+01
 -1      1055 1.70012E+01
 -1      1056 2.98120E+01
 -1      1057 2.04314E+01
 -1      1058 2.98120E+01
 -1      1059 2.15996E+01
 -1      1060 2.04089E+01
 -1      1061 2.32054E+01
 -1      1062 2.09311E+01
 -1      1063 2.56109E+01
 -1      1064 2.09311E+01
 -1      1065 2.75129E+01
 -1      1066 2.02435E+01
 -1      1067 2.84358E+01
 -1      1068 1.87018E+01
 -1      1069 2.84358E+01
 -1      1070 2.02435E+01
 -1      1071 2.84358E+01
 -1      1072 2.09311E+01
 -1      1073 2.75129E+01
 -1      1074 2.09311E+01
 -1      1075 2.56109E+01
 -1      1076 2.04089E+01
 -1      1077 2.32054E+01
 -1      1078 2.98120E+01
 -1      1079 2.15996E+01
 -1      1080 2.98120E+01
 -1      1081 2.04314E+01
 -1      1082 6.41247E+01
 -1      1083 2.73864E+01
 -1      1084 6.41247E+01
 -1      1085 2.90673E+01
 -1      1086 4.49200E+01
 -1      1087 3.74359E+01
 -1      1088 4.01196E+01
 -1      1089 4.47467E+01
 -1      1090 3.93297E+01
 -1      1091 4.95475E+01
 -1      1092 3.75159E+01
 -1      1093 5.15598E+01
 -1      1094 3.53382E+01
 -1      1095 5.15598E+01
 -1      1096 3.75159E+01
 -1      1097 5.15598E+01
 -1      1098 3.93297E+01
 -1      1099 4.95475E+01
 -1      1100 4.01196E+01
 -1      1101 4.47467E+01
 -1      1102 4.49200E+01
 -1      1103 3.74359E+01
 -1      1104 6.41247E+01
 -1      1105 2.90673E+01
 -1      1106 6.41247E+01
 -1      1107 2.73864E+01
 -1      1108 7.78405E+01
 -1      1109 4.62147E+01
 -1      1110 7.78405E+01
 -1      1111 4.92493E+01
 -1      1112 6.14721E+01
 -1      1113 5.93724E+01
 -1      1114 5.60147E+01
 -1      1115 6.85736E+01
 -1      1116 5.24456E+01
 -1      1117 7.47121E+01
 -1      1118 4.93804E+01
 -1      1119 7.79252E+01
 -1      1120 4.74578E+01
 -1      1121 7.79252E+01
 -1      1122 4.93805E+01
 -1      1123 7.79252E+01
 -1      1124 5.24456E+01
 -1      1125 7.47121E+01
 -1      1126 5.60147E+01
 -1      1127 6.85736E+01
 -1      1128 6.14721E+01
 -1      1129 5.93724E+01
 -1      1130 7.78405E+01
 -1      1131 4.92493E+01
 -1      1132 7.78405E+01
 -1      1133 4.62147E+01
 -1      1134 7.78405E+01
 -1      1135 6.64867E+01
 -1      1136 7.78405E+01
 -1      1137 6.64867E+01
 -1      1138 6.73390E+01
 -1      1139 5.93724E+01
 -1      1140 6.73390E+01
 -1      1141 6.85736E+01
 -1      1142 6.17322E+01
 -1      1143 7.47121E+01
 -1      1144 5.64945E+01
 -1      1145 7.79252E+01
 -1      1146 5.57213E+01
 -1      1147 7.79252E+01
 -1      1148 5.64945E+01
 -1      1149 7.79252E+01
 -1      1150 6.17322E+01
 -1      1151 7.47121E+01
 -1      1152 6.73390E+01
 -1      1153 6.85736E+01
 -1      1154 6.73390E+01
 -1      1155 5.93724E+01
 -1      1156 7.78405E+01
 -1      1157 6.64867E+01
 -1      1158 7.78405E+01
 -1      1159 6.64867E+01
 -1      1160 6.84330E+01
 -1      1161 6.98075E+01
 -1      1162 6.84330E+01
 -1      1163 6.98075E+01
 -1      1164 7.21420E+01
 -1      1165 5.88855E+01
 -1      1166 7.21420E+01
 -1      1167 6.11431E+01
 -1      1168 6.46154E+01
 -1      1169 6.66936E+01
 -1      1170 5.90746E+01
 -1      1171 6.66936E+01
 -1      1172 5.78395E+01
 -1      1173 6.34424E+01
 -1      1174 5.90746E+01
 -1      1175 6.66936E+01
 -1      1176 6.46154E+01
 -1      1177 6.66936E+01
 -1      1178 7.21420E+01
 -1      1179 6.11431E+01
 -1      1180 7.21420E+01
 -1      1181 5.88855E+01
 -1      1182 6.84330E+01
 -1      1183 6.98075E+01
 -1      1184 6.84330E+01
 -1      1185 6.98075E+01
 -1      1186 4.51816E+01
 -1      1187 6.98075E+01
 -1      1188 6.65860E+01
 -1      1189 6.98075E+01
 -1      1190 7.21420E+01
 -1      1191 5.88855E+01
 -1      1192 7.21420E+01
 -1      1193 6.11431E+01
 -1      1194 6.46154E+01
 -1      1195 6.66936E+01
 -1      1196 5.90746E+01
 -1      1197 6.66936E+01
 -1      1198 5.78395E+01
 -1      1199 6.34424E+01
 -1      1200 5.90746E+01
 -1      1201 6.66936E+01
 -1      1202 6.46154E+01
 -1      1203 6.66936E+01
 -1      1204 7.21420E+01
 -1      1205 6.11431E+01
 -1      1206 7.21420E+01
 -1      1207 5.88855E+01
 -1      1208 6.65860E+01
 -1      1209 6.98075E+01
 -1      1210 4.51816E+01
 -1      1211 6.98075E+01
 -1      1212 3.10541E+01
 -1      1213 3.10541E+01
 -1      1214 3.10541E+01
 -1      1215 3.10541E+01
 -1      1216 2.66043E+01
 -1      1217 2.66043E+01
 -1      1218 2.34414E+01
 -1      1219 2.34414E+01
 -1      1220 2.17325E+01
 -1      1221 2.17325E+01
 -1      1222 2.17253E+01
 -1      1223 2.17253E+01
 -1      1224 2.16793E+01
 -1      1225 2.16793E+01
 -1      1226 2.15688E+01
 -1      1227 2.15688E+01
 -1      1228 2.15650E+01
 -1      1229 2.15650E+01
 -1      1230 2.15650E+01
 -1      1231 2.15650E+01
 -1      1232 2.15589E+01
 -1      1233 2.15589E+01
 -1      1234 2.15666E+01
 -1      1235 2.15666E+01
 -1      1236 2.16739E+01
 -1      1237 2.16739E+01
 -1      1238 2.18708E+01
 -1      1239 2.18708E+01
 -1      1240 2.19549E+01
 -1      1241 2.19549E+01
 -1      1242 2.19549E+01
 -1      1243 2.19549E+01
 -1      1244 2.33056E+01
 -1      1245 2.33056E+01
 -1      1246 2.33056E+01
 -1      1247 2.33056E+01
 -1      1248 2.64652E+01
 -1      1249 2.64652E+01
 -1      1250 3.51629E+01
 -1      1251 3.51629E+01
 -1      1252 3.75391E+01
 -1      1253 3.75391E+01
 -1      1254 4.24843E+01
 -1      1255 4.24843E+01
 -1      1256 4.24843E+01
 -1      1257 4.24843E+01
 -1      1258 3.10541E+01
 -1      1259 3.10541E+01
 -1      1260 3.10541E+01
 -1      1261 3.10541E+01
 -1      1262 2.99511E+01
 -1      1263 2.99511E+01
 -1      1264 2.69627E+01
 -1      1265 2.69627E+01
 -1      1266 2.73122E+01
 -1      1267 2.73122E+01
 -1      1268 2.73122E+01
 -1      1269 2.73122E+01
 -1      1270 2.70072E+01
 -1      1271 2.70072E+01
 -1      1272 2.67344E+01
 -1      1273 2.67344E+01
 -1      1274 2.66505E+01
 -1      1275 2.66505E+01
 -1      1276 2.66116E+01
 -1      1277 2.66116E+01
 -1      1278 2.65776E+01
 -1      1279 2.65776E+01
 -1      1280 2.65569E+01
 -1      1281 2.65569E+01
 -1      1282 2.66001E+01
 -1      1283 2.66001E+01
 -1      1284 2.70047E+01
 -1      1285 2.70047E+01
 -1      1286 2.75203E+01
 -1      1287 2.75203E+01
 -1      1288 2.75203E+01
 -1      1289 2.75203E+01
 -1      1290 2.95330E+01
 -1      1291 2.95330E+01
 -1      1292 2.95330E+01
 -1      1293 2.95330E+01
 -1      1294 2.94365E+01
 -1      1295 2.94365E+01
 -1      1296 3.78834E+01
 -1      1297 3.78834E+01
 -1      1298 3.78834E+01
 -1      1299 3.78834E+01
 -1      1300 4.24843E+01
 -1      1301 4.24843E+01
 -1      1302 4.24843E+01
 -1      1303 4.24843E+01
 -1      1304 6.41247E+01
 -1      1305 6.41247E+01
 -1      1306 6.26736E+01
 -1      1307 6.26736E+01
 -1      1308 6.61263E+01
 -1      1309 6.61263E+01
 -1      1310 6.82447E+01
 -1      1311 6.82447E+01
 -1      1312 6.86653E+01
 -1      1313 6.86653E+01
 -1      1314 6.86653E+01
 -1      1315 6.86653E+01
 -1      1316 6.84972E+01
 -1      1317 6.84972E+01
 -1      1318 6.82516E+01
 -1      1319 6.82516E+01
 -1      1320 6.80995E+01
 -1      1321 6.80995E+01
 -1      1322 6.79812E+01
 -1      1323 6.79812E+01
 -1      1324 6.79002E+01
 -1      1325 6.79002E+01
 -1      1326 6.78500E+01
 -1      1327 6.78500E+01
 -1      1328 6.77955E+01
 -1      1329 6.77955E+01
 -1      1330 6.79583E+01
 -1      1331 6.79583E+01
 -1      1332 6.84816E+01
 -1      1333 6.84816E+01
 -1      1334 6.84816E+01
 -1      1335 6.84816E+01
 -1      1336 6.96918E+01
 -1      1337 6.96918E+01
 -1      1338 6.96918E+01
 -1      1339 6.96918E+01
 -1      1340 6.89804E+01
 -1      1341 6.89804E+01
 -1      1342 6.43483E+01
 -1      1343 6.43483E+01
 -1      1344 5.87763E+01
 -1      1345 5.87763E+01
 -1      1346 2.93892E+01
 -1      1347 2.93892E+01
 -1      1348 2.73864E+01
 -1      1349 2.73864E+01
 -1      1350 7.85026E+01
 -1      1351 7.85026E+01
 -1      1352 9.24260E+01
 -1      1353 9.24260E+01
 -1      1354 9.82926E+01
 -1      1355 9.82926E+01
 -1      1356 9.82926E+01
 -1      1357 9.82926E+01
 -1      1358 9.82852E+01
 -1      1359 9.82852E+01
 -1      1360 9.79691E+01
 -1      1361 9.79691E+01
 -1      1362 9.77816E+01
 -1      1363 9.77816E+01
 -1      1364 9.77044E+01
 -1      1365 9.77044E+01
 -1      1366 9.76592E+01
 -1      1367 9.76592E+01
 -1      1368 9.76174E+01
 -1      1369 9.76174E+01
 -1      1370 9.75760E+01
 -1      1371 9.75760E+01
 -1      1372 9.75623E+01
 -1      1373 9.75623E+01
 -1      1374 9.75623E+01
 -1      1375 9.75623E+01
 -1      1376 9.75409E+01
 -1      1377 9.75409E+01
 -1      1378 9.73567E+01
 -1      1379 9.73567E+01
 -1      1380 9.72516E+01
 -1      1381 9.72516E+01
 -1      1382 9.72516E+01
 -1      1383 9.72516E+01
 -1      1384 9.82546E+01
 -1      1385 9.82546E+01
 -1      1386 9.82546E+01
 -1      1387 9.82546E+01
 -1      1388 9.41803E+01
 -1      1389 9.41803E+01
 -1      1390 7.35188E+01
 -1      1391 7.35188E+01
 -1      1392 2.97875E+01
 -1      1393 2.97875E+01
 -1      1394 4.62147E+01
 -1      1395 4.62147E+01
 -1      1396 7.85026E+01
 -1      1397 7.85026E+01
 -1      1398 9.24260E+01
 -1      1399 9.24260E+01
 -1      1400 9.82926E+01
 -1      1401 9.82926E+01
 -1      1402 9.82926E+01
 -1      1403 9.82926E+01
 -1      1404 9.82852E+01
 -1      1405 9.82852E+01
 -1      1406 9.79691E+01
 -1      1407 9.79691E+01
 -1      1408 9.77816E+01
 -1      1409 9.77816E+01
 -1      1410 9.77044E+01
 -1      1411 9.77044E+01
 -1      1412 9.76592E+01
 -1      1413 9.76592E+01
 -1      1414 9.76174E+01
 -1      1415 9.76174E+01
 -1      1416 9.75760E+01
 -1      1417 9.75760E+01
 -1      1418 9.75623E+01
 -1      1419 9.75623E+01
 -1      1420 9.75623E+01
 -1      1421 9.75623E+01
 -1      1422 9.75409E+01
 -1      1423 9.75409E+01
 -1      1424 9.73567E+01
 -1      1425 9.73567E+01
 -1      1426 9.72516E+01
 -1      1427 9.72516E+01
 -1      1428 9.72516E+01
 -1      1429 9.72516E+01
 -1      1430 9.82546E+01
 -1      1431 9.82546E+01
 -1      1432 9.82546E+01
 -1      1433 9.82546E+01
 -1      1434 9.41803E+01
 -1      1435 9.41803E+01
 -1      1436 7.43909E+01
 -1      1437 7.43909E+01
 -1      1438 5.40149E+01
 -1      1439 5.40149E+01
 -1      1440 6.64867E+01
 -1      1441 6.64867E+01
 -1      1442 6.84330E+01
 -1      1443 6.84330E+01
 -1      1444 5.54886E+01
 -1      1445 5.54886E+01
 -1      1446 6.25990E+01
 -1      1447 6.25990E+01
 -1      1448 7.00368E+01
 -1      1449 7.00368E+01
 -1      1450 7.59052E+01
 -1      1451 7.59052E+01
 -1      1452 8.02011E+01
 -1      1453 8.02011E+01
 -1      1454 8.24096E+01
 -1      1455 8.24096E+01
 -1      1456 8.24096E+01
 -1      1457 8.24096E+01
 -1      1458 8.22567E+01
 -1      1459 8.22567E+01
 -1      1460 8.20766E+01
 -1      1461 8.20766E+01
 -1      1462 8.19613E+01
 -1      1463 8.19613E+01
 -1      1464 8.20239E+01
 -1      1465 8.20239E+01
 -1      1466 8.20239E+01
 -1      1467 8.20239E+01
 -1      1468 8.20167E+01
 -1      1469 8.20167E+01
 -1      1470 8.10232E+01
 -1      1471 8.10232E+01
 -1      1472 7.89206E+01
 -1      1473 7.89206E+01
 -1      1474 8.03100E+01
 -1      1475 8.03100E+01
 -1      1476 8.03100E+01
 -1      1477 8.03100E+01
 -1      1478 7.25741E+01
 -1      1479 7.25741E+01
 -1      1480 7.43909E+01
 -1      1481 7.43909E+01
 -1      1482 7.43909E+01
 -1      1483 7.43909E+01
 -1      1484 7.62047E+01
 -1      1485 7.62047E+01
 -1      1486 7.62047E+01
 -1      1487 7.62047E+01
 -1      1488 5.22049E+01
 -1      1489 5.22049E+01
 -1      1490 5.22049E+01
 -1      1491 5.22049E+01
 -1      1492 4.43839E+01
 -1      1493 4.43839E+01
 -1      1494 4.38587E+01
 -1      1495 4.38587E+01
 -1      1496 4.51077E+01
 -1      1497 4.51077E+01
 -1      1498 4.51077E+01
 -1      1499 4.51077E+01
 -1      1500 4.49013E+01
 -1      1501 4.49013E+01
 -1      1502 4.43310E+01
 -1      1503 4.43310E+01
 -1      1504 4.38425E+01
 -1      1505 4.38425E+01
 -1      1506 4.35373E+01
 -1      1507 4.35373E+01
 -1      1508 4.33676E+01
 -1      1509 4.33676E+01
 -1      1510 4.32725E+01
 -1      1511 4.32725E+01
 -1      1512 4.33057E+01
 -1      1513 4.33057E+01
 -1      1514 4.36817E+01
 -1      1515 4.36817E+01
 -1      1516 4.48091E+01
 -1      1517 4.48091E+01
 -1      1518 4.48091E+01
 -1      1519 4.48091E+01
 -1      1520 4.47656E+01
 -1      1521 4.47656E+01
 -1      1522 4.64764E+01
 -1      1523 4.64764E+01
 -1      1524 4.64764E+01
 -1      1525 4.64764E+01
 -1      1526 6.10703E+01
 -1      1527 6.10703E+01
 -1      1528 6.77165E+01
 -1      1529 6.77165E+01
 -1      1530 7.62047E+01
 -1      1531 7.62047E+01
 -1      1532 7.62047E+01
 -1      1533 7.62047E+01
 -1      1534 3.10541E+01
 -1      1535 7.02229E+01
 -1      1536 3.10541E+01
 -1      1537 7.28066E+01
 -1      1538 2.66043E+01
 -1      1539 7.63844E+01
 -1      1540 2.34414E+01
 -1      1541 7.90006E+01
 -1      1542 2.17325E+01
 -1      1543 8.24265E+01
 -1      1544 2.17253E+01
 -1      1545 8.57449E+01
 -1      1546 2.16793E+01
 -1      1547 8.81690E+01
 -1      1548 2.15688E+01
 -1      1549 8.95740E+01
 -1      1550 2.15650E+01
 -1      1551 9.02750E+01
 -1      1552 2.15650E+01
 -1      1553 9.05782E+01
 -1      1554 2.15589E+01
 -1      1555 9.06752E+01
 -1      1556 2.15666E+01
 -1      1557 9.07276E+01
 -1      1558 2.16739E+01
 -1      1559 9.07330E+01
 -1      1560 2.18708E+01
 -1      1561 9.07330E+01
 -1      1562 2.19549E+01
 -1      1563 9.04006E+01
 -1      1564 2.19549E+01
 -1      1565 8.84422E+01
 -1      1566 2.33056E+01
 -1      1567 8.45438E+01
 -1      1568 2.33056E+01
 -1      1569 8.46098E+01
 -1      1570 2.64652E+01
 -1      1571 8.56511E+01
 -1      1572 3.51629E+01
 -1      1573 8.56511E+01
 -1      1574 3.75391E+01
 -1      1575 8.38592E+01
 -1      1576 4.24843E+01
 -1      1577 7.62047E+01
 -1      1578 4.24843E+01
 -1      1579 7.62047E+01
 -1      1580 1.97422E+01
 -1      1581 7.21420E+01
 -1      1582 1.97422E+01
 -1      1583 7.28066E+01
 -1      1584 1.07209E+01
 -1      1585 7.63844E+01
 -1      1586 5.00752E+00
 -1      1587 7.90006E+01
 -1      1588 3.88760E+00
 -1      1589 8.24265E+01
 -1      1590 3.88760E+00
 -1      1591 8.57449E+01
 -1      1592 3.77226E+00
 -1      1593 8.81690E+01
 -1      1594 3.68542E+00
 -1      1595 8.95740E+01
 -1      1596 3.65313E+00
 -1      1597 9.02750E+01
 -1      1598 3.65313E+00
 -1      1599 9.05782E+01
 -1      1600 3.65084E+00
 -1      1601 9.06752E+01
 -1      1602 3.65976E+00
 -1      1603 9.07276E+01
 -1      1604 3.71738E+00
 -1      1605 9.07330E+01
 -1      1606 3.82133E+00
 -1      1607 9.07330E+01
 -1      1608 3.86747E+00
 -1      1609 9.04006E+01
 -1      1610 3.86747E+00
 -1      1611 8.84422E+01
 -1      1612 4.63491E+00
 -1      1613 8.45438E+01
 -1      1614 5.77921E+00
 -1      1615 8.46098E+01
 -1      1616 1.01882E+01
 -1      1617 8.56511E+01
 -1      1618 2.73715E+01
 -1      1619 8.56511E+01
 -1      1620 3.72550E+01
 -1      1621 8.38592E+01
 -1      1622 4.04047E+01
 -1      1623 7.16023E+01
 -1      1624 4.04047E+01
 -1      1625 6.80100E+01
 -1      1626 2.03345E+01
 -1      1627 7.21420E+01
 -1      1628 2.03345E+01
 -1      1629 5.59393E+01
 -1      1630 1.12696E+01
 -1      1631 4.47711E+01
 -1      1632 5.52151E+00
 -1      1633 4.26542E+01
 -1      1634 4.19381E+00
 -1      1635 4.26542E+01
 -1      1636 4.19381E+00
 -1      1637 4.25571E+01
 -1      1638 4.07930E+00
 -1      1639 4.23870E+01
 -1      1640 3.99595E+00
 -1      1641 4.22699E+01
 -1      1642 3.96291E+00
 -1      1643 4.21969E+01
 -1      1644 3.96291E+00
 -1      1645 4.21590E+01
 -1      1646 3.96153E+00
 -1      1647 4.21380E+01
 -1      1648 3.96906E+00
 -1      1649 4.21286E+01
 -1      1650 4.02348E+00
 -1      1651 4.21498E+01
 -1      1652 4.12860E+00
 -1      1653 4.21991E+01
 -1      1654 4.19242E+00
 -1      1655 4.23466E+01
 -1      1656 4.19242E+00
 -1      1657 4.23559E+01
 -1      1658 4.93468E+00
 -1      1659 4.26617E+01
 -1      1660 6.93830E+00
 -1      1661 4.73281E+01
 -1      1662 1.06486E+01
 -1      1663 4.73281E+01
 -1      1664 2.73715E+01
 -1      1665 6.52404E+01
 -1      1666 3.74674E+01
 -1      1667 7.54298E+01
 -1      1668 4.20460E+01
 -1      1669 7.54298E+01
 -1      1670 4.20460E+01
 -1      1671 6.11431E+01
 -1      1672 2.03345E+01
 -1      1673 6.46154E+01
 -1      1674 2.03345E+01
 -1      1675 4.67562E+01
 -1      1676 1.12696E+01
 -1      1677 3.11906E+01
 -1      1678 5.52151E+00
 -1      1679 2.78520E+01
 -1      1680 4.19381E+00
 -1      1681 2.77821E+01
 -1      1682 4.19381E+00
 -1      1683 2.76285E+01
 -1      1684 4.07930E+00
 -1      1685 2.74336E+01
 -1      1686 3.99595E+00
 -1      1687 2.73365E+01
 -1      1688 3.96291E+00
 -1      1689 2.72882E+01
 -1      1690 3.96291E+00
 -1      1691 2.72693E+01
 -1      1692 3.96153E+00
 -1      1693 2.72651E+01
 -1      1694 3.96906E+00
 -1      1695 2.72731E+01
 -1      1696 4.02348E+00
 -1      1697 2.73381E+01
 -1      1698 4.12860E+00
 -1      1699 2.74326E+01
 -1      1700 4.19242E+00
 -1      1701 2.77922E+01
 -1      1702 4.19242E+00
 -1      1703 2.77922E+01
 -1      1704 4.93468E+00
 -1      1705 2.83070E+01
 -1      1706 6.93830E+00
 -1      1707 3.48982E+01
 -1      1708 1.06486E+01
 -1      1709 3.48982E+01
 -1      1710 2.68290E+01
 -1      1711 6.22153E+01
 -1      1712 3.74674E+01
 -1      1713 7.62665E+01
 -1      1714 4.24855E+01
 -1      1715 7.62665E+01
 -1      1716 4.24855E+01
 -1      1717 6.66936E+01
 -1      1718 1.97844E+01
 -1      1719 5.90746E+01
 -1      1720 1.97844E+01
 -1      1721 3.38194E+01
 -1      1722 1.04138E+01
 -1      1723 8.40097E+00
 -1      1724 4.83753E+00
 -1      1725 4.23498E+00
 -1      1726 3.90108E+00
 -1      1727 4.07376E+00
 -1      1728 3.90108E+00
 -1      1729 3.96940E+00
 -1      1730 3.78479E+00
 -1      1731 3.85811E+00
 -1      1732 3.70245E+00
 -1      1733 3.80685E+00
 -1      1734 3.66960E+00
 -1      1735 3.78299E+00
 -1      1736 3.66960E+00
 -1      1737 3.77403E+00
 -1      1738 3.66888E+00
 -1      1739 3.77266E+00
 -1      1740 3.67552E+00
 -1      1741 3.77733E+00
 -1      1742 3.72859E+00
 -1      1743 3.81221E+00
 -1      1744 3.83622E+00
 -1      1745 3.87376E+00
 -1      1746 3.91407E+00
 -1      1747 4.02971E+00
 -1      1748 3.91407E+00
 -1      1749 4.02971E+00
 -1      1750 4.65991E+00
 -1      1751 4.04080E+00
 -1      1752 6.46818E+00
 -1      1753 1.25984E+01
 -1      1754 9.70783E+00
 -1      1755 1.25984E+01
 -1      1756 2.65477E+01
 -1      1757 5.61020E+01
 -1      1758 3.65110E+01
 -1      1759 7.62810E+01
 -1      1760 4.24855E+01
 -1      1761 7.62810E+01
 -1      1762 4.24855E+01
 -1      1763 6.66936E+01
 -1      1764 1.82990E+01
 -1      1765 5.78395E+01
 -1      1766 1.82990E+01
 -1      1767 3.22487E+01
 -1      1768 8.56672E+00
 -1      1769 5.76782E+00
 -1      1770 4.09123E+00
 -1      1771 3.25437E+00
 -1      1772 3.18145E+00
 -1      1773 3.07633E+00
 -1      1774 3.18145E+00
 -1      1775 2.98663E+00
 -1      1776 3.06303E+00
 -1      1777 2.88041E+00
 -1      1778 2.97999E+00
 -1      1779 2.82864E+00
 -1      1780 2.94734E+00
 -1      1781 2.80284E+00
 -1      1782 2.94734E+00
 -1      1783 2.79294E+00
 -1      1784 2.94709E+00
 -1      1785 2.79044E+00
 -1      1786 2.95329E+00
 -1      1787 2.79541E+00
 -1      1788 3.00629E+00
 -1      1789 2.83074E+00
 -1      1790 3.11693E+00
 -1      1791 2.89443E+00
 -1      1792 3.20464E+00
 -1      1793 3.05715E+00
 -1      1794 3.20464E+00
 -1      1795 3.05715E+00
 -1      1796 3.97142E+00
 -1      1797 3.01476E+00
 -1      1798 4.91177E+00
 -1      1799 1.03577E+01
 -1      1800 7.75188E+00
 -1      1801 1.07788E+01
 -1      1802 2.53391E+01
 -1      1803 5.45813E+01
 -1      1804 3.51576E+01
 -1      1805 7.62810E+01
 -1      1806 4.22196E+01
 -1      1807 7.62810E+01
 -1      1808 4.22196E+01
 -1      1809 6.34424E+01
 -1      1810 1.97844E+01
 -1      1811 5.90746E+01
 -1      1812 1.97844E+01
 -1      1813 3.38194E+01
 -1      1814 1.04138E+01
 -1      1815 8.40096E+00
 -1      1816 4.83753E+00
 -1      1817 4.23498E+00
 -1      1818 3.90108E+00
 -1      1819 4.07376E+00
 -1      1820 3.90108E+00
 -1      1821 3.96940E+00
 -1      1822 3.78479E+00
 -1      1823 3.85811E+00
 -1      1824 3.70245E+00
 -1      1825 3.80685E+00
 -1      1826 3.66960E+00
 -1      1827 3.78299E+00
 -1      1828 3.66960E+00
 -1      1829 3.77403E+00
 -1      1830 3.66888E+00
 -1      1831 3.77266E+00
 -1      1832 3.67552E+00
 -1      1833 3.77733E+00
 -1      1834 3.72859E+00
 -1      1835 3.81221E+00
 -1      1836 3.83622E+00
 -1      1837 3.87376E+00
 -1      1838 3.91407E+00
 -1      1839 4.02971E+00
 -1      1840 3.91407E+00
 -1      1841 4.02971E+00
 -1      1842 4.65991E+00
 -1      1843 4.04080E+00
 -1      1844 6.46818E+00
 -1      1845 1.25984E+01
 -1      1846 9.70783E+00
 -1      1847 1.25984E+01
 -1      1848 2.65477E+01
 -1      1849 5.61020E+01
 -1      1850 3.65110E+01
 -1      1851 7.62810E+01
 -1      1852 4.24855E+01
 -1      1853 7.62810E+01
 -1      1854 4.24855E+01
 -1      1855 6.66936E+01
 -1      1856 2.03345E+01
 -1      1857 6.46154E+01
 -1      1858 2.03345E+01
 -1      1859 4.67562E+01
 -1      1860 1.12696E+01
 -1      1861 3.11906E+01
 -1      1862 5.52151E+00
 -1      1863 2.78520E+01
 -1      1864 4.19381E+00
 -1      1865 2.77821E+01
 -1      1866 4.19381E+00
 -1      1867 2.76285E+01
 -1      1868 4.07930E+00
 -1      1869 2.74336E+01
 -1      1870 3.99595E+00
 -1      1871 2.73365E+01
 -1      1872 3.96291E+00
 -1      1873 2.72882E+01
 -1      1874 3.96291E+00
 -1      1875 2.72693E+01
 -1      1876 3.96153E+00
 -1      1877 2.72651E+01
 -1      1878 3.96906E+00
 -1      1879 2.72731E+01
 -1      1880 4.02348E+00
 -1      1881 2.73381E+01
 -1      1882 4.12860E+00
 -1      1883 2.74326E+01
 -1      1884 4.19242E+00
 -1      1885 2.77922E+01
 -1      1886 4.19242E+00
 -1      1887 2.77922E+01
 -1      1888 4.93468E+00
 -1      1889 2.83070E+01
 -1      1890 6.93830E+00
 -1      1891 3.48982E+01
 -1      1892 1.06486E+01
 -1      1893 3.48982E+01
 -1      1894 2.68290E+01
 -1      1895 6.22153E+01
 -1      1896 3.74674E+01
 -1      1897 7.62665E+01
 -1      1898 4.24855E+01
 -1      1899 7.62665E+01
 -1      1900 4.24855E+01
 -1      1901 6.66936E+01
 -1      1902 2.03345E+01
 -1      1903 7.21420E+01
 -1      1904 2.03345E+01
 -1      1905 5.59393E+01
 -1      1906 1.12696E+01
 -1      1907 4.47711E+01
 -1      1908 5.52151E+00
 -1      1909 4.26542E+01
 -1      1910 4.19381E+00
 -1      1911 4.26542E+01
 -1      1912 4.19381E+00
 -1      1913 4.25571E+01
 -1      1914 4.07930E+00
 -1      1915 4.23870E+01
 -1      1916 3.99595E+00
 -1      1917 4.22699E+01
 -1      1918 3.96291E+00
 -1      1919 4.21969E+01
 -1      1920 3.96291E+00
 -1      1921 4.21590E+01
 -1      1922 3.96153E+00
 -1      1923 4.21380E+01
 -1      1924 3.96906E+00
 -1      1925 4.21286E+01
 -1      1926 4.02348E+00
 -1      1927 4.21498E+01
 -1      1928 4.12860E+00
 -1      1929 4.21991E+01
 -1      1930 4.19242E+00
 -1      1931 4.23466E+01
 -1      1932 4.19242E+00
 -1      1933 4.23559E+01
 -1      1934 4.93468E+00
 -1      1935 4.26617E+01
 -1      1936 6.93830E+00
 -1      1937 4.73281E+01
 -1      1938 1.06486E+01
 -1      1939 4.73281E+01
 -1      1940 2.73715E+01
 -1      1941 6.52404E+01
 -1      1942 3.74674E+01
 -1      1943 7.54298E+01
 -1      1944 4.20460E+01
 -1      1945 7.54298E+01
 -1      1946 4.20460E+01
 -1      1947 6.11431E+01
 -1      1948 1.97422E+01
 -1      1949 7.21420E+01
 -1      1950 1.97422E+01
 -1      1951 7.28066E+01
 -1      1952 1.07209E+01
 -1      1953 7.63844E+01
 -1      1954 5.00752E+00
 -1      1955 7.90006E+01
 -1      1956 3.88760E+00
 -1      1957 8.24265E+01
 -1      1958 3.88760E+00
 -1      1959 8.57449E+01
 -1      1960 3.77226E+00
 -1      1961 8.81690E+01
 -1      1962 3.68542E+00
 -1      1963 8.95740E+01
 -1      1964 3.65313E+00
 -1      1965 9.02750E+01
 -1      1966 3.65313E+00
 -1      1967 9.05782E+01
 -1      1968 3.65084E+00
 -1      1969 9.06752E+01
 -1      1970 3.65976E+00
 -1      1971 9.07276E+01
 -1      1972 3.71738E+00
 -1      1973 9.07330E+01
 -1      1974 3.82133E+00
 -1      1975 9.07330E+01
 -1      1976 3.86747E+00
 -1      1977 9.04006E+01
 -1      1978 3.86747E+00
 -1      1979 8.84422E+01
 -1      1980 4.63491E+00
 -1      1981 8.45438E+01
 -1      1982 5.77921E+00
 -1      1983 8.46098E+01
 -1      1984 1.01882E+01
 -1      1985 8.56511E+01
 -1      1986 2.73715E+01
 -1      1987 8.56511E+01
 -1      1988 3.72550E+01
 -1      1989 8.38592E+01
 -1      1990 4.04047E+01
 -1      1991 7.16023E+01
 -1      1992 4.04047E+01
 -1      1993 6.80100E+01
 -1      1994 3.10541E+01
 -1      1995 7.02229E+01
 -1      1996 3.10541E+01
 -1      1997 7.28066E+01
 -1      1998 2.66043E+01
 -1      1999 7.63844E+01
 -1      2000 2.34414E+01
 -1      2001 7.90006E+01
 -1      2002 2.17325E+01
 -1      2003 8.24265E+01
 -1      2004 2.17253E+01
 -1      2005 8.57449E+01
 -1      2006 2.16793E+01
 -1      2007 8.81690E+01
 -1      2008 2.15688E+01
 -1      2009 8.95740E+01
 -1      2010 2.15650E+01
 -1      2011 9.02750E+01
 -1      2012 2.15650E+01
 -1      2013 9.05782E+01
 -1      2014 2.15589E+01
 -1      2015 9.06752E+01
 -1      2016 2.15666E+01
 -1      2017 9.07276E+01
 -1      2018 2.16739E+01
 -1      2019 9.07330E+01
 -1      2020 2.18708E+01
 -1      2021 9.07330E+01
 -1      2022 2.19549E+01
 -1      2023 9.04006E+01
 -1      2024 2.19549E+01
 -1      2025 8.84422E+01
 -1      2026 2.33056E+01
 -1      2027 8.45438E+01
 -1      2028 2.33056E+01
 -1      2029 8.46098E+01
 -1      2030 2.64652E+01
 -1      2031 8.56511E+01
 -1      2032 3.51629E+01
 -1      2033 8.56511E+01
 -1      2034 3.75391E+01
 -1      2035 8.38592E+01
 -1      2036 4.24843E+01
 -1      2037 7.62047E+01
 -1      2038 4.24843E+01
 -1      2039 7.62047E+01
 -1      2040 3.10541E+01
 -1      2041 3.10541E+01
 -1      2042 2.99511E+01
 -1      2043 2.69627E+01
 -1      2044 2.73122E+01
 -1      2045 2.73122E+01
 -1      2046 2.70072E+01
 -1      2047 2.67344E+01
 -1      2048 2.66505E+01
 -1      2049 2.66116E+01
 -1      2050 2.65776E+01
 -1      2051 2.65569E+01
 -1      2052 2.66001E+01
 -1      2053 2.70047E+01
 -1      2054 2.75203E+01
 -1      2055 2.75203E+01
 -1      2056 2.95330E+01
 -1      2057 2.95330E+01
 -1      2058 2.94365E+01
 -1      2059 3.78834E+01
 -1      2060 3.78834E+01
 -1      2061 4.24843E+01
 -1      2062 4.24843E+01
 -1      2063 2.06914E+01
 -1      2064 2.06914E+01
 -1      2065 1.35650E+01
 -1      2066 6.83804E+00
 -1      2067 5.24967E+00
 -1      2068 5.24967E+00
 -1      2069 4.93152E+00
 -1      2070 4.82558E+00
 -1      2071 4.78191E+00
 -1      2072 4.78002E+00
 -1      2073 4.77815E+00
 -1      2074 4.77734E+00
 -1      2075 4.82562E+00
 -1      2076 4.94886E+00
 -1      2077 5.21063E+00
 -1      2078 5.21063E+00
 -1      2079 7.63737E+00
 -1      2080 1.00602E+01
 -1      2081 1.22970E+01
 -1      2082 3.38520E+01
 -1      2083 3.72550E+01
 -1      2084 4.04047E+01
 -1      2085 4.04047E+01
 -1      2086 2.09311E+01
 -1      2087 2.06914E+01
 -1      2088 1.35650E+01
 -1      2089 6.83804E+00
 -1      2090 5.24967E+00
 -1      2091 5.24967E+00
 -1      2092 4.93152E+00
 -1      2093 4.82558E+00
 -1      2094 4.78191E+00
 -1      2095 4.78002E+00
 -1      2096 4.77815E+00
 -1      2097 4.77734E+00
 -1      2098 4.82562E+00
 -1      2099 4.94886E+00
 -1      2100 5.21063E+00
 -1      2101 5.21063E+00
 -1      2102 7.63737E+00
 -1      2103 1.00602E+01
 -1      2104 1.22970E+01
 -1      2105 3.38520E+01
 -1      2106 3.74674E+01
 -1      2107 4.20460E+01
 -1      2108 4.20460E+01
 -1      2109 2.09311E+01
 -1      2110 2.06535E+01
 -1      2111 1.29129E+01
 -1      2112 5.93946E+00
 -1      2113 4.84075E+00
 -1      2114 4.83957E+00
 -1      2115 4.68488E+00
 -1      2116 4.58619E+00
 -1      2117 4.54622E+00
 -1      2118 4.54345E+00
 -1      2119 4.54257E+00
 -1      2120 4.54229E+00
 -1      2121 4.58617E+00
 -1      2122 4.70783E+00
 -1      2123 4.85779E+00
 -1      2124 4.85779E+00
 -1      2125 6.93827E+00
 -1      2126 9.85656E+00
 -1      2127 1.15597E+01
 -1      2128 3.34683E+01
 -1      2129 3.74674E+01
 -1      2130 4.24855E+01
 -1      2131 4.24855E+01
 -1      2132 2.02435E+01
 -1      2133 1.97844E+01
 -1      2134 1.07940E+01
 -1      2135 4.83753E+00
 -1      2136 3.95318E+00
 -1      2137 3.94657E+00
 -1      2138 3.79149E+00
 -1      2139 3.70245E+00
 -1      2140 3.66960E+00
 -1      2141 3.66960E+00
 -1      2142 3.66888E+00
 -1      2143 3.67552E+00
 -1      2144 3.72859E+00
 -1      2145 3.83622E+00
 -1      2146 3.98589E+00
 -1      2147 3.98589E+00
 -1      2148 4.85981E+00
 -1      2149 7.92206E+00
 -1      2150 9.70783E+00
 -1      2151 3.18918E+01
 -1      2152 3.65110E+01
 -1      2153 4.24855E+01
 -1      2154 4.24855E+01
 -1      2155 1.87018E+01
 -1      2156 1.82990E+01
 -1      2157 8.56672E+00
 -1      2158 4.09123E+00
 -1      2159 3.18145E+00
 -1      2160 3.18145E+00
 -1      2161 3.06303E+00
 -1      2162 2.97999E+00
 -1      2163 2.94734E+00
 -1      2164 2.94734E+00
 -1      2165 2.94709E+00
 -1      2166 2.95329E+00
 -1      2167 3.00629E+00
 -1      2168 3.11693E+00
 -1      2169 3.20464E+00
 -1      2170 3.20464E+00
 -1      2171 3.97142E+00
 -1      2172 4.91177E+00
 -1      2173 7.75188E+00
 -1      2174 2.97763E+01
 -1      2175 3.51576E+01
 -1      2176 4.22196E+01
 -1      2177 4.22196E+01
 -1      2178 2.02435E+01
 -1      2179 1.97844E+01
 -1      2180 1.07940E+01
 -1      2181 4.83753E+00
 -1      2182 3.95318E+00
 -1      2183 3.94657E+00
 -1      2184 3.79149E+00
 -1      2185 3.70245E+00
 -1      2186 3.66960E+00
 -1      2187 3.66960E+00
 -1      2188 3.66888E+00
 -1      2189 3.67552E+00
 -1      2190 3.72859E+00
 -1      2191 3.83622E+00
 -1      2192 3.98589E+00
 -1      2193 3.98589E+00
 -1      2194 4.85981E+00
 -1      2195 7.92206E+00
 -1      2196 9.70783E+00
 -1      2197 3.18918E+01
 -1      2198 3.65110E+01
 -1      2199 4.24855E+01
 -1      2200 4.24855E+01
 -1      2201 2.09311E+01
 -1      2202 2.06535E+01
 -1      2203 1.29129E+01
 -1      2204 5.93946E+00
 -1      2205 4.84075E+00
 -1      2206 4.83957E+00
 -1      2207 4.68488E+00
 -1      2208 4.58619E+00
 -1      2209 4.54622E+00
 -1      2210 4.54345E+00
 -1      2211 4.54257E+00
 -1      2212 4.54229E+00
 -1      2213 4.58617E+00
 -1      2214 4.70783E+00
 -1      2215 4.85779E+00
 -1      2216 4.85779E+00
 -1      2217 6.93827E+00
 -1      2218 9.85656E+00
 -1      2219 1.15597E+01
 -1      2220 3.34683E+01
 -1      2221 3.74674E+01
 -1      2222 4.24855E+01
 -1      2223 4.24855E+01
 -1      2224 2.09311E+01
 -1      2225 2.06914E+01
 -1      2226 1.35650E+01
 -1      2227 6.83804E+00
 -1      2228 5.24967E+00
 -1      2229 5.24967E+00
 -1      2230 4.93152E+00
 -1      2231 4.82558E+00
 -1      2232 4.78191E+00
 -1      2233 4.78002E+00
 -1      2234 4.77815E+00
 -1      2235 4.77734E+00
 -1      2236 4.82562E+00
 -1      2237 4.94886E+00
 -1      2238 5.21063E+00
 -1      2239 5.21063E+00
 -1      2240 7.63737E+00
 -1      2241 1.00602E+01
 -1      2242 1.22970E+01
 -1      2243 3.38520E+01
 -1      2244 3.74674E+01
 -1      2245 4.20460E+01
 -1      2246 4.20460E+01
 -1      2247 2.06914E+01
 -1      2248 2.06914E+01
 -1      2249 1.35650E+01
 -1      2250 6.83804E+00
 -1      2251 5.24967E+00
 -1      2252 5.24967E+00
 -1      2253 4.93152E+00
 -1      2254 4.82558E+00
 -1      2255 4.78191E+00
 -1      2256 4.78002E+00
 -1      2257 4.77815E+00
 -1      2258 4.77734E+00
 -1      2259 4.82562E+00
 -1      2260 4.94886E+00
 -1      2261 5.21063E+00
 -1      2262 5.21063E+00
 -1      2263 7.63737E+00
 -1      2264 1.00602E+01
 -1      2265 1.22970E+01
 -1      2266 3.38520E+01
 -1      2267 3.72550E+01
 -1      2268 4.04047E+01
 -1      2269 4.04047E+01
 -1      2270 3.10541E+01
 -1      2271 3.10541E+01
 -1      2272 2.99511E+01
 -1      2273 2.69627E+01
 -1      2274 2.73122E+01
 -1      2275 2.73122E+01
 -1      2276 2.70072E+01
 -1      2277 2.67344E+01
 -1      2278 2.66505E+01
 -1      2279 2.66116E+01
 -1      2280 2.65776E+01
 -1      2281 2.65569E+01
 -1      2282 2.66001E+01
 -1      2283 2.70047E+01
 -1      2284 2.75203E+01
 -1      2285 2.75203E+01
 -1      2286 2.95330E+01
 -1      2287 2.95330E+01
 -1      2288 2.94365E+01
 -1      2289 3.78834E+01
 -1      2290 3.78834E+01
 -1      2291 4.24843E+01
 -1      2292 4.24843E+01
 -1      2293 6.41247E+01
 -1      2294 6.26736E+01
 -1      2295 6.61263E+01
 -1      2296 6.82447E+01
 -1      2297 6.86653E+01
 -1      2298 6.86653E+01
 -1      2299 6.84972E+01
 -1      2300 6.82516E+01
 -1      2301 6.80995E+01
 -1      2302 6.79812E+01
 -1      2303 6.79002E+01
 -1      2304 6.78500E+01
 -1      2305 6.77955E+01
 -1      2306 6.79583E+01
 -1      2307 6.84816E+01
 -1      2308 6.84816E+01
 -1      2309 6.96918E+01
 -1      2310 6.96918E+01
 -1      2311 6.89804E+01
 -1      2312 6.43483E+01
 -1      2313 5.87763E+01
 -1      2314 3.27416E+01
 -1      2315 2.90673E+01
 -1      2316 4.49200E+01
 -1      2317 3.15799E+01
 -1      2318 2.62829E+01
 -1      2319 2.06993E+01
 -1      2320 2.06029E+01
 -1      2321 2.05734E+01
 -1      2322 2.01628E+01
 -1      2323 1.98932E+01
 -1      2324 1.97807E+01
 -1      2325 1.97576E+01
 -1      2326 1.97543E+01
 -1      2327 1.97543E+01
 -1      2328 1.98186E+01
 -1      2329 2.01578E+01
 -1      2330 2.05987E+01
 -1      2331 2.05987E+01
 -1      2332 2.27471E+01
 -1      2333 2.51831E+01
 -1      2334 2.54221E+01
 -1      2335 4.34903E+01
 -1      2336 4.34903E+01
 -1      2337 3.58043E+01
 -1      2338 3.74359E+01
 -1      2339 4.01196E+01
 -1      2340 2.76680E+01
 -1      2341 1.89239E+01
 -1      2342 1.23698E+01
 -1      2343 1.19076E+01
 -1      2344 1.18339E+01
 -1      2345 1.14336E+01
 -1      2346 1.11861E+01
 -1      2347 1.10886E+01
 -1      2348 1.10728E+01
 -1      2349 1.10758E+01
 -1      2350 1.10758E+01
 -1      2351 1.11584E+01
 -1      2352 1.14715E+01
 -1      2353 1.19072E+01
 -1      2354 1.19072E+01
 -1      2355 1.40101E+01
 -1      2356 1.76966E+01
 -1      2357 1.76966E+01
 -1      2358 4.12250E+01
 -1      2359 4.12250E+01
 -1      2360 3.64187E+01
 -1      2361 4.47467E+01
 -1      2362 3.93297E+01
 -1      2363 2.48789E+01
 -1      2364 1.40263E+01
 -1      2365 6.93294E+00
 -1      2366 6.63774E+00
 -1      2367 6.55496E+00
 -1      2368 6.15522E+00
 -1      2369 5.91528E+00
 -1      2370 5.82504E+00
 -1      2371 5.81599E+00
 -1      2372 5.82068E+00
 -1      2373 5.82068E+00
 -1      2374 5.89903E+00
 -1      2375 6.20205E+00
 -1      2376 6.68249E+00
 -1      2377 6.68249E+00
 -1      2378 8.93249E+00
 -1      2379 1.33667E+01
 -1      2380 1.33667E+01
 -1      2381 4.00952E+01
 -1      2382 4.00952E+01
 -1      2383 3.64187E+01
 -1      2384 4.95475E+01
 -1      2385 3.75159E+01
 -1      2386 2.10975E+01
 -1      2387 1.07940E+01
 -1      2388 4.42325E+00
 -1      2389 3.95318E+00
 -1      2390 3.94657E+00
 -1      2391 3.79149E+00
 -1      2392 3.69492E+00
 -1      2393 3.65670E+00
 -1      2394 3.65394E+00
 -1      2395 3.65407E+00
 -1      2396 3.65407E+00
 -1      2397 3.69614E+00
 -1      2398 3.81942E+00
 -1      2399 3.98589E+00
 -1      2400 3.98589E+00
 -1      2401 4.85981E+00
 -1      2402 9.01995E+00
 -1      2403 9.31050E+00
 -1      2404 3.77005E+01
 -1      2405 3.77005E+01
 -1      2406 3.56201E+01
 -1      2407 5.15598E+01
 -1      2408 3.53382E+01
 -1      2409 1.76595E+01
 -1      2410 7.52106E+00
 -1      2411 3.03234E+00
 -1      2412 2.56308E+00
 -1      2413 2.55313E+00
 -1      2414 2.39223E+00
 -1      2415 2.29372E+00
 -1      2416 2.25560E+00
 -1      2417 2.25386E+00
 -1      2418 2.25445E+00
 -1      2419 2.25445E+00
 -1      2420 2.29687E+00
 -1      2421 2.42410E+00
 -1      2422 2.60303E+00
 -1      2423 2.60303E+00
 -1      2424 3.51684E+00
 -1      2425 4.91820E+00
 -1      2426 5.83158E+00
 -1      2427 3.49855E+01
 -1      2428 3.49855E+01
 -1      2429 3.40585E+01
 -1      2430 5.15598E+01
 -1      2431 3.75159E+01
 -1      2432 2.10975E+01
 -1      2433 1.07940E+01
 -1      2434 4.42325E+00
 -1      2435 3.95318E+00
 -1      2436 3.94657E+00
 -1      2437 3.79149E+00
 -1      2438 3.69492E+00
 -1      2439 3.65670E+00
 -1      2440 3.65394E+00
 -1      2441 3.65407E+00
 -1      2442 3.65407E+00
 -1      2443 3.69614E+00
 -1      2444 3.81942E+00
 -1      2445 3.98589E+00
 -1      2446 3.98589E+00
 -1      2447 4.85981E+00
 -1      2448 9.01995E+00
 -1      2449 9.31050E+00
 -1      2450 3.77005E+01
 -1      2451 3.77005E+01
 -1      2452 3.56201E+01
 -1      2453 5.15598E+01
 -1      2454 3.93297E+01
 -1      2455 2.48789E+01
 -1      2456 1.40263E+01
 -1      2457 6.93294E+00
 -1      2458 6.63774E+00
 -1      2459 6.55496E+00
 -1      2460 6.15522E+00
 -1      2461 5.91528E+00
 -1      2462 5.82504E+00
 -1      2463 5.81599E+00
 -1      2464 5.82068E+00
 -1      2465 5.82068E+00
 -1      2466 5.89903E+00
 -1      2467 6.20205E+00
 -1      2468 6.68249E+00
 -1      2469 6.68249E+00
 -1      2470 8.93249E+00
 -1      2471 1.33667E+01
 -1      2472 1.33667E+01
 -1      2473 4.00952E+01
 -1      2474 4.00952E+01
 -1      2475 3.64187E+01
 -1      2476 4.95475E+01
 -1      2477 4.01196E+01
 -1      2478 2.76680E+01
 -1      2479 1.89239E+01
 -1      2480 1.23698E+01
 -1      2481 1.19076E+01
 -1      2482 1.18339E+01
 -1      2483 1.14336E+01
 -1      2484 1.11861E+01
 -1      2485 1.10886E+01
 -1      2486 1.10728E+01
 -1      2487 1.10758E+01
 -1      2488 1.10758E+01
 -1      2489 1.11584E+01
 -1      2490 1.14715E+01
 -1      2491 1.19072E+01
 -1      2492 1.19072E+01
 -1      2493 1.40101E+01
 -1      2494 1.76966E+01
 -1      2495 1.76966E+01
 -1      2496 4.12250E+01
 -1      2497 4.12250E+01
 -1      2498 3.64187E+01
 -1      2499 4.47467E+01
 -1      2500 4.49200E+01
 -1      2501 3.15799E+01
 -1      2502 2.62829E+01
 -1      2503 2.06993E+01
 -1      2504 2.06029E+01
 -1      2505 2.05734E+01
 -1      2506 2.01628E+01
 -1      2507 1.98932E+01
 -1      2508 1.97807E+01
 -1      2509 1.97576E+01
 -1      2510 1.97543E+01
 -1      2511 1.97543E+01
 -1      2512 1.98186E+01
 -1      2513 2.01578E+01
 -1      2514 2.05987E+01
 -1      2515 2.05987E+01
 -1      2516 2.27471E+01
 -1      2517 2.51831E+01
 -1      2518 2.54221E+01
 -1      2519 4.34903E+01
 -1      2520 4.34903E+01
 -1      2521 3.58043E+01
 -1      2522 3.74359E+01
 -1      2523 6.41247E+01
 -1      2524 6.26736E+01
 -1      2525 6.61263E+01
 -1      2526 6.82447E+01
 -1      2527 6.86653E+01
 -1      2528 6.86653E+01
 -1      2529 6.84972E+01
 -1      2530 6.82516E+01
 -1      2531 6.80995E+01
 -1      2532 6.79812E+01
 -1      2533 6.79002E+01
 -1      2534 6.78500E+01
 -1      2535 6.77955E+01
 -1      2536 6.79583E+01
 -1      2537 6.84816E+01
 -1      2538 6.84816E+01
 -1      2539 6.96918E+01
 -1      2540 6.96918E+01
 -1      2541 6.89804E+01
 -1      2542 6.43483E+01
 -1      2543 5.87763E+01
 -1      2544 3.27416E+01
 -1      2545 2.90673E+01
 -1      2546 7.85026E+01
 -1      2547 9.24260E+01
 -1      2548 9.82926E+01
 -1      2549 9.82926E+01
 -1      2550 9.82852E+01
 -1      2551 9.79691E+01
 -1      2552 9.77816E+01
 -1      2553 9.77044E+01
 -1      2554 9.76592E+01
 -1      2555 9.76174E+01
 -1      2556 9.75760E+01
 -1      2557 9.75623E+01
 -1      2558 9.75623E+01
 -1      2559 9.75409E+01
 -1      2560 9.73567E+01
 -1      2561 9.72516E+01
 -1      2562 9.72516E+01
 -1      2563 9.82546E+01
 -1      2564 9.82546E+01
 -1      2565 9.41803E+01
 -1      2566 7.35188E+01
 -1      2567 3.27416E+01
 -1      2568 4.92493E+01
 -1      2569 6.14721E+01
 -1      2570 4.38292E+01
 -1      2571 3.82163E+01
 -1      2572 3.51981E+01
 -1      2573 3.51981E+01
 -1      2574 3.50525E+01
 -1      2575 3.46794E+01
 -1      2576 3.44433E+01
 -1      2577 3.43364E+01
 -1      2578 3.42919E+01
 -1      2579 3.42808E+01
 -1      2580 3.42808E+01
 -1      2581 3.42860E+01
 -1      2582 3.45359E+01
 -1      2583 3.49690E+01
 -1      2584 3.49690E+01
 -1      2585 3.64945E+01
 -1      2586 4.00049E+01
 -1      2587 4.00049E+01
 -1      2588 5.22637E+01
 -1      2589 5.22637E+01
 -1      2590 3.45832E+01
 -1      2591 5.93724E+01
 -1      2592 5.60147E+01
 -1      2593 3.74878E+01
 -1      2594 2.77247E+01
 -1      2595 2.25820E+01
 -1      2596 2.25820E+01
 -1      2597 2.23661E+01
 -1      2598 2.20052E+01
 -1      2599 2.18003E+01
 -1      2600 2.17188E+01
 -1      2601 2.16903E+01
 -1      2602 2.16942E+01
 -1      2603 2.16942E+01
 -1      2604 2.17414E+01
 -1      2605 2.19770E+01
 -1      2606 2.23769E+01
 -1      2607 2.23769E+01
 -1      2608 2.35074E+01
 -1      2609 2.91930E+01
 -1      2610 2.91930E+01
 -1      2611 4.95255E+01
 -1      2612 4.95255E+01
 -1      2613 3.51968E+01
 -1      2614 6.85736E+01
 -1      2615 5.24456E+01
 -1      2616 3.16441E+01
 -1      2617 1.85190E+01
 -1      2618 1.24696E+01
 -1      2619 1.24696E+01
 -1      2620 1.22249E+01
 -1      2621 1.18447E+01
 -1      2622 1.16360E+01
 -1      2623 1.15589E+01
 -1      2624 1.15386E+01
 -1      2625 1.15461E+01
 -1      2626 1.15461E+01
 -1      2627 1.16039E+01
 -1      2628 1.18460E+01
 -1      2629 1.22751E+01
 -1      2630 1.23607E+01
 -1      2631 1.34946E+01
 -1      2632 2.08227E+01
 -1      2633 2.08227E+01
 -1      2634 4.70082E+01
 -1      2635 4.70082E+01
 -1      2636 3.64727E+01
 -1      2637 7.47121E+01
 -1      2638 4.93804E+01
 -1      2639 2.55349E+01
 -1      2640 9.79628E+00
 -1      2641 4.00403E+00
 -1      2642 4.00403E+00
 -1      2643 3.89788E+00
 -1      2644 3.73974E+00
 -1      2645 3.65464E+00
 -1      2646 3.62466E+00
 -1      2647 3.61887E+00
 -1      2648 3.62213E+00
 -1      2649 3.62213E+00
 -1      2650 3.64600E+00
 -1      2651 3.74258E+00
 -1      2652 3.91791E+00
 -1      2653 4.00063E+00
 -1      2654 4.56630E+00
 -1      2655 1.23195E+01
 -1      2656 1.23195E+01
 -1      2657 4.36662E+01
 -1      2658 4.36662E+01
 -1      2659 3.64727E+01
 -1      2660 7.79252E+01
 -1      2661 4.74578E+01
 -1      2662 2.17794E+01
 -1      2663 5.55102E+00
 -1      2664 2.12669E+00
 -1      2665 2.00471E+00
 -1      2666 1.94996E+00
 -1      2667 1.78313E+00
 -1      2668 1.68273E+00
 -1      2669 1.64388E+00
 -1      2670 1.63770E+00
 -1      2671 1.63939E+00
 -1      2672 1.63939E+00
 -1      2673 1.66969E+00
 -1      2674 1.79356E+00
 -1      2675 2.02229E+00
 -1      2676 2.02229E+00
 -1      2677 2.80050E+00
 -1      2678 6.71826E+00
 -1      2679 6.71826E+00
 -1      2680 4.09721E+01
 -1      2681 4.09721E+01
 -1      2682 3.59717E+01
 -1      2683 7.79252E+01
 -1      2684 4.93805E+01
 -1      2685 2.55349E+01
 -1      2686 9.79628E+00
 -1      2687 4.00403E+00
 -1      2688 4.00403E+00
 -1      2689 3.89788E+00
 -1      2690 3.73974E+00
 -1      2691 3.65464E+00
 -1      2692 3.62466E+00
 -1      2693 3.61887E+00
 -1      2694 3.62213E+00
 -1      2695 3.62213E+00
 -1      2696 3.64600E+00
 -1      2697 3.74258E+00
 -1      2698 3.91791E+00
 -1      2699 4.00063E+00
 -1      2700 4.56630E+00
 -1      2701 1.23195E+01
 -1      2702 1.23195E+01
 -1      2703 4.36662E+01
 -1      2704 4.36662E+01
 -1      2705 3.64727E+01
 -1      2706 7.79252E+01
 -1      2707 5.24456E+01
 -1      2708 3.16441E+01
 -1      2709 1.85190E+01
 -1      2710 1.24696E+01
 -1      2711 1.24696E+01
 -1      2712 1.22249E+01
 -1      2713 1.18447E+01
 -1      2714 1.16360E+01
 -1      2715 1.15589E+01
 -1      2716 1.15386E+01
 -1      2717 1.15461E+01
 -1      2718 1.15461E+01
 -1      2719 1.16039E+01
 -1      2720 1.18460E+01
 -1      2721 1.22751E+01
 -1      2722 1.23607E+01
 -1      2723 1.34946E+01
 -1      2724 2.08227E+01
 -1      2725 2.08227E+01
 -1      2726 4.70082E+01
 -1      2727 4.70082E+01
 -1      2728 3.64727E+01
 -1      2729 7.47121E+01
 -1      2730 5.60147E+01
 -1      2731 3.74878E+01
 -1      2732 2.77247E+01
 -1      2733 2.25820E+01
 -1      2734 2.25820E+01
 -1      2735 2.23661E+01
 -1      2736 2.20052E+01
 -1      2737 2.18003E+01
 -1      2738 2.17188E+01
 -1      2739 2.16903E+01
 -1      2740 2.16942E+01
 -1      2741 2.16942E+01
 -1      2742 2.17414E+01
 -1      2743 2.19770E+01
 -1      2744 2.23769E+01
 -1      2745 2.23769E+01
 -1      2746 2.35074E+01
 -1      2747 2.91930E+01
 -1      2748 2.91930E+01
 -1      2749 4.95255E+01
 -1      2750 4.95255E+01
 -1      2751 3.51968E+01
 -1      2752 6.85736E+01
 -1      2753 6.14721E+01
 -1      2754 4.38292E+01
 -1      2755 3.82163E+01
 -1      2756 3.51981E+01
 -1      2757 3.51981E+01
 -1      2758 3.50525E+01
 -1      2759 3.46794E+01
 -1      2760 3.44433E+01
 -1      2761 3.43364E+01
 -1      2762 3.42919E+01
 -1      2763 3.42808E+01
 -1      2764 3.42808E+01
 -1      2765 3.42860E+01
 -1      2766 3.45359E+01
 -1      2767 3.49690E+01
 -1      2768 3.49690E+01
 -1      2769 3.64945E+01
 -1      2770 4.00049E+01
 -1      2771 4.00049E+01
 -1      2772 5.22637E+01
 -1      2773 5.22637E+01
 -1      2774 3.45832E+01
 -1      2775 5.93724E+01
 -1      2776 7.85026E+01
 -1      2777 9.24260E+01
 -1      2778 9.82926E+01
 -1      2779 9.82926E+01
 -1      2780 9.82852E+01
 -1      2781 9.79691E+01
 -1      2782 9.77816E+01
 -1      2783 9.77044E+01
 -1      2784 9.76592E+01
 -1      2785 9.76174E+01
 -1      2786 9.75760E+01
 -1      2787 9.75623E+01
 -1      2788 9.75623E+01
 -1      2789 9.75409E+01
 -1      2790 9.73567E+01
 -1      2791 9.72516E+01
 -1      2792 9.72516E+01
 -1      2793 9.82546E+01
 -1      2794 9.82546E+01
 -1      2795 9.41803E+01
 -1      2796 7.35188E+01
 -1      2797 3.27416E+01
 -1      2798 4.92493E+01
 -1      2799 7.85026E+01
 -1      2800 9.24260E+01
 -1      2801 9.82926E+01
 -1      2802 9.82926E+01
 -1      2803 9.82852E+01
 -1      2804 9.79691E+01
 -1      2805 9.77816E+01
 -1      2806 9.77044E+01
 -1      2807 9.76592E+01
 -1      2808 9.76174E+01
 -1      2809 9.75760E+01
 -1      2810 9.75623E+01
 -1      2811 9.75623E+01
 -1      2812 9.75409E+01
 -1      2813 9.73567E+01
 -1      2814 9.72516E+01
 -1      2815 9.72516E+01
 -1      2816 9.82546E+01
 -1      2817 9.82546E+01
 -1      2818 9.41803E+01
 -1      2819 7.43909E+01
 -1      2820 7.03504E+01
 -1      2821 7.03504E+01
 -1      2822 6.73390E+01
 -1      2823 5.23460E+01
 -1      2824 4.62971E+01
 -1      2825 4.61093E+01
 -1      2826 4.61093E+01
 -1      2827 4.59344E+01
 -1      2828 4.55875E+01
 -1      2829 4.53475E+01
 -1      2830 4.52190E+01
 -1      2831 4.51530E+01
 -1      2832 4.51122E+01
 -1      2833 4.51059E+01
 -1      2834 4.51059E+01
 -1      2835 4.51376E+01
 -1      2836 4.53979E+01
 -1      2837 4.56804E+01
 -1      2838 4.66969E+01
 -1      2839 5.10012E+01
 -1      2840 5.10012E+01
 -1      2841 5.76601E+01
 -1      2842 5.76601E+01
 -1      2843 7.31497E+01
 -1      2844 7.31497E+01
 -1      2845 6.73390E+01
 -1      2846 4.88310E+01
 -1      2847 3.91500E+01
 -1      2848 3.58628E+01
 -1      2849 3.58628E+01
 -1      2850 3.56701E+01
 -1      2851 3.54094E+01
 -1      2852 3.52679E+01
 -1      2853 3.52039E+01
 -1      2854 3.51768E+01
 -1      2855 3.51670E+01
 -1      2856 3.51670E+01
 -1      2857 3.51879E+01
 -1      2858 3.53238E+01
 -1      2859 3.56054E+01
 -1      2860 3.58045E+01
 -1      2861 3.58045E+01
 -1      2862 4.20655E+01
 -1      2863 4.20655E+01
 -1      2864 5.76601E+01
 -1      2865 5.76601E+01
 -1      2866 7.56830E+01
 -1      2867 7.56830E+01
 -1      2868 6.17322E+01
 -1      2869 3.88299E+01
 -1      2870 2.37190E+01
 -1      2871 1.90484E+01
 -1      2872 1.90484E+01
 -1      2873 1.88305E+01
 -1      2874 1.85167E+01
 -1      2875 1.83624E+01
 -1      2876 1.82998E+01
 -1      2877 1.82777E+01
 -1      2878 1.82796E+01
 -1      2879 1.82796E+01
 -1      2880 1.83262E+01
 -1      2881 1.85035E+01
 -1      2882 1.88548E+01
 -1      2883 1.90247E+01
 -1      2884 1.90247E+01
 -1      2885 2.83747E+01
 -1      2886 2.83747E+01
 -1      2887 5.43650E+01
 -1      2888 5.43650E+01
 -1      2889 7.72399E+01
 -1      2890 7.72399E+01
 -1      2891 5.64945E+01
 -1      2892 2.84490E+01
 -1      2893 9.25213E+00
 -1      2894 4.00403E+00
 -1      2895 4.00403E+00
 -1      2896 3.89788E+00
 -1      2897 3.73974E+00
 -1      2898 3.65464E+00
 -1      2899 3.62466E+00
 -1      2900 3.61887E+00
 -1      2901 3.62213E+00
 -1      2902 3.62213E+00
 -1      2903 3.64600E+00
 -1      2904 3.74258E+00
 -1      2905 3.91791E+00
 -1      2906 4.00063E+00
 -1      2907 4.47069E+00
 -1      2908 1.41434E+01
 -1      2909 1.41434E+01
 -1      2910 4.95069E+01
 -1      2911 4.95069E+01
 -1      2912 7.82099E+01
 -1      2913 7.82099E+01
 -1      2914 5.57213E+01
 -1      2915 2.65203E+01
 -1      2916 4.61305E+00
 -1      2917 2.06652E+00
 -1      2918 2.06652E+00
 -1      2919 1.95220E+00
 -1      2920 1.79732E+00
 -1      2921 1.72518E+00
 -1      2922 1.69779E+00
 -1      2923 1.68910E+00
 -1      2924 1.69176E+00
 -1      2925 1.69176E+00
 -1      2926 1.71760E+00
 -1      2927 1.80406E+00
 -1      2928 1.95514E+00
 -1      2929 2.06384E+00
 -1      2930 2.06492E+00
 -1      2931 1.02028E+01
 -1      2932 1.02028E+01
 -1      2933 4.73190E+01
 -1      2934 4.73190E+01
 -1      2935 7.82099E+01
 -1      2936 7.82099E+01
 -1      2937 5.64945E+01
 -1      2938 2.84490E+01
 -1      2939 9.25213E+00
 -1      2940 4.00403E+00
 -1      2941 4.00403E+00
 -1      2942 3.89788E+00
 -1      2943 3.73974E+00
 -1      2944 3.65464E+00
 -1      2945 3.62466E+00
 -1      2946 3.61887E+00
 -1      2947 3.62213E+00
 -1      2948 3.62213E+00
 -1      2949 3.64600E+00
 -1      2950 3.74258E+00
 -1      2951 3.91791E+00
 -1      2952 4.00063E+00
 -1      2953 4.47069E+00
 -1      2954 1.41434E+01
 -1      2955 1.41434E+01
 -1      2956 4.95069E+01
 -1      2957 4.95069E+01
 -1      2958 7.82099E+01
 -1      2959 7.82099E+01
 -1      2960 6.17322E+01
 -1      2961 3.88299E+01
 -1      2962 2.37190E+01
 -1      2963 1.90484E+01
 -1      2964 1.90484E+01
 -1      2965 1.88305E+01
 -1      2966 1.85167E+01
 -1      2967 1.83624E+01
 -1      2968 1.82998E+01
 -1      2969 1.82777E+01
 -1      2970 1.82796E+01
 -1      2971 1.82796E+01
 -1      2972 1.83262E+01
 -1      2973 1.85035E+01
 -1      2974 1.88548E+01
 -1      2975 1.90247E+01
 -1      2976 1.90247E+01
 -1      2977 2.83747E+01
 -1      2978 2.83747E+01
 -1      2979 5.43650E+01
 -1      2980 5.43650E+01
 -1      2981 7.72399E+01
 -1      2982 7.72399E+01
 -1      2983 6.73390E+01
 -1      2984 4.88310E+01
 -1      2985 3.91500E+01
 -1      2986 3.58628E+01
 -1      2987 3.58628E+01
 -1      2988 3.56701E+01
 -1      2989 3.54094E+01
 -1      2990 3.52679E+01
 -1      2991 3.52039E+01
 -1      2992 3.51768E+01
 -1      2993 3.51670E+01
 -1      2994 3.51670E+01
 -1      2995 3.51879E+01
 -1      2996 3.53238E+01
 -1      2997 3.56054E+01
 -1      2998 3.58045E+01
 -1      2999 3.58045E+01
 -1      3000 4.20655E+01
 -1      3001 4.20655E+01
 -1      3002 5.76601E+01
 -1      3003 5.76601E+01
 -1      3004 7.56830E+01
 -1      3005 7.56830E+01
 -1      3006 6.73390E+01
 -1      3007 5.23460E+01
 -1      3008 4.62971E+01
 -1      3009 4.61093E+01
 -1      3010 4.61093E+01
 -1      3011 4.59344E+01
 -1      3012 4.55875E+01
 -1      3013 4.53475E+01
 -1      3014 4.52190E+01
 -1      3015 4.51530E+01
 -1      3016 4.51122E+01
 -1      3017 4.51059E+01
 -1      3018 4.51059E+01
 -1      3019 4.51376E+01
 -1      3020 4.53979E+01
 -1      3021 4.56804E+01
 -1      3022 4.66969E+01
 -1      3023 5.10012E+01
 -1      3024 5.10012E+01
 -1      3025 5.76601E+01
 -1      3026 5.76601E+01
 -1      3027 7.31497E+01
 -1      3028 7.31497E+01
 -1      3029 7.85026E+01
 -1      3030 9.24260E+01
 -1      3031 9.82926E+01
 -1      3032 9.82926E+01
 -1      3033 9.82852E+01
 -1      3034 9.79691E+01
 -1      3035 9.77816E+01
 -1      3036 9.77044E+01
 -1      3037 9.76592E+01
 -1      3038 9.76174E+01
 -1      3039 9.75760E+01
 -1      3040 9.75623E+01
 -1      3041 9.75623E+01
 -1      3042 9.75409E+01
 -1      3043 9.73567E+01
 -1      3044 9.72516E+01
 -1      3045 9.72516E+01
 -1      3046 9.82546E+01
 -1      3047 9.82546E+01
 -1      3048 9.41803E+01
 -1      3049 7.43909E+01
 -1      3050 7.03504E+01
 -1      3051 7.03504E+01
 -1      3052 7.02229E+01
 -1      3053 7.28066E+01
 -1      3054 7.63844E+01
 -1      3055 7.90006E+01
 -1      3056 8.24265E+01
 -1      3057 8.57449E+01
 -1      3058 8.81690E+01
 -1      3059 8.95740E+01
 -1      3060 9.02750E+01
 -1      3061 9.05782E+01
 -1      3062 9.06752E+01
 -1      3063 9.07276E+01
 -1      3064 9.07330E+01
 -1      3065 9.07330E+01
 -1      3066 9.04006E+01
 -1      3067 8.84422E+01
 -1      3068 8.45438E+01
 -1      3069 8.46098E+01
 -1      3070 8.56511E+01
 -1      3071 8.56511E+01
 -1      3072 8.38592E+01
 -1      3073 7.62047E+01
 -1      3074 7.62047E+01
 -1      3075 7.21420E+01
 -1      3076 7.28066E+01
 -1      3077 7.63844E+01
 -1      3078 7.90006E+01
 -1      3079 8.24265E+01
 -1      3080 8.57449E+01
 -1      3081 8.81690E+01
 -1      3082 8.95740E+01
 -1      3083 9.02750E+01
 -1      3084 9.05782E+01
 -1      3085 9.06752E+01
 -1      3086 9.07276E+01
 -1      3087 9.07330E+01
 -1      3088 9.07330E+01
 -1      3089 9.04006E+01
 -1      3090 8.84422E+01
 -1      3091 8.45438E+01
 -1      3092 8.46098E+01
 -1      3093 8.56511E+01
 -1      3094 8.56511E+01
 -1      3095 8.38592E+01
 -1      3096 7.31497E+01
 -1      3097 7.31497E+01
 -1      3098 7.21420E+01
 -1      3099 5.59393E+01
 -1      3100 4.47711E+01
 -1      3101 4.26542E+01
 -1      3102 4.26542E+01
 -1      3103 4.25571E+01
 -1      3104 4.23870E+01
 -1      3105 4.22699E+01
 -1      3106 4.21969E+01
 -1      3107 4.21590E+01
 -1      3108 4.21380E+01
 -1      3109 4.21286E+01
 -1      3110 4.21498E+01
 -1      3111 4.21991E+01
 -1      3112 4.23466E+01
 -1      3113 4.23559E+01
 -1      3114 4.26617E+01
 -1      3115 4.73281E+01
 -1      3116 4.73281E+01
 -1      3117 6.52404E+01
 -1      3118 7.54298E+01
 -1      3119 7.56830E+01
 -1      3120 7.56830E+01
 -1      3121 6.46154E+01
 -1      3122 4.67562E+01
 -1      3123 3.11906E+01
 -1      3124 2.78520E+01
 -1      3125 2.77821E+01
 -1      3126 2.76285E+01
 -1      3127 2.74336E+01
 -1      3128 2.73365E+01
 -1      3129 2.72882E+01
 -1      3130 2.72693E+01
 -1      3131 2.72651E+01
 -1      3132 2.72731E+01
 -1      3133 2.73381E+01
 -1      3134 2.74326E+01
 -1      3135 2.77922E+01
 -1      3136 2.77922E+01
 -1      3137 2.83070E+01
 -1      3138 3.48982E+01
 -1      3139 3.48982E+01
 -1      3140 6.22153E+01
 -1      3141 7.62665E+01
 -1      3142 7.72399E+01
 -1      3143 7.72399E+01
 -1      3144 5.90746E+01
 -1      3145 3.38194E+01
 -1      3146 8.40097E+00
 -1      3147 4.23498E+00
 -1      3148 4.07376E+00
 -1      3149 3.96940E+00
 -1      3150 3.85811E+00
 -1      3151 3.80685E+00
 -1      3152 3.78299E+00
 -1      3153 3.77403E+00
 -1      3154 3.77266E+00
 -1      3155 3.77733E+00
 -1      3156 3.81221E+00
 -1      3157 3.87376E+00
 -1      3158 4.02971E+00
 -1      3159 4.02971E+00
 -1      3160 4.04080E+00
 -1      3161 1.41434E+01
 -1      3162 1.41434E+01
 -1      3163 5.61020E+01
 -1      3164 7.62810E+01
 -1      3165 7.82099E+01
 -1      3166 7.82099E+01
 -1      3167 5.78395E+01
 -1      3168 3.22487E+01
 -1      3169 5.76782E+00
 -1      3170 3.25437E+00
 -1      3171 3.07633E+00
 -1      3172 2.98663E+00
 -1      3173 2.88041E+00
 -1      3174 2.82864E+00
 -1      3175 2.80284E+00
 -1      3176 2.79294E+00
 -1      3177 2.79044E+00
 -1      3178 2.79541E+00
 -1      3179 2.83074E+00
 -1      3180 2.89443E+00
 -1      3181 3.05715E+00
 -1      3182 3.05715E+00
 -1      3183 3.01476E+00
 -1      3184 1.03577E+01
 -1      3185 1.07788E+01
 -1      3186 5.45813E+01
 -1      3187 7.62810E+01
 -1      3188 7.82099E+01
 -1      3189 7.82099E+01
 -1      3190 5.90746E+01
 -1      3191 3.38194E+01
 -1      3192 8.40096E+00
 -1      3193 4.23498E+00
 -1      3194 4.07376E+00
 -1      3195 3.96940E+00
 -1      3196 3.85811E+00
 -1      3197 3.80685E+00
 -1      3198 3.78299E+00
 -1      3199 3.77403E+00
 -1      3200 3.77266E+00
 -1      3201 3.77733E+00
 -1      3202 3.81221E+00
 -1      3203 3.87376E+00
 -1      3204 4.02971E+00
 -1      3205 4.02971E+00
 -1      3206 4.04080E+00
 -1      3207 1.41434E+01
 -1      3208 1.41434E+01
 -1      3209 5.61020E+01
 -1      3210 7.62810E+01
 -1      3211 7.82099E+01
 -1      3212 7.82099E+01
 -1      3213 6.46154E+01
 -1      3214 4.67562E+01
 -1      3215 3.11906E+01
 -1      3216 2.78520E+01
 -1      3217 2.77821E+01
 -1      3218 2.76285E+01
 -1      3219 2.74336E+01
 -1      3220 2.73365E+01
 -1      3221 2.72882E+01
 -1      3222 2.72693E+01
 -1      3223 2.72651E+01
 -1      3224 2.72731E+01
 -1      3225 2.73381E+01
 -1      3226 2.74326E+01
 -1      3227 2.77922E+01
 -1      3228 2.77922E+01
 -1      3229 2.83070E+01
 -1      3230 3.48982E+01
 -1      3231 3.48982E+01
 -1      3232 6.22153E+01
 -1      3233 7.62665E+01
 -1      3234 7.72399E+01
 -1      3235 7.72399E+01
 -1      3236 7.21420E+01
 -1      3237 5.59393E+01
 -1      3238 4.47711E+01
 -1      3239 4.26542E+01
 -1      3240 4.26542E+01
 -1      3241 4.25571E+01
 -1      3242 4.23870E+01
 -1      3243 4.22699E+01
 -1      3244 4.21969E+01
 -1      3245 4.21590E+01
 -1      3246 4.21380E+01
 -1      3247 4.21286E+01
 -1      3248 4.21498E+01
 -1      3249 4.21991E+01
 -1      3250 4.23466E+01
 -1      3251 4.23559E+01
 -1      3252 4.26617E+01
 -1      3253 4.73281E+01
 -1      3254 4.73281E+01
 -1      3255 6.52404E+01
 -1      3256 7.54298E+01
 -1      3257 7.56830E+01
 -1      3258 7.56830E+01
 -1      3259 7.21420E+01
 -1      3260 7.28066E+01
 -1      3261 7.63844E+01
 -1      3262 7.90006E+01
 -1      3263 8.24265E+01
 -1      3264 8.57449E+01
 -1      3265 8.81690E+01
 -1      3266 8.95740E+01
 -1      3267 9.02750E+01
 -1      3268 9.05782E+01
 -1      3269 9.06752E+01
 -1      3270 9.07276E+01
 -1      3271 9.07330E+01
 -1      3272 9.07330E+01
 -1      3273 9.04006E+01
 -1      3274 8.84422E+01
 -1      3275 8.45438E+01
 -1      3276 8.46098E+01
 -1      3277 8.56511E+01
 -1      3278 8.56511E+01
 -1      3279 8.38592E+01
 -1      3280 7.31497E+01
 -1      3281 7.31497E+01
 -1      3282 7.02229E+01
 -1      3283 7.28066E+01
 -1      3284 7.63844E+01
 -1      3285 7.90006E+01
 -1      3286 8.24265E+01
 -1      3287 8.57449E+01
 -1      3288 8.81690E+01
 -1      3289 8.95740E+01
 -1      3290 9.02750E+01
 -1      3291 9.05782E+01
 -1      3292 9.06752E+01
 -1      3293 9.07276E+01
 -1      3294 9.07330E+01
 -1      3295 9.07330E+01
 -1      3296 9.04006E+01
 -1      3297 8.84422E+01
 -1      3298 8.45438E+01
 -1      3299 8.46098E+01
 -1      3300 8.56511E+01
 -1      3301 8.56511E+01
 -1      3302 8.38592E+01
 -1      3303 7.62047E+01
 -1      3304 7.62047E+01
 -3
    1PSTEP                        13           5           1          
  100CL  105 9.12500E-01        3304                     0    5           1
 -4  DISP        4    1
 -5  D1          1    2    1    0
 -5  D2          1    2    2    0
 -5  D3          1    2    3    0
 -5  ALL         1    2    0    0    1ALL
 -1         1 0.00000E+00 0.00000E+00 0.00000E+00
 -1         2 4.87935E-02 3.63958E-04-3.97950E-05
 -1         3 0.00000E+00 0.00000E+00 0.00000E+00
 -1         4 4.78936E-02 1.83330E-04-4.66146E-05
 -1         5 0.00000E+00 0.00000E+00 0.00000E+00
 -1         6 4.77140E-02 8.31472E-05-5.00143E-05
 -1         7 0.00000E+00 0.00000E+00 0.00000E+00
 -1         8 4.76645E-02 2.60915E-10-5.03144E-05
 -1         9 0.00000E+00 0.00000E+00 0.00000E+00
 -1        10 4.77140E-02-8.31467E-05-5.00143E-05
 -1        11 0.00000E+00 0.00000E+00 0.00000E+00
 -1        12 4.78936E-02-1.83329E-04-4.66146E-05
 -1        13 0.00000E+00 0.00000E+00 0.00000E+00
 -1        14 4.87935E-02-3.63958E-04-3.97950E-05
 -1        15 0.00000E+00 0.00000E+00 0.00000E+00
 -1        16 4.79269E-02 1.81391E-04-1.09453E-03
 -1        17 0.00000E+00 0.00000E+00 0.00000E+00
 -1        18 4.74842E-02 1.29490E-04-1.03911E-03
 -1        19 0.00000E+00 0.00000E+00 0.00000E+00
 -1        20 4.72950E-02 6.96101E-05-1.04595E-03
 -1        21 0.00000E+00 0.00000E+00 0.00000E+00
 -1        22 4.72501E-02 2.60888E-10-1.04690E-03
 -1        23 0.00000E+00 0.00000E+00 0.00000E+00
 -1        24 4.72950E-02-6.96096E-05-1.04595E-03
 -1        25 0.00000E+00 0.00000E+00 0.00000E+00
 -1        26 4.74842E-02-1.29490E-04-1.03911E-03
 -1        27 0.00000E+00 0.00000E+00 0.00000E+00
 -1        28 4.79269E-02-1.81391E-04-1.09453E-03
 -1        29 0.00000E+00 0.00000E+00 0.00000E+00
 -1        30 4.77847E-02 6.81652E-05-2.15039E-03
 -1        31 0.00000E+00 0.00000E+00 0.00000E+00
 -1        32 4.73569E-02 7.14950E-05-2.10623E-03
 -1        33 0.00000E+00 0.00000E+00 0.00000E+00
 -1        34 4.72158E-02 5.54655E-05-2.07912E-03
 -1        35 0.00000E+00 0.00000E+00 0.00000E+00
 -1        36 4.71741E-02 2.60896E-10-2.06796E-03
 -1        37 0.00000E+00 0.00000E+00 0.00000E+00
 -1        38 4.72158E-02-5.54650E-05-2.07912E-03
 -1        39 0.00000E+00 0.00000E+00 0.00000E+00
 -1        40 4.73569E-02-7.14945E-05-2.10623E-03
 -1        41 0.00000E+00 0.00000E+00 0.00000E+00
 -1        42 4.77847E-02-6.81647E-05-2.15039E-03
 -1        43 0.00000E+00 0.00000E+00 0.00000E+00
 -1        44 4.78425E-02 4.16242E-05-3.30586E-03
 -1        45 0.00000E+00 0.00000E+00 0.00000E+00
 -1        46 4.74370E-02 8.32044E-05-3.26179E-03
 -1        47 0.00000E+00 0.00000E+00 0.00000E+00
 -1        48 4.72986E-02 7.33406E-05-3.16921E-03
 -1        49 0.00000E+00 0.00000E+00 0.00000E+00
 -1        50 4.72607E-02 2.60909E-10-3.12556E-03
 -1        51 0.00000E+00 0.00000E+00 0.00000E+00
 -1        52 4.72986E-02-7.33400E-05-3.16921E-03
 -1        53 0.00000E+00 0.00000E+00 0.00000E+00
 -1        54 4.74370E-02-8.32039E-05-3.26179E-03
 -1        55 0.00000E+00 0.00000E+00 0.00000E+00
 -1        56 4.78425E-02-4.16237E-05-3.30586E-03
 -1        57 0.00000E+00 0.00000E+00 0.00000E+00
 -1        58 4.81280E-02 7.29070E-05-4.66657E-03
 -1        59 0.00000E+00 0.00000E+00 0.00000E+00
 -1        60 4.77079E-02 1.61685E-04-4.52320E-03
 -1        61 0.00000E+00 0.00000E+00 0.00000E+00
 -1        62 4.75643E-02 1.19987E-04-4.28630E-03
 -1        63 0.00000E+00 0.00000E+00 0.00000E+00
 -1        64 4.75201E-02 2.60931E-10-4.19242E-03
 -1        65 0.00000E+00 0.00000E+00 0.00000E+00
 -1        66 4.75643E-02-1.19986E-04-4.28630E-03
 -1        67 0.00000E+00 0.00000E+00 0.00000E+00
 -1        68 4.77079E-02-1.61685E-04-4.52320E-03
 -1        69 0.00000E+00 0.00000E+00 0.00000E+00
 -1        70 4.81280E-02-7.29065E-05-4.66657E-03
 -1        71 0.00000E+00 0.00000E+00 0.00000E+00
 -1        72 4.86943E-02 1.12976E-04-6.48180E-03
 -1        73 0.00000E+00 0.00000E+00 0.00000E+00
 -1        74 4.83261E-02 2.09816E-04-5.84949E-03
 -1        75 0.00000E+00 0.00000E+00 0.00000E+00
 -1        76 4.81100E-02 7.38844E-05-5.40846E-03
 -1        77 0.00000E+00 0.00000E+00 0.00000E+00
 -1        78 4.80431E-02 2.60964E-10-5.30903E-03
 -1        79 0.00000E+00 0.00000E+00 0.00000E+00
 -1        80 4.81100E-02-7.38839E-05-5.40846E-03
 -1        81 0.00000E+00 0.00000E+00 0.00000E+00
 -1        82 4.83261E-02-2.09815E-04-5.84949E-03
 -1        83 0.00000E+00 0.00000E+00 0.00000E+00
 -1        84 4.86943E-02-1.12976E-04-6.48180E-03
 -1        85 0.00000E+00 0.00000E+00 0.00000E+00
 -1        86 5.06571E-02-6.31094E-04-9.33575E-03
 -1        87 0.00000E+00 0.00000E+00 0.00000E+00
 -1        88 4.96448E-02-4.13282E-04-7.20300E-03
 -1        89 0.00000E+00 0.00000E+00 0.00000E+00
 -1        90 4.93069E-02-1.73988E-04-6.75678E-03
 -1        91 0.00000E+00 0.00000E+00 0.00000E+00
 -1        92 4.92192E-02 2.61022E-10-6.62419E-03
 -1        93 0.00000E+00 0.00000E+00 0.00000E+00
 -1        94 4.93069E-02 1.73988E-04-6.75678E-03
 -1        95 0.00000E+00 0.00000E+00 0.00000E+00
 -1        96 4.96448E-02 4.13283E-04-7.20300E-03
 -1        97 0.00000E+00 0.00000E+00 0.00000E+00
 -1        98 5.06571E-02 6.31095E-04-9.33575E-03
 -1        99 1.69417E-03 4.56817E-04-1.18079E-05
 -1       100 1.69417E-03-4.56817E-04-1.18079E-05
 -1       101 3.90554E-03 3.14461E-04-2.94488E-05
 -1       102 3.90554E-03-3.14461E-04-2.94488E-05
 -1       103 6.38192E-03 2.46492E-04-3.18263E-05
 -1       104 6.38192E-03-2.46492E-04-3.18263E-05
 -1       105 8.85009E-03 2.26570E-04-3.24069E-05
 -1       106 8.85009E-03-2.26569E-04-3.24069E-05
 -1       107 1.12700E-02 2.25286E-04-3.17288E-05
 -1       108 1.12700E-02-2.25286E-04-3.17288E-05
 -1       109 1.36664E-02 2.27778E-04-3.13898E-05
 -1       110 1.36664E-02-2.27778E-04-3.13898E-05
 -1       111 1.60584E-02 2.30530E-04-3.12332E-05
 -1       112 1.60584E-02-2.30530E-04-3.12332E-05
 -1       113 1.84538E-02 2.32836E-04-3.11940E-05
 -1       114 1.84538E-02-2.32836E-04-3.11940E-05
 -1       115 2.08549E-02 2.34802E-04-3.11898E-05
 -1       116 2.08549E-02-2.34802E-04-3.11898E-05
 -1       117 2.32620E-02 2.36606E-04-3.11954E-05
 -1       118 2.32620E-02-2.36605E-04-3.11954E-05
 -1       119 2.56752E-02 2.38375E-04-3.12031E-05
 -1       120 2.56752E-02-2.38375E-04-3.12031E-05
 -1       121 2.80946E-02 2.40234E-04-3.12099E-05
 -1       122 2.80946E-02-2.40233E-04-3.12099E-05
 -1       123 3.05203E-02 2.42388E-04-3.12022E-05
 -1       124 3.05203E-02-2.42388E-04-3.12022E-05
 -1       125 3.29516E-02 2.45120E-04-3.11164E-05
 -1       126 3.29516E-02-2.45120E-04-3.11164E-05
 -1       127 3.53843E-02 2.48519E-04-3.08575E-05
 -1       128 3.53843E-02-2.48518E-04-3.08575E-05
 -1       129 3.78027E-02 2.51638E-04-3.00741E-05
 -1       130 3.78027E-02-2.51638E-04-3.00741E-05
 -1       131 4.01685E-02 2.46464E-04-2.95886E-05
 -1       132 4.01685E-02-2.46463E-04-2.95886E-05
 -1       133 4.24486E-02 2.03285E-04-2.92430E-05
 -1       134 4.24486E-02-2.03285E-04-2.92430E-05
 -1       135 4.47813E-02-6.57916E-06-4.28779E-05
 -1       136 4.47813E-02 6.57968E-06-4.28779E-05
 -1       137 1.70882E-03 4.57593E-04-4.11818E-04
 -1       138 1.70882E-03-4.57593E-04-4.11818E-04
 -1       139 3.93186E-03 3.15176E-04-6.53413E-04
 -1       140 3.93186E-03-3.15176E-04-6.53413E-04
 -1       141 6.40569E-03 2.49572E-04-7.17635E-04
 -1       142 6.40569E-03-2.49572E-04-7.17635E-04
 -1       143 8.86626E-03 2.31152E-04-7.13859E-04
 -1       144 8.86626E-03-2.31152E-04-7.13859E-04
 -1       145 1.12815E-02 2.30704E-04-7.01747E-04
 -1       146 1.12815E-02-2.30704E-04-7.01747E-04
 -1       147 1.36765E-02 2.33409E-04-6.95297E-04
 -1       148 1.36765E-02-2.33409E-04-6.95297E-04
 -1       149 1.60682E-02 2.36163E-04-6.93281E-04
 -1       150 1.60682E-02-2.36163E-04-6.93281E-04
 -1       151 1.84637E-02 2.38437E-04-6.93258E-04
 -1       152 1.84637E-02-2.38436E-04-6.93258E-04
 -1       153 2.08648E-02 2.40377E-04-6.93887E-04
 -1       154 2.08648E-02-2.40377E-04-6.93887E-04
 -1       155 2.32719E-02 2.42165E-04-6.94657E-04
 -1       156 2.32719E-02-2.42164E-04-6.94657E-04
 -1       157 2.56851E-02 2.43921E-04-6.95462E-04
 -1       158 2.56851E-02-2.43921E-04-6.95462E-04
 -1       159 2.81044E-02 2.45759E-04-6.96278E-04
 -1       160 2.81044E-02-2.45759E-04-6.96278E-04
 -1       161 3.05300E-02 2.47877E-04-6.96855E-04
 -1       162 3.05300E-02-2.47877E-04-6.96855E-04
 -1       163 3.29612E-02 2.50565E-04-6.96185E-04
 -1       164 3.29612E-02-2.50565E-04-6.96185E-04
 -1       165 3.53942E-02 2.53976E-04-6.91890E-04
 -1       166 3.53942E-02-2.53975E-04-6.91890E-04
 -1       167 3.78155E-02 2.57735E-04-6.78539E-04
 -1       168 3.78155E-02-2.57734E-04-6.78539E-04
 -1       169 4.01906E-02 2.53808E-04-6.59035E-04
 -1       170 4.01906E-02-2.53808E-04-6.59035E-04
 -1       171 4.24692E-02 2.14072E-04-6.54275E-04
 -1       172 4.24692E-02-2.14071E-04-6.54275E-04
 -1       173 4.49016E-02 1.33073E-05-8.80685E-04
 -1       174 4.49016E-02-1.33068E-05-8.80685E-04
 -1       175 1.73725E-03 4.57816E-04-8.36948E-04
 -1       176 1.73725E-03-4.57816E-04-8.36948E-04
 -1       177 3.98977E-03 3.15826E-04-1.29636E-03
 -1       178 3.98977E-03-3.15826E-04-1.29636E-03
 -1       179 6.45361E-03 2.56525E-04-1.41055E-03
 -1       180 6.45361E-03-2.56525E-04-1.41055E-03
 -1       181 8.89119E-03 2.43051E-04-1.40070E-03
 -1       182 8.89119E-03-2.43051E-04-1.40070E-03
 -1       183 1.12939E-02 2.44935E-04-1.37870E-03
 -1       184 1.12939E-02-2.44934E-04-1.37870E-03
 -1       185 1.36851E-02 2.48242E-04-1.36719E-03
 -1       186 1.36851E-02-2.48242E-04-1.36719E-03
 -1       187 1.60762E-02 2.51033E-04-1.36365E-03
 -1       188 1.60762E-02-2.51033E-04-1.36365E-03
 -1       189 1.84717E-02 2.53247E-04-1.36374E-03
 -1       190 1.84717E-02-2.53246E-04-1.36374E-03
 -1       191 2.08730E-02 2.55139E-04-1.36501E-03
 -1       192 2.08730E-02-2.55139E-04-1.36501E-03
 -1       193 2.32803E-02 2.56901E-04-1.36652E-03
 -1       194 2.32803E-02-2.56901E-04-1.36652E-03
 -1       195 2.56934E-02 2.58637E-04-1.36810E-03
 -1       196 2.56934E-02-2.58637E-04-1.36810E-03
 -1       197 2.81125E-02 2.60431E-04-1.36970E-03
 -1       198 2.81125E-02-2.60431E-04-1.36970E-03
 -1       199 3.05377E-02 2.62469E-04-1.37087E-03
 -1       200 3.05377E-02-2.62469E-04-1.37087E-03
 -1       201 3.29687E-02 2.65032E-04-1.36982E-03
 -1       202 3.29687E-02-2.65032E-04-1.36982E-03
 -1       203 3.54029E-02 2.68611E-04-1.36193E-03
 -1       204 3.54029E-02-2.68611E-04-1.36193E-03
 -1       205 3.78325E-02 2.73445E-04-1.33936E-03
 -1       206 3.78325E-02-2.73444E-04-1.33936E-03
 -1       207 4.02291E-02 2.75371E-04-1.29758E-03
 -1       208 4.02291E-02-2.75370E-04-1.29758E-03
 -1       209 4.25561E-02 2.39327E-04-1.30409E-03
 -1       210 4.25561E-02-2.39327E-04-1.30409E-03
 -1       211 4.48751E-02 5.08757E-05-1.62034E-03
 -1       212 4.48751E-02-5.08752E-05-1.62034E-03
 -1       213 1.78762E-03 4.54122E-04-1.31887E-03
 -1       214 1.78762E-03-4.54122E-04-1.31887E-03
 -1       215 4.08595E-03 3.12137E-04-1.97994E-03
 -1       216 4.08595E-03-3.12137E-04-1.97994E-03
 -1       217 6.52186E-03 2.63991E-04-2.12206E-03
 -1       218 6.52186E-03-2.63991E-04-2.12206E-03
 -1       219 8.92049E-03 2.59238E-04-2.10452E-03
 -1       220 8.92049E-03-2.59238E-04-2.10452E-03
 -1       221 1.13058E-02 2.64694E-04-2.07604E-03
 -1       222 1.13058E-02-2.64694E-04-2.07604E-03
 -1       223 1.36919E-02 2.68827E-04-2.06113E-03
 -1       224 1.36919E-02-2.68827E-04-2.06113E-03
 -1       225 1.60821E-02 2.71659E-04-2.05668E-03
 -1       226 1.60821E-02-2.71659E-04-2.05668E-03
 -1       227 1.84780E-02 2.73775E-04-2.05707E-03
 -1       228 1.84780E-02-2.73775E-04-2.05707E-03
 -1       229 2.08796E-02 2.75594E-04-2.05898E-03
 -1       230 2.08796E-02-2.75594E-04-2.05898E-03
 -1       231 2.32870E-02 2.77322E-04-2.06121E-03
 -1       232 2.32870E-02-2.77322E-04-2.06121E-03
 -1       233 2.57001E-02 2.79029E-04-2.06352E-03
 -1       234 2.57001E-02-2.79029E-04-2.06352E-03
 -1       235 2.81189E-02 2.80762E-04-2.06587E-03
 -1       236 2.81189E-02-2.80762E-04-2.06587E-03
 -1       237 3.05435E-02 2.82658E-04-2.06766E-03
 -1       238 3.05435E-02-2.82658E-04-2.06766E-03
 -1       239 3.29740E-02 2.85075E-04-2.06649E-03
 -1       240 3.29740E-02-2.85075E-04-2.06649E-03
 -1       241 3.54100E-02 2.88662E-04-2.05637E-03
 -1       242 3.54100E-02-2.88662E-04-2.05637E-03
 -1       243 3.78490E-02 2.95526E-04-2.02720E-03
 -1       244 3.78490E-02-2.95525E-04-2.02720E-03
 -1       245 4.02841E-02 3.04689E-04-1.97297E-03
 -1       246 4.02841E-02-3.04688E-04-1.97297E-03
 -1       247 4.26639E-02 2.81636E-04-1.96265E-03
 -1       248 4.26639E-02-2.81635E-04-1.96265E-03
 -1       249 4.49508E-02 1.05782E-04-2.33483E-03
 -1       250 4.49508E-02-1.05781E-04-2.33483E-03
 -1       251 1.87907E-03 4.33212E-04-1.91165E-03
 -1       252 1.87907E-03-4.33212E-04-1.91165E-03
 -1       253 4.23128E-03 2.85677E-04-2.73335E-03
 -1       254 4.23128E-03-2.85677E-04-2.73335E-03
 -1       255 6.59973E-03 2.56150E-04-2.87337E-03
 -1       256 6.59973E-03-2.56150E-04-2.87337E-03
 -1       257 8.94741E-03 2.64046E-04-2.85141E-03
 -1       258 8.94741E-03-2.64045E-04-2.85141E-03
 -1       259 1.13156E-02 2.73807E-04-2.82081E-03
 -1       260 1.13156E-02-2.73807E-04-2.82081E-03
 -1       261 1.36964E-02 2.78796E-04-2.80425E-03
 -1       262 1.36964E-02-2.78796E-04-2.80425E-03
 -1       263 1.60862E-02 2.81668E-04-2.79976E-03
 -1       264 1.60862E-02-2.81668E-04-2.79976E-03
 -1       265 1.84826E-02 2.83617E-04-2.80059E-03
 -1       266 1.84826E-02-2.83616E-04-2.80059E-03
 -1       267 2.08846E-02 2.85342E-04-2.80314E-03
 -1       268 2.08846E-02-2.85341E-04-2.80314E-03
 -1       269 2.32921E-02 2.87026E-04-2.80605E-03
 -1       270 2.32921E-02-2.87026E-04-2.80605E-03
 -1       271 2.57052E-02 2.88700E-04-2.80905E-03
 -1       272 2.57052E-02-2.88700E-04-2.80905E-03
 -1       273 2.81236E-02 2.90354E-04-2.81209E-03
 -1       274 2.81236E-02-2.90354E-04-2.81209E-03
 -1       275 3.05476E-02 2.92063E-04-2.81450E-03
 -1       276 3.05476E-02-2.92063E-04-2.81450E-03
 -1       277 3.29772E-02 2.94215E-04-2.81365E-03
 -1       278 3.29772E-02-2.94214E-04-2.81365E-03
 -1       279 3.54143E-02 2.97907E-04-2.80254E-03
 -1       280 3.54143E-02-2.97906E-04-2.80254E-03
 -1       281 3.78628E-02 3.06333E-04-2.77066E-03
 -1       282 3.78628E-02-3.06333E-04-2.77066E-03
 -1       283 4.03338E-02 3.25641E-04-2.71369E-03
 -1       284 4.03338E-02-3.25641E-04-2.71369E-03
 -1       285 4.28058E-02 3.23147E-04-2.67268E-03
 -1       286 4.28058E-02-3.23146E-04-2.67268E-03
 -1       287 4.51513E-02 1.71864E-04-3.05237E-03
 -1       288 4.51513E-02-1.71863E-04-3.05237E-03
 -1       289 2.06383E-03 3.47439E-04-2.72251E-03
 -1       290 2.06383E-03-3.47439E-04-2.72251E-03
 -1       291 4.43500E-03 1.84630E-04-3.59359E-03
 -1       292 4.43500E-03-1.84630E-04-3.59359E-03
 -1       293 6.65891E-03 1.83784E-04-3.71059E-03
 -1       294 6.65891E-03-1.83784E-04-3.71059E-03
 -1       295 8.96882E-03 2.08497E-04-3.69727E-03
 -1       296 8.96882E-03-2.08497E-04-3.69727E-03
 -1       297 1.13201E-02 2.21798E-04-3.66612E-03
 -1       298 1.13201E-02-2.21798E-04-3.66612E-03
 -1       299 1.36982E-02 2.28077E-04-3.65047E-03
 -1       300 1.36982E-02-2.28076E-04-3.65047E-03
 -1       301 1.60885E-02 2.30753E-04-3.64646E-03
 -1       302 1.60885E-02-2.30753E-04-3.64646E-03
 -1       303 1.84856E-02 2.32514E-04-3.64789E-03
 -1       304 1.84856E-02-2.32514E-04-3.64789E-03
 -1       305 2.08881E-02 2.34111E-04-3.65107E-03
 -1       306 2.08881E-02-2.34111E-04-3.65107E-03
 -1       307 2.32957E-02 2.35745E-04-3.65462E-03
 -1       308 2.32957E-02-2.35745E-04-3.65462E-03
 -1       309 2.57087E-02 2.37380E-04-3.65826E-03
 -1       310 2.57087E-02-2.37380E-04-3.65826E-03
 -1       311 2.81269E-02 2.38935E-04-3.66194E-03
 -1       312 2.81269E-02-2.38935E-04-3.66194E-03
 -1       313 3.05500E-02 2.40434E-04-3.66496E-03
 -1       314 3.05500E-02-2.40433E-04-3.66496E-03
 -1       315 3.29784E-02 2.42151E-04-3.66458E-03
 -1       316 3.29784E-02-2.42151E-04-3.66458E-03
 -1       317 3.54146E-02 2.45955E-04-3.65416E-03
 -1       318 3.54146E-02-2.45955E-04-3.65416E-03
 -1       319 3.78711E-02 2.55840E-04-3.62215E-03
 -1       320 3.78711E-02-2.55839E-04-3.62215E-03
 -1       321 4.03627E-02 2.83992E-04-3.56949E-03
 -1       322 4.03627E-02-2.83991E-04-3.56949E-03
 -1       323 4.29459E-02 3.20915E-04-3.52407E-03
 -1       324 4.29459E-02-3.20914E-04-3.52407E-03
 -1       325 4.55111E-02 1.77966E-04-3.79211E-03
 -1       326 4.55111E-02-1.77966E-04-3.79211E-03
 -1       327 2.68220E-03-1.10184E-04-3.95151E-03
 -1       328 2.68220E-03 1.10184E-04-3.95151E-03
 -1       329 4.55966E-03-2.76670E-04-4.56819E-03
 -1       330 4.55966E-03 2.76670E-04-4.56819E-03
 -1       331 6.69885E-03-2.19719E-04-4.74562E-03
 -1       332 6.69885E-03 2.19719E-04-4.74562E-03
 -1       333 8.97198E-03-1.85742E-04-4.72980E-03
 -1       334 8.97198E-03 1.85742E-04-4.72980E-03
 -1       335 1.13177E-02-1.65579E-04-4.70513E-03
 -1       336 1.13177E-02 1.65579E-04-4.70513E-03
 -1       337 1.36971E-02-1.58956E-04-4.69084E-03
 -1       338 1.36971E-02 1.58957E-04-4.69084E-03
 -1       339 1.60892E-02-1.56428E-04-4.68785E-03
 -1       340 1.60892E-02 1.56429E-04-4.68785E-03
 -1       341 1.84873E-02-1.54991E-04-4.68987E-03
 -1       342 1.84873E-02 1.54991E-04-4.68987E-03
 -1       343 2.08901E-02-1.53560E-04-4.69365E-03
 -1       344 2.08901E-02 1.53560E-04-4.69365E-03
 -1       345 2.32979E-02-1.52012E-04-4.69782E-03
 -1       346 2.32979E-02 1.52012E-04-4.69782E-03
 -1       347 2.57109E-02-1.50446E-04-4.70210E-03
 -1       348 2.57109E-02 1.50447E-04-4.70210E-03
 -1       349 2.81289E-02-1.49019E-04-4.70638E-03
 -1       350 2.81289E-02 1.49019E-04-4.70638E-03
 -1       351 3.05513E-02-1.47838E-04-4.70991E-03
 -1       352 3.05513E-02 1.47838E-04-4.70991E-03
 -1       353 3.29778E-02-1.46533E-04-4.71026E-03
 -1       354 3.29778E-02 1.46533E-04-4.71026E-03
 -1       355 3.54112E-02-1.43471E-04-4.70041E-03
 -1       356 3.54112E-02 1.43471E-04-4.70041E-03
 -1       357 3.78648E-02-1.30454E-04-4.67414E-03
 -1       358 3.78648E-02 1.30454E-04-4.67414E-03
 -1       359 4.03731E-02-9.68091E-05-4.61538E-03
 -1       360 4.03731E-02 9.68096E-05-4.61538E-03
 -1       361 4.29869E-02-1.61650E-05-4.64077E-03
 -1       362 4.29869E-02 1.61655E-05-4.64077E-03
 -1       363 4.59204E-02-5.27323E-05-4.63702E-03
 -1       364 4.59204E-02 5.27328E-05-4.63702E-03
 -1       365 1.64541E-03 2.92743E-04-1.11298E-05
 -1       366 2.68007E-03-5.18698E-05-3.08956E-03
 -1       367 3.93627E-03 2.26564E-04-2.94070E-05
 -1       368 4.57804E-03-1.50615E-04-3.81870E-03
 -1       369 6.39224E-03 1.67087E-04-3.26815E-05
 -1       370 6.69235E-03-1.33786E-04-4.00440E-03
 -1       371 8.85204E-03 1.54940E-04-3.31606E-05
 -1       372 8.96681E-03-1.05402E-04-4.00821E-03
 -1       373 1.12694E-02 1.54099E-04-3.26220E-05
 -1       374 1.13148E-02-9.21273E-05-3.98665E-03
 -1       375 1.36656E-02 1.55820E-04-3.22810E-05
 -1       376 1.36960E-02-8.73314E-05-3.97335E-03
 -1       377 1.60577E-02 1.57629E-04-3.21289E-05
 -1       378 1.60886E-02-8.56847E-05-3.97002E-03
 -1       379 1.84532E-02 1.59173E-04-3.20847E-05
 -1       380 1.84868E-02-8.47207E-05-3.97178E-03
 -1       381 2.08544E-02 1.60489E-04-3.20785E-05
 -1       382 2.08896E-02-8.37762E-05-3.97538E-03
 -1       383 2.32615E-02 1.61695E-04-3.20827E-05
 -1       384 2.32974E-02-8.27483E-05-3.97944E-03
 -1       385 2.56747E-02 1.62878E-04-3.20893E-05
 -1       386 2.57104E-02-8.17089E-05-3.98362E-03
 -1       387 2.80940E-02 1.64121E-04-3.20945E-05
 -1       388 2.81284E-02-8.07648E-05-3.98775E-03
 -1       389 3.05196E-02 1.65563E-04-3.20820E-05
 -1       390 3.05509E-02-7.99862E-05-3.99103E-03
 -1       391 3.29508E-02 1.67382E-04-3.19937E-05
 -1       392 3.29771E-02-7.91369E-05-3.99080E-03
 -1       393 3.53832E-02 1.69535E-04-3.17239E-05
 -1       394 3.54092E-02-7.71171E-05-3.98110E-03
 -1       395 3.78022E-02 1.71906E-04-3.10273E-05
 -1       396 3.78598E-02-6.79643E-05-3.95407E-03
 -1       397 4.01744E-02 1.69494E-04-3.05389E-05
 -1       398 4.03642E-02-4.35144E-05-3.91443E-03
 -1       399 4.24720E-02 1.39296E-04-3.06422E-05
 -1       400 4.29793E-02 2.50794E-05-3.92626E-03
 -1       401 4.48763E-02-4.36297E-05-4.41086E-05
 -1       402 4.60723E-02-1.36489E-04-4.22046E-03
 -1       403 1.63326E-03 1.43723E-04-1.00864E-05
 -1       404 2.64892E-03-1.18707E-05-2.95034E-03
 -1       405 3.93706E-03 1.18595E-04-2.92395E-05
 -1       406 4.58687E-03-5.99746E-05-3.64293E-03
 -1       407 6.40156E-03 8.66001E-05-3.24440E-05
 -1       408 6.69773E-03-5.78083E-05-3.84769E-03
 -1       409 8.85326E-03 7.95381E-05-3.31173E-05
 -1       410 8.96501E-03-4.31375E-05-3.85851E-03
 -1       411 1.12691E-02 7.95258E-05-3.25606E-05
 -1       412 1.13136E-02-3.60210E-05-3.84049E-03
 -1       413 1.36651E-02 8.03215E-05-3.22441E-05
 -1       414 1.36952E-02-3.36036E-05-3.82766E-03
 -1       415 1.60574E-02 8.12330E-05-3.20887E-05
 -1       416 1.60882E-02-3.27474E-05-3.82432E-03
 -1       417 1.84529E-02 8.20021E-05-3.20445E-05
 -1       418 1.84865E-02-3.22674E-05-3.82594E-03
 -1       419 2.08541E-02 8.26616E-05-3.20374E-05
 -1       420 2.08894E-02-3.17947E-05-3.82946E-03
 -1       421 2.32613E-02 8.32655E-05-3.20413E-05
 -1       422 2.32971E-02-3.12821E-05-3.83348E-03
 -1       423 2.56744E-02 8.38578E-05-3.20476E-05
 -1       424 2.57101E-02-3.07635E-05-3.83763E-03
 -1       425 2.80937E-02 8.44806E-05-3.20522E-05
 -1       426 2.81282E-02-3.02938E-05-3.84169E-03
 -1       427 3.05193E-02 8.52044E-05-3.20381E-05
 -1       428 3.05505E-02-2.99000E-05-3.84482E-03
 -1       429 3.29503E-02 8.60967E-05-3.19491E-05
 -1       430 3.29766E-02-2.95059E-05-3.84440E-03
 -1       431 3.53824E-02 8.72015E-05-3.16773E-05
 -1       432 3.54079E-02-2.83196E-05-3.83452E-03
 -1       433 3.78018E-02 8.81329E-05-3.10276E-05
 -1       434 3.78576E-02-2.43398E-05-3.80924E-03
 -1       435 4.01792E-02 8.93080E-05-3.04554E-05
 -1       436 4.03609E-02-7.49627E-06-3.77436E-03
 -1       437 4.24993E-02 6.53632E-05-3.10984E-05
 -1       438 4.30221E-02 1.79919E-05-3.81473E-03
 -1       439 4.48091E-02-2.21913E-05-4.37690E-05
 -1       440 4.59742E-02-8.75836E-05-4.08432E-03
 -1       441 1.63068E-03 7.18156E-12-9.74167E-06
 -1       442 2.63946E-03 5.14371E-12-2.91038E-03
 -1       443 3.93605E-03 2.06637E-11-2.90294E-05
 -1       444 4.58759E-03 1.80970E-11-3.58937E-03
 -1       445 6.40421E-03 3.80348E-11-3.23242E-05
 -1       446 6.70046E-03 3.55084E-11-3.79886E-03
 -1       447 8.85404E-03 5.78135E-11-3.30156E-05
 -1       448 8.96479E-03 5.55887E-11-3.81213E-03
 -1       449 1.12689E-02 7.88825E-11-3.24765E-05
 -1       450 1.13131E-02 7.70021E-11-3.79524E-03
 -1       451 1.36650E-02 1.00312E-10-3.21597E-05
 -1       452 1.36949E-02 9.87397E-11-3.78264E-03
 -1       453 1.60573E-02 1.21266E-10-3.20064E-05
 -1       454 1.60880E-02 1.20045E-10-3.77928E-03
 -1       455 1.84529E-02 1.41309E-10-3.19615E-05
 -1       456 1.84864E-02 1.40371E-10-3.78087E-03
 -1       457 2.08540E-02 1.60051E-10-3.19541E-05
 -1       458 2.08893E-02 1.59343E-10-3.78436E-03
 -1       459 2.32612E-02 1.77244E-10-3.19578E-05
 -1       460 2.32970E-02 1.76714E-10-3.78837E-03
 -1       461 2.56744E-02 1.92742E-10-3.19641E-05
 -1       462 2.57100E-02 1.92337E-10-3.79251E-03
 -1       463 2.80937E-02 2.06467E-10-3.19683E-05
 -1       464 2.81281E-02 2.06141E-10-3.79654E-03
 -1       465 3.05192E-02 2.18407E-10-3.19542E-05
 -1       466 3.05504E-02 2.18117E-10-3.79963E-03
 -1       467 3.29501E-02 2.28588E-10-3.18622E-05
 -1       468 3.29763E-02 2.28307E-10-3.79917E-03
 -1       469 3.53823E-02 2.37102E-10-3.15995E-05
 -1       470 3.54077E-02 2.36802E-10-3.78922E-03
 -1       471 3.78012E-02 2.44067E-10-3.09367E-05
 -1       472 3.78559E-02 2.43747E-10-3.76459E-03
 -1       473 4.01831E-02 2.49687E-10-3.04216E-05
 -1       474 4.03640E-02 2.49343E-10-3.73170E-03
 -1       475 4.25031E-02 2.54069E-10-3.10450E-05
 -1       476 4.30313E-02 2.53859E-10-3.78012E-03
 -1       477 4.47861E-02 2.57485E-10-4.39988E-05
 -1       478 4.59340E-02 2.57622E-10-4.03668E-03
 -1       479 1.63326E-03-1.43723E-04-1.00864E-05
 -1       480 2.64892E-03 1.18707E-05-2.95034E-03
 -1       481 3.93706E-03-1.18595E-04-2.92395E-05
 -1       482 4.58687E-03 5.99746E-05-3.64293E-03
 -1       483 6.40156E-03-8.66000E-05-3.24440E-05
 -1       484 6.69773E-03 5.78084E-05-3.84769E-03
 -1       485 8.85326E-03-7.95380E-05-3.31173E-05
 -1       486 8.96501E-03 4.31376E-05-3.85851E-03
 -1       487 1.12691E-02-7.95257E-05-3.25606E-05
 -1       488 1.13136E-02 3.60211E-05-3.84049E-03
 -1       489 1.36651E-02-8.03213E-05-3.22441E-05
 -1       490 1.36952E-02 3.36038E-05-3.82766E-03
 -1       491 1.60574E-02-8.12327E-05-3.20887E-05
 -1       492 1.60882E-02 3.27476E-05-3.82432E-03
 -1       493 1.84529E-02-8.20018E-05-3.20445E-05
 -1       494 1.84865E-02 3.22676E-05-3.82594E-03
 -1       495 2.08541E-02-8.26613E-05-3.20374E-05
 -1       496 2.08894E-02 3.17951E-05-3.82946E-03
 -1       497 2.32613E-02-8.32652E-05-3.20413E-05
 -1       498 2.32971E-02 3.12825E-05-3.83348E-03
 -1       499 2.56744E-02-8.38574E-05-3.20476E-05
 -1       500 2.57101E-02 3.07639E-05-3.83763E-03
 -1       501 2.80937E-02-8.44802E-05-3.20522E-05
 -1       502 2.81282E-02 3.02942E-05-3.84169E-03
 -1       503 3.05193E-02-8.52039E-05-3.20381E-05
 -1       504 3.05505E-02 2.99004E-05-3.84482E-03
 -1       505 3.29503E-02-8.60963E-05-3.19491E-05
 -1       506 3.29766E-02 2.95064E-05-3.84440E-03
 -1       507 3.53824E-02-8.72011E-05-3.16773E-05
 -1       508 3.54079E-02 2.83200E-05-3.83452E-03
 -1       509 3.78018E-02-8.81324E-05-3.10276E-05
 -1       510 3.78576E-02 2.43403E-05-3.80924E-03
 -1       511 4.01792E-02-8.93075E-05-3.04554E-05
 -1       512 4.03609E-02 7.49677E-06-3.77436E-03
 -1       513 4.24993E-02-6.53627E-05-3.10984E-05
 -1       514 4.30221E-02-1.79914E-05-3.81473E-03
 -1       515 4.48091E-02 2.21918E-05-4.37690E-05
 -1       516 4.59742E-02 8.75841E-05-4.08432E-03
 -1       517 1.64541E-03-2.92743E-04-1.11298E-05
 -1       518 2.68007E-03 5.18698E-05-3.08956E-03
 -1       519 3.93627E-03-2.26564E-04-2.94070E-05
 -1       520 4.57804E-03 1.50615E-04-3.81870E-03
 -1       521 6.39224E-03-1.67087E-04-3.26815E-05
 -1       522 6.69235E-03 1.33786E-04-4.00440E-03
 -1       523 8.85204E-03-1.54940E-04-3.31606E-05
 -1       524 8.96681E-03 1.05403E-04-4.00821E-03
 -1       525 1.12694E-02-1.54099E-04-3.26220E-05
 -1       526 1.13148E-02 9.21275E-05-3.98665E-03
 -1       527 1.36656E-02-1.55820E-04-3.22810E-05
 -1       528 1.36960E-02 8.73316E-05-3.97335E-03
 -1       529 1.60577E-02-1.57629E-04-3.21289E-05
 -1       530 1.60886E-02 8.56850E-05-3.97002E-03
 -1       531 1.84532E-02-1.59173E-04-3.20847E-05
 -1       532 1.84868E-02 8.47209E-05-3.97178E-03
 -1       533 2.08544E-02-1.60489E-04-3.20785E-05
 -1       534 2.08896E-02 8.37765E-05-3.97538E-03
 -1       535 2.32615E-02-1.61695E-04-3.20827E-05
 -1       536 2.32974E-02 8.27487E-05-3.97944E-03
 -1       537 2.56747E-02-1.62877E-04-3.20893E-05
 -1       538 2.57104E-02 8.17093E-05-3.98362E-03
 -1       539 2.80940E-02-1.64121E-04-3.20945E-05
 -1       540 2.81284E-02 8.07652E-05-3.98775E-03
 -1       541 3.05196E-02-1.65562E-04-3.20820E-05
 -1       542 3.05509E-02 7.99866E-05-3.99103E-03
 -1       543 3.29508E-02-1.67381E-04-3.19937E-05
 -1       544 3.29771E-02 7.91374E-05-3.99080E-03
 -1       545 3.53832E-02-1.69535E-04-3.17239E-05
 -1       546 3.54092E-02 7.71176E-05-3.98110E-03
 -1       547 3.78022E-02-1.71906E-04-3.10273E-05
 -1       548 3.78598E-02 6.79647E-05-3.95407E-03
 -1       549 4.01744E-02-1.69493E-04-3.05389E-05
 -1       550 4.03642E-02 4.35149E-05-3.91443E-03
 -1       551 4.24720E-02-1.39295E-04-3.06422E-05
 -1       552 4.29793E-02-2.50789E-05-3.92626E-03
 -1       553 4.48763E-02 4.36303E-05-4.41086E-05
 -1       554 4.60723E-02 1.36489E-04-4.22046E-03
 -1       555 1.66032E-03 2.94902E-04-4.06499E-04
 -1       556 3.96249E-03 2.29358E-04-6.48177E-04
 -1       557 6.41553E-03 1.71361E-04-7.15645E-04
 -1       558 8.86792E-03 1.60303E-04-7.14692E-04
 -1       559 1.12808E-02 1.60000E-04-7.03955E-04
 -1       560 1.36757E-02 1.61855E-04-6.97884E-04
 -1       561 1.60676E-02 1.63660E-04-6.95901E-04
 -1       562 1.84631E-02 1.65180E-04-6.95844E-04
 -1       563 2.08643E-02 1.66477E-04-6.96443E-04
 -1       564 2.32715E-02 1.67671E-04-6.97196E-04
 -1       565 2.56847E-02 1.68844E-04-6.97986E-04
 -1       566 2.81039E-02 1.70072E-04-6.98777E-04
 -1       567 3.05294E-02 1.71493E-04-6.99299E-04
 -1       568 3.29604E-02 1.73262E-04-6.98593E-04
 -1       569 3.53930E-02 1.75520E-04-6.94295E-04
 -1       570 3.78150E-02 1.77899E-04-6.82194E-04
 -1       571 4.01941E-02 1.77930E-04-6.63763E-04
 -1       572 4.25046E-02 1.44828E-04-6.69599E-04
 -1       573 4.49220E-02-2.26739E-05-8.76068E-04
 -1       574 1.64866E-03 1.45508E-04-3.96801E-04
 -1       575 3.96342E-03 1.20945E-04-6.37331E-04
 -1       576 6.42455E-03 8.96413E-05-7.06410E-04
 -1       577 8.86890E-03 8.31747E-05-7.07169E-04
 -1       578 1.12804E-02 8.34228E-05-6.97246E-04
 -1       579 1.36752E-02 8.42831E-05-6.91422E-04
 -1       580 1.60672E-02 8.51919E-05-6.89470E-04
 -1       581 1.84628E-02 8.59487E-05-6.89397E-04
 -1       582 2.08640E-02 8.65985E-05-6.89980E-04
 -1       583 2.32712E-02 8.71965E-05-6.90722E-04
 -1       584 2.56844E-02 8.77837E-05-6.91504E-04
 -1       585 2.81036E-02 8.83998E-05-6.92278E-04
 -1       586 3.05290E-02 8.91093E-05-6.92775E-04
 -1       587 3.29599E-02 8.99942E-05-6.92036E-04
 -1       588 3.53923E-02 9.10823E-05-6.87843E-04
 -1       589 3.78141E-02 9.22658E-05-6.76199E-04
 -1       590 4.01998E-02 9.38126E-05-6.59421E-04
 -1       591 4.25274E-02 7.09513E-05-6.68761E-04
 -1       592 4.48688E-02-1.49514E-05-8.64087E-04
 -1       593 1.64629E-03 7.07694E-12-3.92264E-04
 -1       594 3.96250E-03 2.06379E-11-6.32072E-04
 -1       595 6.42709E-03 3.78488E-11-7.01615E-04
 -1       596 8.86959E-03 5.75190E-11-7.02937E-04
 -1       597 1.12802E-02 7.85331E-11-6.93284E-04
 -1       598 1.36750E-02 9.99143E-11-6.87546E-04
 -1       599 1.60670E-02 1.20873E-10-6.85608E-04
 -1       600 1.84627E-02 1.40915E-10-6.85529E-04
 -1       601 2.08639E-02 1.59666E-10-6.86107E-04
 -1       602 2.32711E-02 1.76871E-10-6.86846E-04
 -1       603 2.56843E-02 1.92382E-10-6.87625E-04
 -1       604 2.81035E-02 2.06121E-10-6.88394E-04
 -1       605 3.05289E-02 2.18073E-10-6.88880E-04
 -1       606 3.29597E-02 2.28270E-10-6.88138E-04
 -1       607 3.53920E-02 2.36799E-10-6.83968E-04
 -1       608 3.78136E-02 2.43789E-10-6.72514E-04
 -1       609 4.02032E-02 2.49414E-10-6.56255E-04
 -1       610 4.25318E-02 2.53887E-10-6.66606E-04
 -1       611 4.48458E-02 2.57521E-10-8.58533E-04
 -1       612 1.64866E-03-1.45508E-04-3.96801E-04
 -1       613 3.96342E-03-1.20945E-04-6.37331E-04
 -1       614 6.42455E-03-8.96412E-05-7.06410E-04
 -1       615 8.86890E-03-8.31745E-05-7.07169E-04
 -1       616 1.12804E-02-8.34226E-05-6.97246E-04
 -1       617 1.36752E-02-8.42829E-05-6.91422E-04
 -1       618 1.60672E-02-8.51917E-05-6.89470E-04
 -1       619 1.84628E-02-8.59484E-05-6.89397E-04
 -1       620 2.08640E-02-8.65982E-05-6.89980E-04
 -1       621 2.32712E-02-8.71961E-05-6.90722E-04
 -1       622 2.56844E-02-8.77833E-05-6.91504E-04
 -1       623 2.81036E-02-8.83994E-05-6.92278E-04
 -1       624 3.05290E-02-8.91089E-05-6.92775E-04
 -1       625 3.29599E-02-8.99937E-05-6.92036E-04
 -1       626 3.53923E-02-9.10818E-05-6.87843E-04
 -1       627 3.78141E-02-9.22653E-05-6.76199E-04
 -1       628 4.01998E-02-9.38121E-05-6.59421E-04
 -1       629 4.25274E-02-7.09508E-05-6.68761E-04
 -1       630 4.48688E-02 1.49519E-05-8.64087E-04
 -1       631 1.66032E-03-2.94902E-04-4.06499E-04
 -1       632 3.96249E-03-2.29358E-04-6.48177E-04
 -1       633 6.41553E-03-1.71361E-04-7.15645E-04
 -1       634 8.86792E-03-1.60303E-04-7.14692E-04
 -1       635 1.12808E-02-1.59999E-04-7.03955E-04
 -1       636 1.36757E-02-1.61854E-04-6.97884E-04
 -1       637 1.60676E-02-1.63660E-04-6.95901E-04
 -1       638 1.84631E-02-1.65180E-04-6.95844E-04
 -1       639 2.08643E-02-1.66476E-04-6.96443E-04
 -1       640 2.32715E-02-1.67670E-04-6.97196E-04
 -1       641 2.56847E-02-1.68843E-04-6.97986E-04
 -1       642 2.81039E-02-1.70071E-04-6.98777E-04
 -1       643 3.05294E-02-1.71493E-04-6.99299E-04
 -1       644 3.29604E-02-1.73261E-04-6.98593E-04
 -1       645 3.53930E-02-1.75519E-04-6.94295E-04
 -1       646 3.78150E-02-1.77898E-04-6.82194E-04
 -1       647 4.01941E-02-1.77929E-04-6.63763E-04
 -1       648 4.25046E-02-1.44828E-04-6.69599E-04
 -1       649 4.49220E-02 2.26745E-05-8.76068E-04
 -1       650 1.69022E-03 3.01503E-04-8.20953E-04
 -1       651 4.01990E-03 2.36970E-04-1.27905E-03
 -1       652 6.46182E-03 1.83198E-04-1.39955E-03
 -1       653 8.89188E-03 1.75620E-04-1.39556E-03
 -1       654 1.12929E-02 1.76858E-04-1.37614E-03
 -1       655 1.36842E-02 1.79099E-04-1.36531E-03
 -1       656 1.60755E-02 1.80922E-04-1.36182E-03
 -1       657 1.84712E-02 1.82400E-04-1.36185E-03
 -1       658 2.08726E-02 1.83663E-04-1.36307E-03
 -1       659 2.32798E-02 1.84840E-04-1.36455E-03
 -1       660 2.56929E-02 1.85998E-04-1.36611E-03
 -1       661 2.81120E-02 1.87199E-04-1.36766E-03
 -1       662 3.05371E-02 1.88558E-04-1.36874E-03
 -1       663 3.29679E-02 1.90268E-04-1.36757E-03
 -1       664 3.54016E-02 1.92516E-04-1.35985E-03
 -1       665 3.78309E-02 1.95979E-04-1.33868E-03
 -1       666 4.02326E-02 1.98731E-04-1.30233E-03
 -1       667 4.25826E-02 1.71371E-04-1.31829E-03
 -1       668 4.49229E-02 8.49257E-06-1.62823E-03
 -1       669 1.68069E-03 1.51434E-04-7.95460E-04
 -1       670 4.02107E-03 1.27667E-04-1.24913E-03
 -1       671 6.47002E-03 9.85530E-05-1.37284E-03
 -1       672 8.89226E-03 9.38949E-05-1.37221E-03
 -1       673 1.12923E-02 9.49169E-05-1.35435E-03
 -1       674 1.36836E-02 9.59602E-05-1.34398E-03
 -1       675 1.60751E-02 9.68776E-05-1.34055E-03
 -1       676 1.84709E-02 9.76113E-05-1.34055E-03
 -1       677 2.08723E-02 9.82442E-05-1.34173E-03
 -1       678 2.32795E-02 9.88336E-05-1.34319E-03
 -1       679 2.56927E-02 9.94139E-05-1.34473E-03
 -1       680 2.81117E-02 1.00015E-04-1.34626E-03
 -1       681 3.05368E-02 1.00696E-04-1.34728E-03
 -1       682 3.29674E-02 1.01542E-04-1.34606E-03
 -1       683 3.54008E-02 1.02645E-04-1.33847E-03
 -1       684 3.78297E-02 1.04309E-04-1.31828E-03
 -1       685 4.02371E-02 1.07298E-04-1.28499E-03
 -1       686 4.26040E-02 8.73970E-05-1.30731E-03
 -1       687 4.48758E-02 3.92983E-06-1.60349E-03
 -1       688 1.67923E-03 6.92423E-12-7.83941E-04
 -1       689 4.02035E-03 2.04223E-11-1.23537E-03
 -1       690 6.47231E-03 3.76048E-11-1.36004E-03
 -1       691 8.89275E-03 5.72627E-11-1.36048E-03
 -1       692 1.12920E-02 7.82694E-11-1.34315E-03
 -1       693 1.36835E-02 9.96497E-11-1.33294E-03
 -1       694 1.60750E-02 1.20633E-10-1.32953E-03
 -1       695 1.84707E-02 1.40696E-10-1.32952E-03
 -1       696 2.08722E-02 1.59466E-10-1.33069E-03
 -1       697 2.32794E-02 1.76690E-10-1.33215E-03
 -1       698 2.56926E-02 1.92215E-10-1.33368E-03
 -1       699 2.81116E-02 2.05965E-10-1.33520E-03
 -1       700 3.05367E-02 2.17924E-10-1.33620E-03
 -1       701 3.29672E-02 2.28127E-10-1.33497E-03
 -1       702 3.54005E-02 2.36661E-10-1.32744E-03
 -1       703 3.78290E-02 2.43657E-10-1.30755E-03
 -1       704 4.02400E-02 2.49294E-10-1.27541E-03
 -1       705 4.26080E-02 2.53800E-10-1.29933E-03
 -1       706 4.48565E-02 2.57503E-10-1.59087E-03
 -1       707 1.68069E-03-1.51434E-04-7.95460E-04
 -1       708 4.02107E-03-1.27667E-04-1.24913E-03
 -1       709 6.47002E-03-9.85529E-05-1.37284E-03
 -1       710 8.89226E-03-9.38948E-05-1.37221E-03
 -1       711 1.12923E-02-9.49167E-05-1.35435E-03
 -1       712 1.36836E-02-9.59600E-05-1.34398E-03
 -1       713 1.60751E-02-9.68773E-05-1.34055E-03
 -1       714 1.84709E-02-9.76111E-05-1.34055E-03
 -1       715 2.08723E-02-9.82439E-05-1.34173E-03
 -1       716 2.32795E-02-9.88332E-05-1.34319E-03
 -1       717 2.56927E-02-9.94136E-05-1.34473E-03
 -1       718 2.81117E-02-1.00015E-04-1.34626E-03
 -1       719 3.05368E-02-1.00696E-04-1.34728E-03
 -1       720 3.29674E-02-1.01542E-04-1.34606E-03
 -1       721 3.54008E-02-1.02644E-04-1.33847E-03
 -1       722 3.78297E-02-1.04309E-04-1.31828E-03
 -1       723 4.02371E-02-1.07298E-04-1.28499E-03
 -1       724 4.26040E-02-8.73965E-05-1.30731E-03
 -1       725 4.48758E-02-3.92932E-06-1.60349E-03
 -1       726 1.69022E-03-3.01503E-04-8.20953E-04
 -1       727 4.01990E-03-2.36970E-04-1.27905E-03
 -1       728 6.46182E-03-1.83198E-04-1.39955E-03
 -1       729 8.89188E-03-1.75620E-04-1.39556E-03
 -1       730 1.12929E-02-1.76858E-04-1.37614E-03
 -1       731 1.36842E-02-1.79099E-04-1.36531E-03
 -1       732 1.60755E-02-1.80922E-04-1.36182E-03
 -1       733 1.84712E-02-1.82399E-04-1.36185E-03
 -1       734 2.08726E-02-1.83662E-04-1.36307E-03
 -1       735 2.32798E-02-1.84839E-04-1.36455E-03
 -1       736 2.56929E-02-1.85998E-04-1.36611E-03
 -1       737 2.81120E-02-1.87198E-04-1.36766E-03
 -1       738 3.05371E-02-1.88558E-04-1.36874E-03
 -1       739 3.29679E-02-1.90267E-04-1.36757E-03
 -1       740 3.54016E-02-1.92515E-04-1.35985E-03
 -1       741 3.78309E-02-1.95979E-04-1.33868E-03
 -1       742 4.02326E-02-1.98731E-04-1.30233E-03
 -1       743 4.25826E-02-1.71370E-04-1.31829E-03
 -1       744 4.49229E-02-8.49205E-06-1.62823E-03
 -1       745 1.74532E-03 3.11002E-04-1.27553E-03
 -1       746 4.11534E-03 2.46336E-04-1.93137E-03
 -1       747 6.52718E-03 2.00351E-04-2.08384E-03
 -1       748 8.91960E-03 1.98898E-04-2.07545E-03
 -1       749 1.13044E-02 2.02502E-04-2.05047E-03
 -1       750 1.36910E-02 2.05273E-04-2.03643E-03
 -1       751 1.60815E-02 2.07122E-04-2.03205E-03
 -1       752 1.84775E-02 2.08528E-04-2.03234E-03
 -1       753 2.08792E-02 2.09742E-04-2.03417E-03
 -1       754 2.32865E-02 2.10897E-04-2.03636E-03
 -1       755 2.56996E-02 2.12038E-04-2.03864E-03
 -1       756 2.81184E-02 2.13197E-04-2.04092E-03
 -1       757 3.05430E-02 2.14464E-04-2.04258E-03
 -1       758 3.29733E-02 2.16055E-04-2.04124E-03
 -1       759 3.54085E-02 2.18339E-04-2.03126E-03
 -1       760 3.78464E-02 2.23013E-04-2.00391E-03
 -1       761 4.02842E-02 2.30761E-04-1.95722E-03
 -1       762 4.26870E-02 2.13017E-04-1.96236E-03
 -1       763 4.50083E-02 5.72232E-05-2.33431E-03
 -1       764 1.74077E-03 1.60069E-04-1.21797E-03
 -1       765 4.11713E-03 1.36219E-04-1.86402E-03
 -1       766 6.53385E-03 1.11078E-04-2.02175E-03
 -1       767 8.91906E-03 1.09654E-04-2.01836E-03
 -1       768 1.13034E-02 1.11830E-04-1.99559E-03
 -1       769 1.36903E-02 1.13142E-04-1.98218E-03
 -1       770 1.60811E-02 1.14068E-04-1.97786E-03
 -1       771 1.84772E-02 1.14765E-04-1.97809E-03
 -1       772 2.08789E-02 1.15374E-04-1.97987E-03
 -1       773 2.32863E-02 1.15952E-04-1.98204E-03
 -1       774 2.56993E-02 1.16524E-04-1.98429E-03
 -1       775 2.81181E-02 1.17104E-04-1.98653E-03
 -1       776 3.05426E-02 1.17739E-04-1.98811E-03
 -1       777 3.29728E-02 1.18519E-04-1.98669E-03
 -1       778 3.54075E-02 1.19651E-04-1.97687E-03
 -1       779 3.78447E-02 1.21873E-04-1.95082E-03
 -1       780 4.02863E-02 1.27391E-04-1.90860E-03
 -1       781 4.27075E-02 1.12923E-04-1.92314E-03
 -1       782 4.49712E-02 3.15235E-05-2.28253E-03
 -1       783 1.74120E-03 6.70925E-12-1.19391E-03
 -1       784 4.11678E-03 2.00591E-11-1.83533E-03
 -1       785 6.53570E-03 3.72504E-11-1.99469E-03
 -1       786 8.91924E-03 5.69387E-11-1.99286E-03
 -1       787 1.13030E-02 7.79789E-11-1.97085E-03
 -1       788 1.36901E-02 9.93919E-11-1.95765E-03
 -1       789 1.60810E-02 1.20419E-10-1.95336E-03
 -1       790 1.84771E-02 1.40522E-10-1.95357E-03
 -1       791 2.08788E-02 1.59324E-10-1.95534E-03
 -1       792 2.32862E-02 1.76574E-10-1.95750E-03
 -1       793 2.56992E-02 1.92118E-10-1.95974E-03
 -1       794 2.81180E-02 2.05881E-10-1.96196E-03
 -1       795 3.05425E-02 2.17846E-10-1.96352E-03
 -1       796 3.29726E-02 2.28052E-10-1.96207E-03
 -1       797 3.54071E-02 2.36586E-10-1.95231E-03
 -1       798 3.78439E-02 2.43582E-10-1.92675E-03
 -1       799 4.02886E-02 2.49225E-10-1.88599E-03
 -1       800 4.27116E-02 2.53756E-10-1.90355E-03
 -1       801 4.49550E-02 2.57495E-10-2.25718E-03
 -1       802 1.74077E-03-1.60069E-04-1.21797E-03
 -1       803 4.11713E-03-1.36219E-04-1.86402E-03
 -1       804 6.53385E-03-1.11078E-04-2.02175E-03
 -1       805 8.91906E-03-1.09654E-04-2.01836E-03
 -1       806 1.13034E-02-1.11830E-04-1.99559E-03
 -1       807 1.36903E-02-1.13142E-04-1.98218E-03
 -1       808 1.60811E-02-1.14068E-04-1.97786E-03
 -1       809 1.84772E-02-1.14765E-04-1.97809E-03
 -1       810 2.08789E-02-1.15373E-04-1.97987E-03
 -1       811 2.32863E-02-1.15952E-04-1.98204E-03
 -1       812 2.56993E-02-1.16523E-04-1.98429E-03
 -1       813 2.81181E-02-1.17104E-04-1.98653E-03
 -1       814 3.05426E-02-1.17739E-04-1.98811E-03
 -1       815 3.29728E-02-1.18519E-04-1.98669E-03
 -1       816 3.54075E-02-1.19650E-04-1.97687E-03
 -1       817 3.78447E-02-1.21873E-04-1.95082E-03
 -1       818 4.02863E-02-1.27391E-04-1.90860E-03
 -1       819 4.27075E-02-1.12923E-04-1.92314E-03
 -1       820 4.49712E-02-3.15230E-05-2.28253E-03
 -1       821 1.74532E-03-3.11002E-04-1.27553E-03
 -1       822 4.11534E-03-2.46336E-04-1.93137E-03
 -1       823 6.52718E-03-2.00351E-04-2.08384E-03
 -1       824 8.91960E-03-1.98898E-04-2.07545E-03
 -1       825 1.13044E-02-2.02502E-04-2.05047E-03
 -1       826 1.36910E-02-2.05273E-04-2.03643E-03
 -1       827 1.60815E-02-2.07122E-04-2.03205E-03
 -1       828 1.84775E-02-2.08528E-04-2.03234E-03
 -1       829 2.08792E-02-2.09742E-04-2.03417E-03
 -1       830 2.32865E-02-2.10897E-04-2.03636E-03
 -1       831 2.56996E-02-2.12038E-04-2.03864E-03
 -1       832 2.81184E-02-2.13196E-04-2.04092E-03
 -1       833 3.05430E-02-2.14464E-04-2.04258E-03
 -1       834 3.29733E-02-2.16055E-04-2.04124E-03
 -1       835 3.54085E-02-2.18338E-04-2.03126E-03
 -1       836 3.78464E-02-2.23013E-04-2.00391E-03
 -1       837 4.02842E-02-2.30761E-04-1.95722E-03
 -1       838 4.26870E-02-2.13017E-04-1.96236E-03
 -1       839 4.50083E-02-5.72227E-05-2.33431E-03
 -1       840 1.84975E-03 3.12664E-04-1.79498E-03
 -1       841 4.25956E-03 2.41214E-04-2.60529E-03
 -1       842 6.60039E-03 2.08279E-04-2.76173E-03
 -1       843 8.94467E-03 2.15845E-04-2.75215E-03
 -1       844 1.13136E-02 2.22185E-04-2.72547E-03
 -1       845 1.36953E-02 2.25601E-04-2.70996E-03
 -1       846 1.60856E-02 2.27443E-04-2.70546E-03
 -1       847 1.84821E-02 2.28744E-04-2.70615E-03
 -1       848 2.08842E-02 2.29892E-04-2.70860E-03
 -1       849 2.32917E-02 2.31019E-04-2.71146E-03
 -1       850 2.57047E-02 2.32139E-04-2.71442E-03
 -1       851 2.81232E-02 2.33245E-04-2.71737E-03
 -1       852 3.05471E-02 2.34387E-04-2.71960E-03
 -1       853 3.29764E-02 2.35792E-04-2.71848E-03
 -1       854 3.54127E-02 2.38133E-04-2.70751E-03
 -1       855 3.78590E-02 2.43876E-04-2.67750E-03
 -1       856 4.03300E-02 2.58209E-04-2.62926E-03
 -1       857 4.28215E-02 2.57189E-04-2.61315E-03
 -1       858 4.52227E-02 1.05412E-04-2.99778E-03
 -1       859 1.85480E-03 1.59557E-04-1.68068E-03
 -1       860 4.26163E-03 1.31170E-04-2.47452E-03
 -1       861 6.60501E-03 1.13146E-04-2.63965E-03
 -1       862 8.94311E-03 1.16250E-04-2.63630E-03
 -1       863 1.13123E-02 1.19850E-04-2.61241E-03
 -1       864 1.36946E-02 1.21488E-04-2.59758E-03
 -1       865 1.60852E-02 1.22408E-04-2.59313E-03
 -1       866 1.84818E-02 1.23051E-04-2.59374E-03
 -1       867 2.08839E-02 1.23625E-04-2.59613E-03
 -1       868 2.32914E-02 1.24189E-04-2.59895E-03
 -1       869 2.57044E-02 1.24750E-04-2.60187E-03
 -1       870 2.81229E-02 1.25303E-04-2.60477E-03
 -1       871 3.05468E-02 1.25874E-04-2.60690E-03
 -1       872 3.29760E-02 1.26555E-04-2.60566E-03
 -1       873 3.54114E-02 1.27724E-04-2.59478E-03
 -1       874 3.78566E-02 1.30451E-04-2.56642E-03
 -1       875 4.03297E-02 1.39450E-04-2.52318E-03
 -1       876 4.28408E-02 1.33759E-04-2.52165E-03
 -1       877 4.51933E-02 5.17411E-05-2.89709E-03
 -1       878 1.85711E-03 6.40213E-12-1.64124E-03
 -1       879 4.26167E-03 1.95623E-11-2.42789E-03
 -1       880 6.60631E-03 3.67772E-11-2.59527E-03
 -1       881 8.94301E-03 5.65414E-11-2.59399E-03
 -1       882 1.13117E-02 7.76592E-11-2.57100E-03
 -1       883 1.36944E-02 9.91430E-11-2.55643E-03
 -1       884 1.60851E-02 1.20238E-10-2.55201E-03
 -1       885 1.84817E-02 1.40398E-10-2.55259E-03
 -1       886 2.08838E-02 1.59247E-10-2.55496E-03
 -1       887 2.32913E-02 1.76531E-10-2.55777E-03
 -1       888 2.57044E-02 1.92098E-10-2.56068E-03
 -1       889 2.81228E-02 2.05874E-10-2.56356E-03
 -1       890 3.05467E-02 2.17845E-10-2.56565E-03
 -1       891 3.29758E-02 2.28050E-10-2.56437E-03
 -1       892 3.54111E-02 2.36578E-10-2.55356E-03
 -1       893 3.78555E-02 2.43566E-10-2.52575E-03
 -1       894 4.03312E-02 2.49206E-10-2.48425E-03
 -1       895 4.28454E-02 2.53750E-10-2.48746E-03
 -1       896 4.51775E-02 2.57508E-10-2.85637E-03
 -1       897 1.85480E-03-1.59557E-04-1.68068E-03
 -1       898 4.26163E-03-1.31170E-04-2.47452E-03
 -1       899 6.60501E-03-1.13146E-04-2.63965E-03
 -1       900 8.94311E-03-1.16250E-04-2.63630E-03
 -1       901 1.13123E-02-1.19850E-04-2.61241E-03
 -1       902 1.36946E-02-1.21487E-04-2.59758E-03
 -1       903 1.60852E-02-1.22408E-04-2.59313E-03
 -1       904 1.84818E-02-1.23051E-04-2.59374E-03
 -1       905 2.08839E-02-1.23625E-04-2.59613E-03
 -1       906 2.32914E-02-1.24189E-04-2.59895E-03
 -1       907 2.57044E-02-1.24750E-04-2.60187E-03
 -1       908 2.81229E-02-1.25303E-04-2.60477E-03
 -1       909 3.05468E-02-1.25874E-04-2.60690E-03
 -1       910 3.29760E-02-1.26555E-04-2.60566E-03
 -1       911 3.54114E-02-1.27723E-04-2.59478E-03
 -1       912 3.78566E-02-1.30451E-04-2.56642E-03
 -1       913 4.03297E-02-1.39450E-04-2.52318E-03
 -1       914 4.28408E-02-1.33759E-04-2.52165E-03
 -1       915 4.51933E-02-5.17406E-05-2.89709E-03
 -1       916 1.84975E-03-3.12664E-04-1.79498E-03
 -1       917 4.25956E-03-2.41214E-04-2.60529E-03
 -1       918 6.60039E-03-2.08278E-04-2.76173E-03
 -1       919 8.94467E-03-2.15845E-04-2.75215E-03
 -1       920 1.13136E-02-2.22185E-04-2.72547E-03
 -1       921 1.36953E-02-2.25601E-04-2.70996E-03
 -1       922 1.60856E-02-2.27443E-04-2.70546E-03
 -1       923 1.84821E-02-2.28743E-04-2.70615E-03
 -1       924 2.08842E-02-2.29892E-04-2.70860E-03
 -1       925 2.32917E-02-2.31019E-04-2.71146E-03
 -1       926 2.57047E-02-2.32139E-04-2.71442E-03
 -1       927 2.81232E-02-2.33244E-04-2.71737E-03
 -1       928 3.05471E-02-2.34386E-04-2.71960E-03
 -1       929 3.29764E-02-2.35791E-04-2.71848E-03
 -1       930 3.54127E-02-2.38132E-04-2.70751E-03
 -1       931 3.78590E-02-2.43876E-04-2.67750E-03
 -1       932 4.03300E-02-2.58209E-04-2.62926E-03
 -1       933 4.28215E-02-2.57188E-04-2.61315E-03
 -1       934 4.52227E-02-1.05412E-04-2.99778E-03
 -1       935 2.07981E-03 2.54419E-04-2.39244E-03
 -1       936 4.45326E-03 1.58716E-04-3.26187E-03
 -1       937 6.65585E-03 1.50537E-04-3.40478E-03
 -1       938 8.96359E-03 1.67828E-04-3.40475E-03
 -1       939 1.13175E-02 1.77469E-04-3.37817E-03
 -1       940 1.36970E-02 1.81550E-04-3.36344E-03
 -1       941 1.60879E-02 1.83336E-04-3.35934E-03
 -1       942 1.84852E-02 1.84486E-04-3.36056E-03
 -1       943 2.08876E-02 1.85549E-04-3.36360E-03
 -1       944 2.32953E-02 1.86639E-04-3.36708E-03
 -1       945 2.57083E-02 1.87729E-04-3.37067E-03
 -1       946 2.81265E-02 1.88768E-04-3.37423E-03
 -1       947 3.05496E-02 1.89746E-04-3.37703E-03
 -1       948 3.29776E-02 1.90905E-04-3.37629E-03
 -1       949 3.54128E-02 1.93171E-04-3.36581E-03
 -1       950 3.78656E-02 2.00396E-04-3.33553E-03
 -1       951 4.03557E-02 2.19909E-04-3.29308E-03
 -1       952 4.29466E-02 2.51505E-04-3.27241E-03
 -1       953 4.56034E-02 7.86889E-05-3.61106E-03
 -1       954 2.08693E-03 1.02593E-04-2.21846E-03
 -1       955 4.45484E-03 6.62412E-05-3.06800E-03
 -1       956 6.65927E-03 5.84638E-05-3.22275E-03
 -1       957 8.96135E-03 6.71021E-05-3.22997E-03
 -1       958 1.13160E-02 7.23312E-05-3.20644E-03
 -1       959 1.36963E-02 7.43387E-05-3.19237E-03
 -1       960 1.60875E-02 7.52298E-05-3.18827E-03
 -1       961 1.84849E-02 7.57977E-05-3.18939E-03
 -1       962 2.08874E-02 7.63253E-05-3.19236E-03
 -1       963 2.32950E-02 7.68676E-05-3.19579E-03
 -1       964 2.57080E-02 7.74110E-05-3.19934E-03
 -1       965 2.81262E-02 7.79269E-05-3.20284E-03
 -1       966 3.05493E-02 7.84139E-05-3.20550E-03
 -1       967 3.29772E-02 7.89649E-05-3.20463E-03
 -1       968 3.54116E-02 8.01358E-05-3.19407E-03
 -1       969 3.78626E-02 8.34580E-05-3.16570E-03
 -1       970 4.03539E-02 9.60272E-05-3.12801E-03
 -1       971 4.29675E-02 1.04997E-04-3.12779E-03
 -1       972 4.55673E-02 1.35657E-05-3.46325E-03
 -1       973 2.08725E-03 5.93157E-12-2.18597E-03
 -1       974 4.45481E-03 1.89115E-11-3.02169E-03
 -1       975 6.66087E-03 3.61910E-11-3.18057E-03
 -1       976 8.96100E-03 5.60823E-11-3.18993E-03
 -1       977 1.13154E-02 7.73254E-11-3.16748E-03
 -1       978 1.36960E-02 9.89179E-11-3.15366E-03
 -1       979 1.60874E-02 1.20106E-10-3.14957E-03
 -1       980 1.84848E-02 1.40342E-10-3.15067E-03
 -1       981 2.08873E-02 1.59248E-10-3.15361E-03
 -1       982 2.32949E-02 1.76573E-10-3.15703E-03
 -1       983 2.57079E-02 1.92167E-10-3.16057E-03
 -1       984 2.81262E-02 2.05957E-10-3.16405E-03
 -1       985 3.05492E-02 2.17932E-10-3.16667E-03
 -1       986 3.29770E-02 2.28132E-10-3.16574E-03
 -1       987 3.54113E-02 2.36648E-10-3.15522E-03
 -1       988 3.78612E-02 2.43619E-10-3.12746E-03
 -1       989 4.03556E-02 2.49243E-10-3.09149E-03
 -1       990 4.29736E-02 2.53786E-10-3.09886E-03
 -1       991 4.55448E-02 2.57550E-10-3.42050E-03
 -1       992 2.08693E-03-1.02593E-04-2.21846E-03
 -1       993 4.45484E-03-6.62411E-05-3.06800E-03
 -1       994 6.65927E-03-5.84637E-05-3.22275E-03
 -1       995 8.96135E-03-6.71020E-05-3.22997E-03
 -1       996 1.13160E-02-7.23310E-05-3.20644E-03
 -1       997 1.36963E-02-7.43385E-05-3.19237E-03
 -1       998 1.60875E-02-7.52295E-05-3.18827E-03
 -1       999 1.84849E-02-7.57974E-05-3.18939E-03
 -1      1000 2.08874E-02-7.63250E-05-3.19236E-03
 -1      1001 2.32950E-02-7.68672E-05-3.19579E-03
 -1      1002 2.57080E-02-7.74106E-05-3.19934E-03
 -1      1003 2.81262E-02-7.79265E-05-3.20284E-03
 -1      1004 3.05493E-02-7.84135E-05-3.20550E-03
 -1      1005 3.29772E-02-7.89644E-05-3.20463E-03
 -1      1006 3.54116E-02-8.01353E-05-3.19407E-03
 -1      1007 3.78626E-02-8.34575E-05-3.16570E-03
 -1      1008 4.03539E-02-9.60267E-05-3.12801E-03
 -1      1009 4.29675E-02-1.04997E-04-3.12779E-03
 -1      1010 4.55673E-02-1.35652E-05-3.46325E-03
 -1      1011 2.07981E-03-2.54419E-04-2.39244E-03
 -1      1012 4.45326E-03-1.58716E-04-3.26187E-03
 -1      1013 6.65585E-03-1.50537E-04-3.40478E-03
 -1      1014 8.96359E-03-1.67828E-04-3.40475E-03
 -1      1015 1.13175E-02-1.77469E-04-3.37817E-03
 -1      1016 1.36970E-02-1.81550E-04-3.36344E-03
 -1      1017 1.60879E-02-1.83336E-04-3.35934E-03
 -1      1018 1.84852E-02-1.84486E-04-3.36056E-03
 -1      1019 2.08876E-02-1.85549E-04-3.36360E-03
 -1      1020 2.32953E-02-1.86638E-04-3.36708E-03
 -1      1021 2.57083E-02-1.87729E-04-3.37067E-03
 -1      1022 2.81265E-02-1.88768E-04-3.37423E-03
 -1      1023 3.05496E-02-1.89746E-04-3.37703E-03
 -1      1024 3.29776E-02-1.90905E-04-3.37629E-03
 -1      1025 3.54128E-02-1.93170E-04-3.36581E-03
 -1      1026 3.78656E-02-2.00396E-04-3.33553E-03
 -1      1027 4.03557E-02-2.19909E-04-3.29308E-03
 -1      1028 4.29466E-02-2.51504E-04-3.27241E-03
 -1      1029 4.56034E-02-7.86884E-05-3.61106E-03
 -1      1030 0.00000E+00 0.00000E+00 0.00000E+00
 -1      1031 0.00000E+00 0.00000E+00 0.00000E+00
 -1      1032 0.00000E+00 0.00000E+00 0.00000E+00
 -1      1033 0.00000E+00 0.00000E+00 0.00000E+00
 -1      1034 0.00000E+00 0.00000E+00 0.00000E+00
 -1      1035 0.00000E+00 0.00000E+00 0.00000E+00
 -1      1036 0.00000E+00 0.00000E+00 0.00000E+00
 -1      1037 0.00000E+00 0.00000E+00 0.00000E+00
 -1      1038 0.00000E+00 0.00000E+00 0.00000E+00
 -1      1039 0.00000E+00 0.00000E+00 0.00000E+00
 -1      1040 0.00000E+00 0.00000E+00 0.00000E+00
 -1      1041 0.00000E+00 0.00000E+00 0.00000E+00
 -1      1042 0.00000E+00 0.00000E+00 0.00000E+00
 -1      1043 0.00000E+00 0.00000E+00 0.00000E+00
 -1      1044 0.00000E+00 0.00000E+00 0.00000E+00
 -1      1045 0.00000E+00 0.00000E+00 0.00000E+00
 -1      1046 0.00000E+00 0.00000E+00 0.00000E+00
 -1      1047 0.00000E+00 0.00000E+00 0.00000E+00
 -1      1048 0.00000E+00 0.00000E+00 0.00000E+00
 -1      1049 0.00000E+00 0.00000E+00 0.00000E+00
 -1      1050 0.00000E+00 0.00000E+00 0.00000E+00
 -1      1051 0.00000E+00 0.00000E+00 0.00000E+00
 -1      1052 0.00000E+00 0.00000E+00 0.00000E+00
 -1      1053 0.00000E+00 0.00000E+00 0.00000E+00
 -1      1054 0.00000E+00 0.00000E+00 0.00000E+00
 -1      1055 0.00000E+00 0.00000E+00 0.00000E+00
 -1      1056-9.34285E-08-7.34613E-08-6.66274E-08
 -1      1057 2.53271E-08-3.85616E-09-9.00640E-09
 -1      1058-9.18185E-08-6.00134E-08-4.74860E-08
 -1      1059 2.42749E-08-8.65248E-10-8.72455E-09
 -1      1060-1.00054E-07-5.61189E-08-5.34650E-08
 -1      1061 2.27343E-08 4.01570E-10-8.20601E-09
 -1      1062-1.13145E-07-4.95450E-08-6.25759E-08
 -1      1063 2.13377E-08 7.64858E-10-7.53913E-09
 -1      1064-1.26488E-07-3.73673E-08-7.15864E-08
 -1      1065 2.02679E-08 6.88754E-10-6.95553E-09
 -1      1066-1.36167E-07-2.01308E-08-7.79218E-08
 -1      1067 1.96043E-08 3.91581E-10-6.55429E-09
 -1      1068-1.39677E-07 1.03914E-16-8.01884E-08
 -1      1069 1.93802E-08-5.00123E-17-6.41170E-09
 -1      1070-1.36167E-07 2.01308E-08-7.79218E-08
 -1      1071 1.96043E-08-3.91581E-10-6.55429E-09
 -1      1072-1.26488E-07 3.73673E-08-7.15864E-08
 -1      1073 2.02679E-08-6.88754E-10-6.95553E-09
 -1      1074-1.13145E-07 4.95450E-08-6.25759E-08
 -1      1075 2.13377E-08-7.64858E-10-7.53913E-09
 -1      1076-1.00054E-07 5.61189E-08-5.34650E-08
 -1      1077 2.27343E-08-4.01570E-10-8.20601E-09
 -1      1078-9.18185E-08 6.00134E-08-4.74860E-08
 -1      1079 2.42749E-08 8.65248E-10-8.72455E-09
 -1      1080-9.34285E-08 7.34613E-08-6.66274E-08
 -1      1081 2.53271E-08 3.85616E-09-9.00640E-09
 -1      1082-1.45871E-07-9.82703E-08-8.01195E-08
 -1      1083 4.70253E-08-5.49066E-10-1.02683E-08
 -1      1084-1.44970E-07-9.70641E-08-7.54284E-08
 -1      1085 4.43171E-08 4.47000E-10-1.12051E-08
 -1      1086-1.57874E-07-9.03068E-08-8.64698E-08
 -1      1087 4.14279E-08 1.26532E-09-1.02494E-08
 -1      1088-1.78320E-07-7.84361E-08-1.05036E-07
 -1      1089 3.87908E-08 1.47386E-09-9.09191E-09
 -1      1090-1.98997E-07-5.85287E-08-1.22866E-07
 -1      1091 3.67166E-08 1.21768E-09-8.01501E-09
 -1      1092-2.13919E-07-3.13381E-08-1.35346E-07
 -1      1093 3.54066E-08 6.75630E-10-7.25947E-09
 -1      1094-2.19306E-07 1.17948E-16-1.39778E-07
 -1      1095 3.49605E-08-8.27264E-17-6.98747E-09
 -1      1096-2.13919E-07 3.13381E-08-1.35346E-07
 -1      1097 3.54066E-08-6.75630E-10-7.25947E-09
 -1      1098-1.98997E-07 5.85287E-08-1.22866E-07
 -1      1099 3.67166E-08-1.21768E-09-8.01501E-09
 -1      1100-1.78320E-07 7.84361E-08-1.05036E-07
 -1      1101 3.87908E-08-1.47386E-09-9.09191E-09
 -1      1102-1.57874E-07 9.03068E-08-8.64698E-08
 -1      1103 4.14279E-08-1.26532E-09-1.02494E-08
 -1      1104-1.44970E-07 9.70641E-08-7.54284E-08
 -1      1105 4.43171E-08-4.47000E-10-1.12051E-08
 -1      1106-1.45871E-07 9.82703E-08-8.01195E-08
 -1      1107 4.70253E-08 5.49066E-10-1.02683E-08
 -1      1108-1.69223E-07-9.85622E-08-6.69423E-08
 -1      1109 6.34617E-08 2.71098E-09-7.78378E-09
 -1      1110-1.66994E-07-1.02016E-07-8.19045E-08
 -1      1111 5.94205E-08 2.88540E-09-9.13319E-09
 -1      1112-1.82249E-07-9.80634E-08-1.04230E-07
 -1      1113 5.54506E-08 2.87168E-09-8.57405E-09
 -1      1114-2.06267E-07-8.53972E-08-1.31529E-07
 -1      1115 5.17977E-08 2.62023E-09-7.35960E-09
 -1      1116-2.30541E-07-6.34789E-08-1.57149E-07
 -1      1117 4.88686E-08 1.99521E-09-6.10886E-09
 -1      1118-2.47737E-07-3.38081E-08-1.74660E-07
 -1      1119 4.69804E-08 1.07412E-09-5.18337E-09
 -1      1120-2.53837E-07 6.58359E-17-1.80779E-07
 -1      1121 4.63256E-08-1.02708E-16-4.84303E-09
 -1      1122-2.47737E-07 3.38081E-08-1.74660E-07
 -1      1123 4.69804E-08-1.07412E-09-5.18337E-09
 -1      1124-2.30541E-07 6.34789E-08-1.57149E-07
 -1      1125 4.88686E-08-1.99521E-09-6.10886E-09
 -1      1126-2.06267E-07 8.53972E-08-1.31529E-07
 -1      1127 5.17977E-08-2.62023E-09-7.35960E-09
 -1      1128-1.82249E-07 9.80633E-08-1.04230E-07
 -1      1129 5.54506E-08-2.87168E-09-8.57405E-09
 -1      1130-1.66994E-07 1.02016E-07-8.19045E-08
 -1      1131 5.94205E-08-2.88540E-09-9.13319E-09
 -1      1132-1.69223E-07 9.85622E-08-6.69423E-08
 -1      1133 6.34617E-08-2.71098E-09-7.78378E-09
 -1      1134-1.64246E-07-7.44629E-08-4.57262E-08
 -1      1135 7.44888E-08 5.25820E-09-4.69522E-09
 -1      1136-1.61663E-07-7.93453E-08-7.76908E-08
 -1      1137 6.99799E-08 5.07516E-09-6.05255E-09
 -1      1138-1.74939E-07-7.81972E-08-1.10323E-07
 -1      1139 6.54160E-08 4.66407E-09-5.99178E-09
 -1      1140-1.97519E-07-6.90893E-08-1.45339E-07
 -1      1141 6.12929E-08 3.96380E-09-5.11226E-09
 -1      1142-2.20437E-07-5.12300E-08-1.76646E-07
 -1      1143 5.80020E-08 2.89114E-09-4.00820E-09
 -1      1144-2.35698E-07-2.69902E-08-1.97080E-07
 -1      1145 5.58011E-08 1.51956E-09-3.12910E-09
 -1      1146-2.40776E-07-6.64056E-17-2.03984E-07
 -1      1147 5.50176E-08-1.14216E-16-2.80755E-09
 -1      1148-2.35698E-07 2.69902E-08-1.97080E-07
 -1      1149 5.58011E-08-1.51956E-09-3.12910E-09
 -1      1150-2.20437E-07 5.12300E-08-1.76646E-07
 -1      1151 5.80020E-08-2.89114E-09-4.00820E-09
 -1      1152-1.97519E-07 6.90893E-08-1.45339E-07
 -1      1153 6.12929E-08-3.96380E-09-5.11226E-09
 -1      1154-1.74939E-07 7.81972E-08-1.10323E-07
 -1      1155 6.54160E-08-4.66407E-09-5.99178E-09
 -1      1156-1.61663E-07 7.93453E-08-7.76908E-08
 -1      1157 6.99799E-08-5.07516E-09-6.05255E-09
 -1      1158-1.64246E-07 7.44629E-08-4.57262E-08
 -1      1159 7.44888E-08-5.25820E-09-4.69522E-09
 -1      1160-1.39417E-07-3.22848E-08-3.03654E-08
 -1      1161 8.24658E-08 6.93467E-09-2.83943E-09
 -1      1162-1.36535E-07-3.50530E-08-7.21613E-08
 -1      1163 7.81013E-08 6.63775E-09-4.09312E-09
 -1      1164-1.39976E-07-3.54028E-08-1.10673E-07
 -1      1165 7.32725E-08 5.94799E-09-4.33398E-09
 -1      1166-1.52095E-07-3.17501E-08-1.50007E-07
 -1      1167 6.87249E-08 4.83331E-09-3.49225E-09
 -1      1168-1.65256E-07-2.30797E-08-1.83718E-07
 -1      1169 6.51072E-08 3.41274E-09-2.30012E-09
 -1      1170-1.71456E-07-1.17417E-08-2.04439E-07
 -1      1171 6.27724E-08 1.76144E-09-1.49260E-09
 -1      1172-1.73279E-07-2.32868E-16-2.11126E-07
 -1      1173 6.19259E-08-1.21441E-16-1.22734E-09
 -1      1174-1.71456E-07 1.17417E-08-2.04439E-07
 -1      1175 6.27724E-08-1.76144E-09-1.49260E-09
 -1      1176-1.65256E-07 2.30797E-08-1.83718E-07
 -1      1177 6.51072E-08-3.41274E-09-2.30012E-09
 -1      1178-1.52095E-07 3.17501E-08-1.50007E-07
 -1      1179 6.87249E-08-4.83331E-09-3.49225E-09
 -1      1180-1.39976E-07 3.54028E-08-1.10673E-07
 -1      1181 7.32725E-08-5.94799E-09-4.33398E-09
 -1      1182-1.36535E-07 3.50530E-08-7.21613E-08
 -1      1183 7.81013E-08-6.63775E-09-4.09312E-09
 -1      1184-1.39417E-07 3.22848E-08-3.03654E-08
 -1      1185 8.24658E-08-6.93467E-09-2.83943E-09
 -1      1186-1.14339E-07 1.57916E-08-2.57188E-08
 -1      1187 9.06204E-08 8.19141E-09-2.35454E-09
 -1      1188-1.07093E-07 1.45940E-08-7.06694E-08
 -1      1189 8.63004E-08 7.59784E-09-3.49791E-09
 -1      1190-9.22604E-08 1.45890E-08-1.11578E-07
 -1      1191 8.09571E-08 6.38219E-09-3.72012E-09
 -1      1192-7.71361E-08 1.40801E-08-1.52889E-07
 -1      1193 7.56687E-08 4.77004E-09-2.75256E-09
 -1      1194-6.49406E-08 1.08358E-08-1.86464E-07
 -1      1195 7.12927E-08 3.10217E-09-1.30432E-09
 -1      1196-5.80849E-08 5.58506E-09-2.06974E-07
 -1      1197 6.85221E-08 1.51625E-09-4.19478E-10
 -1      1198-5.60518E-08-3.99341E-16-2.13420E-07
 -1      1199 6.75988E-08-1.22779E-16-1.55741E-10
 -1      1200-5.80849E-08-5.58506E-09-2.06974E-07
 -1      1201 6.85221E-08-1.51625E-09-4.19478E-10
 -1      1202-6.49406E-08-1.08358E-08-1.86464E-07
 -1      1203 7.12927E-08-3.10217E-09-1.30432E-09
 -1      1204-7.71361E-08-1.40801E-08-1.52889E-07
 -1      1205 7.56687E-08-4.77004E-09-2.75256E-09
 -1      1206-9.22604E-08-1.45890E-08-1.11578E-07
 -1      1207 8.09571E-08-6.38219E-09-3.72012E-09
 -1      1208-1.07093E-07-1.45940E-08-7.06694E-08
 -1      1209 8.63004E-08-7.59784E-09-3.49791E-09
 -1      1210-1.14339E-07-1.57916E-08-2.57188E-08
 -1      1211 9.06204E-08-8.19141E-09-2.35454E-09
 -1      1212 0.00000E+00 0.00000E+00 0.00000E+00
 -1      1213 0.00000E+00 0.00000E+00 0.00000E+00
 -1      1214 0.00000E+00 0.00000E+00 0.00000E+00
 -1      1215 0.00000E+00 0.00000E+00 0.00000E+00
 -1      1216 0.00000E+00 0.00000E+00 0.00000E+00
 -1      1217 0.00000E+00 0.00000E+00 0.00000E+00
 -1      1218 0.00000E+00 0.00000E+00 0.00000E+00
 -1      1219 0.00000E+00 0.00000E+00 0.00000E+00
 -1      1220 0.00000E+00 0.00000E+00 0.00000E+00
 -1      1221 0.00000E+00 0.00000E+00 0.00000E+00
 -1      1222 0.00000E+00 0.00000E+00 0.00000E+00
 -1      1223 0.00000E+00 0.00000E+00 0.00000E+00
 -1      1224 0.00000E+00 0.00000E+00 0.00000E+00
 -1      1225 0.00000E+00 0.00000E+00 0.00000E+00
 -1      1226 0.00000E+00 0.00000E+00 0.00000E+00
 -1      1227 0.00000E+00 0.00000E+00 0.00000E+00
 -1      1228 0.00000E+00 0.00000E+00 0.00000E+00
 -1      1229 0.00000E+00 0.00000E+00 0.00000E+00
 -1      1230 0.00000E+00 0.00000E+00 0.00000E+00
 -1      1231 0.00000E+00 0.00000E+00 0.00000E+00
 -1      1232 0.00000E+00 0.00000E+00 0.00000E+00
 -1      1233 0.00000E+00 0.00000E+00 0.00000E+00
 -1      1234 0.00000E+00 0.00000E+00 0.00000E+00
 -1      1235 0.00000E+00 0.00000E+00 0.00000E+00
 -1      1236 0.00000E+00 0.00000E+00 0.00000E+00
 -1      1237 0.00000E+00 0.00000E+00 0.00000E+00
 -1      1238 0.00000E+00 0.00000E+00 0.00000E+00
 -1      1239 0.00000E+00 0.00000E+00 0.00000E+00
 -1      1240 0.00000E+00 0.00000E+00 0.00000E+00
 -1      1241 0.00000E+00 0.00000E+00 0.00000E+00
 -1      1242 0.00000E+00 0.00000E+00 0.00000E+00
 -1      1243 0.00000E+00 0.00000E+00 0.00000E+00
 -1      1244 0.00000E+00 0.00000E+00 0.00000E+00
 -1      1245 0.00000E+00 0.00000E+00 0.00000E+00
 -1      1246 0.00000E+00 0.00000E+00 0.00000E+00
 -1      1247 0.00000E+00 0.00000E+00 0.00000E+00
 -1      1248 0.00000E+00 0.00000E+00 0.00000E+00
 -1      1249 0.00000E+00 0.00000E+00 0.00000E+00
 -1      1250 0.00000E+00 0.00000E+00 0.00000E+00
 -1      1251 0.00000E+00 0.00000E+00 0.00000E+00
 -1      1252 0.00000E+00 0.00000E+00 0.00000E+00
 -1      1253 0.00000E+00 0.00000E+00 0.00000E+00
 -1      1254 0.00000E+00 0.00000E+00 0.00000E+00
 -1      1255 0.00000E+00 0.00000E+00 0.00000E+00
 -1      1256 0.00000E+00 0.00000E+00 0.00000E+00
 -1      1257 0.00000E+00 0.00000E+00 0.00000E+00
 -1      1258-8.39027E-08-9.83145E-08-6.36858E-08
 -1      1259-8.39027E-08 9.83145E-08-6.36858E-08
 -1      1260-7.93653E-08-1.66701E-07-1.11768E-07
 -1      1261-7.93653E-08 1.66701E-07-1.11768E-07
 -1      1262-5.00329E-08-2.14631E-07-1.43077E-07
 -1      1263-5.00329E-08 2.14631E-07-1.43077E-07
 -1      1264-2.29594E-08-2.36117E-07-1.56717E-07
 -1      1265-2.29594E-08 2.36117E-07-1.56717E-07
 -1      1266-7.12156E-09-2.41686E-07-1.59511E-07
 -1      1267-7.12156E-09 2.41686E-07-1.59511E-07
 -1      1268-3.78998E-10-2.41697E-07-1.59022E-07
 -1      1269-3.78998E-10 2.41697E-07-1.59022E-07
 -1      1270 2.01449E-09-2.40909E-07-1.58421E-07
 -1      1271 2.01449E-09 2.40909E-07-1.58421E-07
 -1      1272 2.97956E-09-2.40551E-07-1.58274E-07
 -1      1273 2.97956E-09 2.40551E-07-1.58274E-07
 -1      1274 3.58684E-09-2.40548E-07-1.58373E-07
 -1      1275 3.58684E-09 2.40548E-07-1.58373E-07
 -1      1276 4.08671E-09-2.40665E-07-1.58517E-07
 -1      1277 4.08671E-09 2.40665E-07-1.58517E-07
 -1      1278 4.54876E-09-2.40767E-07-1.58624E-07
 -1      1279 4.54876E-09 2.40767E-07-1.58624E-07
 -1      1280 5.09669E-09-2.40757E-07-1.58654E-07
 -1      1281 5.09669E-09 2.40757E-07-1.58654E-07
 -1      1282 5.94832E-09-2.40449E-07-1.58488E-07
 -1      1283 5.94832E-09 2.40449E-07-1.58488E-07
 -1      1284 7.24198E-09-2.39468E-07-1.57821E-07
 -1      1285 7.24198E-09 2.39468E-07-1.57821E-07
 -1      1286 8.42144E-09-2.37476E-07-1.56263E-07
 -1      1287 8.42144E-09 2.37476E-07-1.56263E-07
 -1      1288 7.52397E-09-2.35206E-07-1.54220E-07
 -1      1289 7.52397E-09 2.35206E-07-1.54220E-07
 -1      1290 3.14862E-09-2.36023E-07-1.54681E-07
 -1      1291 3.14862E-09 2.36023E-07-1.54681E-07
 -1      1292 2.93632E-09-2.44648E-07-1.62219E-07
 -1      1293 2.93632E-09 2.44648E-07-1.62219E-07
 -1      1294 2.92141E-08-2.53638E-07-1.71148E-07
 -1      1295 2.92141E-08 2.53638E-07-1.71148E-07
 -1      1296 8.32251E-08-2.19800E-07-1.48711E-07
 -1      1297 8.32251E-08 2.19800E-07-1.48711E-07
 -1      1298 1.05849E-07-1.19708E-07-7.78802E-08
 -1      1299 1.05849E-07 1.19708E-07-7.78802E-08
 -1      1300 7.50517E-08-4.10654E-08-2.30889E-08
 -1      1301 7.50517E-08 4.10654E-08-2.30889E-08
 -1      1302 3.78700E-08-8.58126E-09-1.60699E-09
 -1      1303 3.78700E-08 8.58126E-09-1.60699E-09
 -1      1304-1.44729E-07-1.50672E-07-8.77047E-08
 -1      1305-1.44729E-07 1.50672E-07-8.77047E-08
 -1      1306-1.26834E-07-2.54134E-07-1.50127E-07
 -1      1307-1.26834E-07 2.54134E-07-1.50127E-07
 -1      1308-8.16377E-08-3.29133E-07-1.93420E-07
 -1      1309-8.16377E-08 3.29133E-07-1.93420E-07
 -1      1310-3.84621E-08-3.61899E-07-2.09569E-07
 -1      1311-3.84621E-08 3.61899E-07-2.09569E-07
 -1      1312-1.27042E-08-3.70635E-07-2.11094E-07
 -1      1313-1.27042E-08 3.70635E-07-2.11094E-07
 -1      1314-1.00649E-09-3.70790E-07-2.09163E-07
 -1      1315-1.00650E-09 3.70790E-07-2.09163E-07
 -1      1316 3.66149E-09-3.69697E-07-2.07987E-07
 -1      1317 3.66149E-09 3.69697E-07-2.07987E-07
 -1      1318 5.77924E-09-3.69206E-07-2.07795E-07
 -1      1319 5.77924E-09 3.69206E-07-2.07795E-07
 -1      1320 7.09175E-09-3.69230E-07-2.08002E-07
 -1      1321 7.09175E-09 3.69230E-07-2.08002E-07
 -1      1322 8.09335E-09-3.69424E-07-2.08246E-07
 -1      1323 8.09335E-09 3.69424E-07-2.08246E-07
 -1      1324 8.96532E-09-3.69584E-07-2.08427E-07
 -1      1325 8.96532E-09 3.69584E-07-2.08427E-07
 -1      1326 9.93654E-09-3.69569E-07-2.08524E-07
 -1      1327 9.93654E-09 3.69569E-07-2.08524E-07
 -1      1328 1.13528E-08-3.69097E-07-2.08393E-07
 -1      1329 1.13528E-08 3.69097E-07-2.08393E-07
 -1      1330 1.34339E-08-3.67605E-07-2.07537E-07
 -1      1331 1.34339E-08 3.67605E-07-2.07537E-07
 -1      1332 1.54147E-08-3.64577E-07-2.05150E-07
 -1      1333 1.54147E-08 3.64577E-07-2.05150E-07
 -1      1334 1.45615E-08-3.61055E-07-2.01534E-07
 -1      1335 1.45615E-08 3.61055E-07-2.01534E-07
 -1      1336 8.97934E-09-3.61939E-07-2.01798E-07
 -1      1337 8.97934E-09 3.61939E-07-2.01798E-07
 -1      1338 9.91249E-09-3.74583E-07-2.15257E-07
 -1      1339 9.91249E-09 3.74583E-07-2.15257E-07
 -1      1340 5.01775E-08-3.89709E-07-2.34206E-07
 -1      1341 5.01775E-08 3.89709E-07-2.34206E-07
 -1      1342 1.31170E-07-3.39553E-07-2.04935E-07
 -1      1343 1.31170E-07 3.39553E-07-2.04935E-07
 -1      1344 1.65278E-07-1.82735E-07-1.00436E-07
 -1      1345 1.65278E-07 1.82735E-07-1.00436E-07
 -1      1346 1.19469E-07-6.19883E-08-2.12824E-08
 -1      1347 1.19469E-07 6.19883E-08-2.12824E-08
 -1      1348 6.65380E-08-1.37102E-08 3.38515E-09
 -1      1349 6.65380E-08 1.37102E-08 3.38515E-09
 -1      1350-1.71820E-07-1.62450E-07-8.91983E-08
 -1      1351-1.71820E-07 1.62450E-07-8.91983E-08
 -1      1352-1.46685E-07-2.78265E-07-1.48956E-07
 -1      1353-1.46685E-07 2.78265E-07-1.48956E-07
 -1      1354-9.49029E-08-3.61693E-07-1.92137E-07
 -1      1355-9.49029E-08 3.61693E-07-1.92137E-07
 -1      1356-4.64570E-08-3.97789E-07-2.05744E-07
 -1      1357-4.64570E-08 3.97789E-07-2.05744E-07
 -1      1358-1.65160E-08-4.07463E-07-2.04161E-07
 -1      1359-1.65160E-08 4.07463E-07-2.04161E-07
 -1      1360-1.83607E-09-4.07842E-07-2.00483E-07
 -1      1361-1.83607E-09 4.07842E-07-2.00483E-07
 -1      1362 4.84693E-09-4.06881E-07-1.98751E-07
 -1      1363 4.84693E-09 4.06881E-07-1.98751E-07
 -1      1364 8.22908E-09-4.06537E-07-1.98529E-07
 -1      1365 8.22908E-09 4.06537E-07-1.98529E-07
 -1      1366 1.03135E-08-4.06691E-07-1.98813E-07
 -1      1367 1.03135E-08 4.06691E-07-1.98813E-07
 -1      1368 1.18050E-08-4.06976E-07-1.99114E-07
 -1      1369 1.18050E-08 4.06976E-07-1.99114E-07
 -1      1370 1.30253E-08-4.07188E-07-1.99340E-07
 -1      1371 1.30253E-08 4.07188E-07-1.99340E-07
 -1      1372 1.42873E-08-4.07189E-07-1.99513E-07
 -1      1373 1.42873E-08 4.07189E-07-1.99513E-07
 -1      1374 1.59841E-08-4.06678E-07-1.99506E-07
 -1      1375 1.59841E-08 4.06678E-07-1.99506E-07
 -1      1376 1.83812E-08-4.05033E-07-1.98706E-07
 -1      1377 1.83812E-08 4.05033E-07-1.98706E-07
 -1      1378 2.08638E-08-4.01625E-07-1.95947E-07
 -1      1379 2.08638E-08 4.01625E-07-1.95947E-07
 -1      1380 2.10208E-08-3.97451E-07-1.91242E-07
 -1      1381 2.10208E-08 3.97451E-07-1.91242E-07
 -1      1382 1.70392E-08-3.97784E-07-1.91193E-07
 -1      1383 1.70392E-08 3.97784E-07-1.91193E-07
 -1      1384 1.92709E-08-4.11150E-07-2.09357E-07
 -1      1385 1.92709E-08 4.11150E-07-2.09357E-07
 -1      1386 6.11398E-08-4.30932E-07-2.36727E-07
 -1      1387 6.11398E-08 4.30932E-07-2.36727E-07
 -1      1388 1.46858E-07-3.79552E-07-2.07790E-07
 -1      1389 1.46858E-07 3.79552E-07-2.07790E-07
 -1      1390 1.82970E-07-1.98648E-07-9.42958E-08
 -1      1391 1.82970E-07 1.98648E-07-9.42958E-08
 -1      1392 1.34991E-07-6.54886E-08-8.71922E-09
 -1      1393 1.34991E-07 6.54886E-08-8.71922E-09
 -1      1394 8.26515E-08-1.42918E-08 1.08912E-08
 -1      1395 8.26515E-08 1.42918E-08 1.08912E-08
 -1      1396-1.65715E-07-1.30269E-07-7.86261E-08
 -1      1397-1.65715E-07 1.30269E-07-7.86261E-08
 -1      1398-1.39482E-07-2.28400E-07-1.25429E-07
 -1      1399-1.39482E-07 2.28400E-07-1.25429E-07
 -1      1400-9.18706E-08-2.99655E-07-1.62186E-07
 -1      1401-9.18706E-08 2.99655E-07-1.62186E-07
 -1      1402-4.78717E-08-3.30959E-07-1.71571E-07
 -1      1403-4.78717E-08 3.30959E-07-1.71571E-07
 -1      1404-1.89722E-08-3.39708E-07-1.66963E-07
 -1      1405-1.89722E-08 3.39708E-07-1.66963E-07
 -1      1406-2.99506E-09-3.40559E-07-1.61827E-07
 -1      1407-2.99506E-09 3.40559E-07-1.61827E-07
 -1      1408 5.43776E-09-3.40243E-07-1.59642E-07
 -1      1409 5.43776E-09 3.40243E-07-1.59642E-07
 -1      1410 1.01210E-08-3.40340E-07-1.59353E-07
 -1      1411 1.01210E-08 3.40340E-07-1.59353E-07
 -1      1412 1.29820E-08-3.40729E-07-1.59649E-07
 -1      1413 1.29820E-08 3.40729E-07-1.59649E-07
 -1      1414 1.49173E-08-3.41119E-07-1.59956E-07
 -1      1415 1.49173E-08 3.41119E-07-1.59956E-07
 -1      1416 1.64105E-08-3.41375E-07-1.60195E-07
 -1      1417 1.64105E-08 3.41375E-07-1.60195E-07
 -1      1418 1.78357E-08-3.41410E-07-1.60425E-07
 -1      1419 1.78357E-08 3.41410E-07-1.60425E-07
 -1      1420 1.95551E-08-3.40983E-07-1.60548E-07
 -1      1421 1.95551E-08 3.40983E-07-1.60548E-07
 -1      1422 2.18222E-08-3.39548E-07-1.59905E-07
 -1      1423 2.18222E-08 3.39548E-07-1.59905E-07
 -1      1424 2.44145E-08-3.36486E-07-1.57129E-07
 -1      1425 2.44145E-08 3.36486E-07-1.57129E-07
 -1      1426 2.61931E-08-3.32520E-07-1.52017E-07
 -1      1427 2.61931E-08 3.32520E-07-1.52017E-07
 -1      1428 2.63949E-08-3.32172E-07-1.51954E-07
 -1      1429 2.63949E-08 3.32172E-07-1.51954E-07
 -1      1430 3.12288E-08-3.42917E-07-1.73278E-07
 -1      1431 3.12288E-08 3.42917E-07-1.73278E-07
 -1      1432 6.41168E-08-3.62147E-07-2.04353E-07
 -1      1433 6.41168E-08 3.62147E-07-2.04353E-07
 -1      1434 1.31617E-07-3.22976E-07-1.77118E-07
 -1      1435 1.31617E-07 3.22976E-07-1.77118E-07
 -1      1436 1.60340E-07-1.64346E-07-7.59921E-08
 -1      1437 1.60340E-07 1.64346E-07-7.59921E-08
 -1      1438 1.24093E-07-5.27737E-08 4.74261E-09
 -1      1439 1.24093E-07 5.27737E-08 4.74261E-09
 -1      1440 8.74001E-08-1.10633E-08 1.74875E-08
 -1      1441 8.74001E-08 1.10633E-08 1.74875E-08
 -1      1442-1.35496E-07-5.98788E-08-6.74792E-08
 -1      1443-1.35496E-07 5.98788E-08-6.74792E-08
 -1      1444-1.12253E-07-1.09088E-07-1.01342E-07
 -1      1445-1.12253E-07 1.09088E-07-1.01342E-07
 -1      1446-7.80156E-08-1.50088E-07-1.31445E-07
 -1      1447-7.80156E-08 1.50088E-07-1.31445E-07
 -1      1448-4.55541E-08-1.70617E-07-1.37692E-07
 -1      1449-4.55541E-08 1.70617E-07-1.37692E-07
 -1      1450-2.09841E-08-1.77603E-07-1.31187E-07
 -1      1451-2.09841E-08 1.77603E-07-1.31187E-07
 -1      1452-4.64308E-09-1.79443E-07-1.25114E-07
 -1      1453-4.64308E-09 1.79443E-07-1.25114E-07
 -1      1454 5.34548E-09-1.80269E-07-1.22526E-07
 -1      1455 5.34548E-09 1.80269E-07-1.22526E-07
 -1      1456 1.12370E-08-1.81055E-07-1.22070E-07
 -1      1457 1.12370E-08 1.81055E-07-1.22070E-07
 -1      1458 1.47698E-08-1.81757E-07-1.22283E-07
 -1      1459 1.47698E-08 1.81757E-07-1.22283E-07
 -1      1460 1.70462E-08-1.82260E-07-1.22543E-07
 -1      1461 1.70462E-08 1.82260E-07-1.22543E-07
 -1      1462 1.87231E-08-1.82548E-07-1.22764E-07
 -1      1463 1.87231E-08 1.82548E-07-1.22764E-07
 -1      1464 2.02126E-08-1.82624E-07-1.23017E-07
 -1      1465 2.02126E-08 1.82624E-07-1.23017E-07
 -1      1466 2.17791E-08-1.82366E-07-1.23222E-07
 -1      1467 2.17791E-08 1.82366E-07-1.23222E-07
 -1      1468 2.35689E-08-1.81417E-07-1.22714E-07
 -1      1469 2.35689E-08 1.81417E-07-1.22714E-07
 -1      1470 2.57640E-08-1.79347E-07-1.20097E-07
 -1      1471 2.57640E-08 1.79347E-07-1.20097E-07
 -1      1472 2.90877E-08-1.76612E-07-1.15164E-07
 -1      1473 2.90877E-08 1.76612E-07-1.15164E-07
 -1      1474 3.53406E-08-1.76167E-07-1.15571E-07
 -1      1475 3.53406E-08 1.76167E-07-1.15571E-07
 -1      1476 4.59495E-08-1.81574E-07-1.38418E-07
 -1      1477 4.59495E-08 1.81574E-07-1.38418E-07
 -1      1478 6.41446E-08-1.90931E-07-1.68670E-07
 -1      1479 6.41446E-08 1.90931E-07-1.68670E-07
 -1      1480 9.27153E-08-1.72209E-07-1.42390E-07
 -1      1481 9.27153E-08 1.72209E-07-1.42390E-07
 -1      1482 1.06010E-07-8.84987E-08-5.99862E-08
 -1      1483 1.06010E-07 8.84987E-08-5.99862E-08
 -1      1484 9.55693E-08-3.01928E-08 1.25199E-08
 -1      1485 9.55693E-08 3.01928E-08 1.25199E-08
 -1      1486 8.58447E-08-6.03135E-09 2.10333E-08
 -1      1487 8.58447E-08 6.03135E-09 2.10333E-08
 -1      1488-1.06627E-07 2.67648E-08-6.44200E-08
 -1      1489-1.06627E-07-2.67648E-08-6.44200E-08
 -1      1490-8.62044E-08 4.08810E-08-9.40622E-08
 -1      1491-8.62044E-08-4.08810E-08-9.40622E-08
 -1      1492-6.48066E-08 3.74030E-08-1.21729E-07
 -1      1493-6.48066E-08-3.74030E-08-1.21729E-07
 -1      1494-4.41142E-08 2.94566E-08-1.27056E-07
 -1      1495-4.41142E-08-2.94566E-08-1.27056E-07
 -1      1496-2.34187E-08 2.42394E-08-1.19866E-07
 -1      1497-2.34187E-08-2.42394E-08-1.19866E-07
 -1      1498-6.53100E-09 2.10934E-08-1.13168E-07
 -1      1499-6.53100E-09-2.10934E-08-1.13168E-07
 -1      1500 4.76855E-09 1.89137E-08-1.10096E-07
 -1      1501 4.76855E-09-1.89137E-08-1.10096E-07
 -1      1502 1.15031E-08 1.73516E-08-1.09337E-07
 -1      1503 1.15031E-08-1.73516E-08-1.09337E-07
 -1      1504 1.54099E-08 1.63128E-08-1.09380E-07
 -1      1505 1.54099E-08-1.63128E-08-1.09380E-07
 -1      1506 1.78358E-08 1.56998E-08-1.09554E-07
 -1      1507 1.78358E-08-1.56998E-08-1.09554E-07
 -1      1508 1.95889E-08 1.53860E-08-1.09739E-07
 -1      1509 1.95889E-08-1.53860E-08-1.09739E-07
 -1      1510 2.10974E-08 1.52708E-08-1.09990E-07
 -1      1511 2.10974E-08-1.52708E-08-1.09990E-07
 -1      1512 2.24982E-08 1.53351E-08-1.10211E-07
 -1      1513 2.24982E-08-1.53351E-08-1.10211E-07
 -1      1514 2.37193E-08 1.57001E-08-1.09738E-07
 -1      1515 2.37193E-08-1.57001E-08-1.09738E-07
 -1      1516 2.50992E-08 1.65128E-08-1.07242E-07
 -1      1517 2.50992E-08-1.65128E-08-1.07242E-07
 -1      1518 2.90803E-08 1.75135E-08-1.02764E-07
 -1      1519 2.90803E-08-1.75135E-08-1.02764E-07
 -1      1520 4.13975E-08 1.73689E-08-1.04045E-07
 -1      1521 4.13975E-08-1.73689E-08-1.04045E-07
 -1      1522 6.04881E-08 1.82130E-08-1.27223E-07
 -1      1523 6.04881E-08-1.82130E-08-1.27223E-07
 -1      1524 6.56793E-08 2.52711E-08-1.55465E-07
 -1      1525 6.56793E-08-2.52711E-08-1.55465E-07
 -1      1526 5.46857E-08 2.09017E-08-1.28602E-07
 -1      1527 5.46857E-08-2.09017E-08-1.28602E-07
 -1      1528 5.23797E-08 3.54433E-09-5.54352E-08
 -1      1529 5.23797E-08-3.54433E-09-5.54352E-08
 -1      1530 6.89753E-08-5.91188E-09 1.34290E-08
 -1      1531 6.89753E-08 5.91188E-09 1.34290E-08
 -1      1532 8.61492E-08-9.65515E-10 2.13895E-08
 -1      1533 8.61492E-08 9.65515E-10 2.13895E-08
 -1      1534 0.00000E+00 0.00000E+00 0.00000E+00
 -1      1535-9.47314E-08 3.02396E-08-1.48478E-07
 -1      1536 0.00000E+00 0.00000E+00 0.00000E+00
 -1      1537-7.12731E-08 4.98103E-08-2.38883E-07
 -1      1538 0.00000E+00 0.00000E+00 0.00000E+00
 -1      1539-5.43002E-08 4.91093E-08-3.02828E-07
 -1      1540 0.00000E+00 0.00000E+00 0.00000E+00
 -1      1541-3.90391E-08 4.15588E-08-3.19503E-07
 -1      1542 0.00000E+00 0.00000E+00 0.00000E+00
 -1      1543-2.11723E-08 3.62490E-08-3.13586E-07
 -1      1544 0.00000E+00 0.00000E+00 0.00000E+00
 -1      1545-5.21936E-09 3.33735E-08-3.05554E-07
 -1      1546 0.00000E+00 0.00000E+00 0.00000E+00
 -1      1547 5.90906E-09 3.16090E-08-3.01207E-07
 -1      1548 0.00000E+00 0.00000E+00 0.00000E+00
 -1      1549 1.26201E-08 3.03808E-08-2.99732E-07
 -1      1550 0.00000E+00 0.00000E+00 0.00000E+00
 -1      1551 1.64882E-08 2.95452E-08-2.99466E-07
 -1      1552 0.00000E+00 0.00000E+00 0.00000E+00
 -1      1553 1.88576E-08 2.90366E-08-2.99536E-07
 -1      1554 0.00000E+00 0.00000E+00 0.00000E+00
 -1      1555 2.05500E-08 2.87690E-08-2.99697E-07
 -1      1556 0.00000E+00 0.00000E+00 0.00000E+00
 -1      1557 2.19779E-08 2.86732E-08-2.99912E-07
 -1      1558 0.00000E+00 0.00000E+00 0.00000E+00
 -1      1559 2.32284E-08 2.87531E-08-2.99961E-07
 -1      1560 0.00000E+00 0.00000E+00 0.00000E+00
 -1      1561 2.41780E-08 2.91089E-08-2.98963E-07
 -1      1562 0.00000E+00 0.00000E+00 0.00000E+00
 -1      1563 2.52658E-08 2.97233E-08-2.95282E-07
 -1      1564 0.00000E+00 0.00000E+00 0.00000E+00
 -1      1565 2.93974E-08 2.99403E-08-2.89028E-07
 -1      1566 0.00000E+00 0.00000E+00 0.00000E+00
 -1      1567 4.28188E-08 2.84988E-08-2.89084E-07
 -1      1568 0.00000E+00 0.00000E+00 0.00000E+00
 -1      1569 6.40578E-08 2.97604E-08-3.18289E-07
 -1      1570 0.00000E+00 0.00000E+00 0.00000E+00
 -1      1571 6.59967E-08 4.25007E-08-3.65358E-07
 -1      1572 0.00000E+00 0.00000E+00 0.00000E+00
 -1      1573 3.79307E-08 3.97750E-08-3.16138E-07
 -1      1574 0.00000E+00 0.00000E+00 0.00000E+00
 -1      1575 2.82206E-08 6.90889E-09-1.43194E-07
 -1      1576 0.00000E+00 0.00000E+00 0.00000E+00
 -1      1577 5.58926E-08-8.66487E-09-7.12831E-09
 -1      1578 0.00000E+00 0.00000E+00 0.00000E+00
 -1      1579 8.03532E-08-2.38771E-09 1.73901E-08
 -1      1580 0.00000E+00 0.00000E+00 0.00000E+00
 -1      1581-7.07003E-08 4.44921E-08-2.47429E-07
 -1      1582 0.00000E+00 0.00000E+00 0.00000E+00
 -1      1583-4.39969E-08 8.39815E-08-4.20602E-07
 -1      1584 0.00000E+00 0.00000E+00 0.00000E+00
 -1      1585-3.79355E-08 9.19681E-08-5.29503E-07
 -1      1586 0.00000E+00 0.00000E+00 0.00000E+00
 -1      1587-3.10550E-08 8.61216E-08-5.56279E-07
 -1      1588 0.00000E+00 0.00000E+00 0.00000E+00
 -1      1589-1.69474E-08 8.05781E-08-5.49940E-07
 -1      1590 0.00000E+00 0.00000E+00 0.00000E+00
 -1      1591-2.18268E-09 7.75525E-08-5.39674E-07
 -1      1592 0.00000E+00 0.00000E+00 0.00000E+00
 -1      1593 8.80026E-09 7.59481E-08-5.33824E-07
 -1      1594 0.00000E+00 0.00000E+00 0.00000E+00
 -1      1595 1.55866E-08 7.49524E-08-5.31631E-07
 -1      1596 0.00000E+00 0.00000E+00 0.00000E+00
 -1      1597 1.95079E-08 7.42972E-08-5.31086E-07
 -1      1598 0.00000E+00 0.00000E+00 0.00000E+00
 -1      1599 2.18784E-08 7.38968E-08-5.31076E-07
 -1      1600 0.00000E+00 0.00000E+00 0.00000E+00
 -1      1601 2.35334E-08 7.36856E-08-5.31226E-07
 -1      1602 0.00000E+00 0.00000E+00 0.00000E+00
 -1      1603 2.48728E-08 7.36181E-08-5.31429E-07
 -1      1604 0.00000E+00 0.00000E+00 0.00000E+00
 -1      1605 2.59383E-08 7.37009E-08-5.31342E-07
 -1      1606 0.00000E+00 0.00000E+00 0.00000E+00
 -1      1607 2.65633E-08 7.39633E-08-5.29849E-07
 -1      1608 0.00000E+00 0.00000E+00 0.00000E+00
 -1      1609 2.72658E-08 7.41447E-08-5.24695E-07
 -1      1610 0.00000E+00 0.00000E+00 0.00000E+00
 -1      1611 3.14027E-08 7.31755E-08-5.15670E-07
 -1      1612 0.00000E+00 0.00000E+00 0.00000E+00
 -1      1613 4.59364E-08 7.01919E-08-5.12145E-07
 -1      1614 0.00000E+00 0.00000E+00 0.00000E+00
 -1      1615 7.25618E-08 7.18083E-08-5.46479E-07
 -1      1616 0.00000E+00 0.00000E+00 0.00000E+00
 -1      1617 7.14929E-08 9.63727E-08-6.31970E-07
 -1      1618 0.00000E+00 0.00000E+00 0.00000E+00
 -1      1619 6.30913E-09 9.96427E-08-5.66899E-07
 -1      1620 0.00000E+00 0.00000E+00 0.00000E+00
 -1      1621-1.85718E-08 1.97765E-08-2.40627E-07
 -1      1622 0.00000E+00 0.00000E+00 0.00000E+00
 -1      1623 3.48922E-08-1.09752E-08-1.76527E-08
 -1      1624 0.00000E+00 0.00000E+00 0.00000E+00
 -1      1625 7.27986E-08-3.72648E-09 1.57161E-08
 -1      1626 0.00000E+00 0.00000E+00 0.00000E+00
 -1      1627-4.29038E-08 5.42145E-08-4.46267E-07
 -1      1628 0.00000E+00 0.00000E+00 0.00000E+00
 -1      1629-1.14010E-08 1.09391E-07-8.60667E-07
 -1      1630 0.00000E+00 0.00000E+00 0.00000E+00
 -1      1631-1.76020E-08 1.25392E-07-1.05328E-06
 -1      1632 0.00000E+00 0.00000E+00 0.00000E+00
 -1      1633-1.87089E-08 1.21891E-07-1.09452E-06
 -1      1634 0.00000E+00 0.00000E+00 0.00000E+00
 -1      1635-7.94039E-09 1.16699E-07-1.08295E-06
 -1      1636 0.00000E+00 0.00000E+00 0.00000E+00
 -1      1637 5.80103E-09 1.13692E-07-1.06652E-06
 -1      1638 0.00000E+00 0.00000E+00 0.00000E+00
 -1      1639 1.66647E-08 1.12227E-07-1.05756E-06
 -1      1640 0.00000E+00 0.00000E+00 0.00000E+00
 -1      1641 2.35255E-08 1.11426E-07-1.05411E-06
 -1      1642 0.00000E+00 0.00000E+00 0.00000E+00
 -1      1643 2.75130E-08 1.10935E-07-1.05320E-06
 -1      1644 0.00000E+00 0.00000E+00 0.00000E+00
 -1      1645 2.99007E-08 1.10642E-07-1.05313E-06
 -1      1646 0.00000E+00 0.00000E+00 0.00000E+00
 -1      1647 3.15322E-08 1.10492E-07-1.05332E-06
 -1      1648 0.00000E+00 0.00000E+00 0.00000E+00
 -1      1649 3.27983E-08 1.10453E-07-1.05355E-06
 -1      1650 0.00000E+00 0.00000E+00 0.00000E+00
 -1      1651 3.37003E-08 1.10524E-07-1.05333E-06
 -1      1652 0.00000E+00 0.00000E+00 0.00000E+00
 -1      1653 3.40409E-08 1.10662E-07-1.05084E-06
 -1      1654 0.00000E+00 0.00000E+00 0.00000E+00
 -1      1655 3.42730E-08 1.10441E-07-1.04285E-06
 -1      1656 0.00000E+00 0.00000E+00 0.00000E+00
 -1      1657 3.81630E-08 1.08645E-07-1.02535E-06
 -1      1658 0.00000E+00 0.00000E+00 0.00000E+00
 -1      1659 5.31944E-08 1.04842E-07-1.01351E-06
 -1      1660 0.00000E+00 0.00000E+00 0.00000E+00
 -1      1661 8.60302E-08 1.07091E-07-1.04118E-06
 -1      1662 0.00000E+00 0.00000E+00 0.00000E+00
 -1      1663 8.88210E-08 1.39146E-07-1.23054E-06
 -1      1664 0.00000E+00 0.00000E+00 0.00000E+00
 -1      1665-2.30769E-08 1.48395E-07-1.27025E-06
 -1      1666 0.00000E+00 0.00000E+00 0.00000E+00
 -1      1667-7.25164E-08 3.22954E-08-3.62145E-07
 -1      1668 0.00000E+00 0.00000E+00 0.00000E+00
 -1      1669 1.63124E-08-1.09836E-08-1.86160E-08
 -1      1670 0.00000E+00 0.00000E+00 0.00000E+00
 -1      1671 6.62501E-08-4.34373E-09 1.52266E-08
 -1      1672 0.00000E+00 0.00000E+00 0.00000E+00
 -1      1673-1.85836E-08 4.34771E-08-6.32960E-07
 -1      1674 0.00000E+00 0.00000E+00 0.00000E+00
 -1      1675 1.78789E-08 8.94919E-08-1.29780E-06
 -1      1676 0.00000E+00 0.00000E+00 0.00000E+00
 -1      1677 3.65574E-10 1.05045E-07-1.57803E-06
 -1      1678 0.00000E+00 0.00000E+00 0.00000E+00
 -1      1679-7.36338E-09 1.03397E-07-1.63256E-06
 -1      1680 0.00000E+00 0.00000E+00 0.00000E+00
 -1      1681 9.12551E-10 9.95781E-08-1.61624E-06
 -1      1682 0.00000E+00 0.00000E+00 0.00000E+00
 -1      1683 1.39240E-08 9.73032E-08-1.59397E-06
 -1      1684 0.00000E+00 0.00000E+00 0.00000E+00
 -1      1685 2.47135E-08 9.62288E-08-1.58207E-06
 -1      1686 0.00000E+00 0.00000E+00 0.00000E+00
 -1      1687 3.16345E-08 9.56774E-08-1.57749E-06
 -1      1688 0.00000E+00 0.00000E+00 0.00000E+00
 -1      1689 3.56787E-08 9.53526E-08-1.57631E-06
 -1      1690 0.00000E+00 0.00000E+00 0.00000E+00
 -1      1691 3.80859E-08 9.51612E-08-1.57625E-06
 -1      1692 0.00000E+00 0.00000E+00 0.00000E+00
 -1      1693 3.97040E-08 9.50642E-08-1.57654E-06
 -1      1694 0.00000E+00 0.00000E+00 0.00000E+00
 -1      1695 4.09172E-08 9.50431E-08-1.57687E-06
 -1      1696 0.00000E+00 0.00000E+00 0.00000E+00
 -1      1697 4.16981E-08 9.50939E-08-1.57656E-06
 -1      1698 0.00000E+00 0.00000E+00 0.00000E+00
 -1      1699 4.18142E-08 9.51604E-08-1.57318E-06
 -1      1700 0.00000E+00 0.00000E+00 0.00000E+00
 -1      1701 4.16299E-08 9.48563E-08-1.56232E-06
 -1      1702 0.00000E+00 0.00000E+00 0.00000E+00
 -1      1703 4.51356E-08 9.32615E-08-1.53712E-06
 -1      1704 0.00000E+00 0.00000E+00 0.00000E+00
 -1      1705 6.04369E-08 9.00887E-08-1.51619E-06
 -1      1706 0.00000E+00 0.00000E+00 0.00000E+00
 -1      1707 9.91020E-08 9.31147E-08-1.54147E-06
 -1      1708 0.00000E+00 0.00000E+00 0.00000E+00
 -1      1709 1.08246E-07 1.19464E-07-1.82342E-06
 -1      1710 0.00000E+00 0.00000E+00 0.00000E+00
 -1      1711-4.71808E-08 1.26453E-07-2.00972E-06
 -1      1712 0.00000E+00 0.00000E+00 0.00000E+00
 -1      1713-1.21444E-07 3.21277E-08-4.85810E-07
 -1      1714 0.00000E+00 0.00000E+00 0.00000E+00
 -1      1715 1.76136E-09-8.19532E-09-1.52322E-08
 -1      1716 0.00000E+00 0.00000E+00 0.00000E+00
 -1      1717 6.16348E-08-3.88008E-09 1.53398E-08
 -1      1718 0.00000E+00 0.00000E+00 0.00000E+00
 -1      1719-4.64371E-09 2.12152E-08-6.88847E-07
 -1      1720 0.00000E+00 0.00000E+00 0.00000E+00
 -1      1721 3.46664E-08 4.36863E-08-1.43670E-06
 -1      1722 0.00000E+00 0.00000E+00 0.00000E+00
 -1      1723 9.50689E-09 5.22030E-08-1.75783E-06
 -1      1724 0.00000E+00 0.00000E+00 0.00000E+00
 -1      1725-2.56928E-09 5.16192E-08-1.82068E-06
 -1      1726 0.00000E+00 0.00000E+00 0.00000E+00
 -1      1727 4.25656E-09 4.97051E-08-1.80365E-06
 -1      1728 0.00000E+00 0.00000E+00 0.00000E+00
 -1      1729 1.68523E-08 4.85701E-08-1.77965E-06
 -1      1730 0.00000E+00 0.00000E+00 0.00000E+00
 -1      1731 2.76002E-08 4.80399E-08-1.76668E-06
 -1      1732 0.00000E+00 0.00000E+00 0.00000E+00
 -1      1733 3.45574E-08 4.77705E-08-1.76164E-06
 -1      1734 0.00000E+00 0.00000E+00 0.00000E+00
 -1      1735 3.86361E-08 4.76109E-08-1.76031E-06
 -1      1736 0.00000E+00 0.00000E+00 0.00000E+00
 -1      1737 4.10560E-08 4.75156E-08-1.76023E-06
 -1      1738 0.00000E+00 0.00000E+00 0.00000E+00
 -1      1739 4.26661E-08 4.74666E-08-1.76053E-06
 -1      1740 0.00000E+00 0.00000E+00 0.00000E+00
 -1      1741 4.38463E-08 4.74558E-08-1.76088E-06
 -1      1742 0.00000E+00 0.00000E+00 0.00000E+00
 -1      1743 4.45570E-08 4.74822E-08-1.76048E-06
 -1      1744 0.00000E+00 0.00000E+00 0.00000E+00
 -1      1745 4.45319E-08 4.75147E-08-1.75678E-06
 -1      1746 0.00000E+00 0.00000E+00 0.00000E+00
 -1      1747 4.41251E-08 4.73493E-08-1.74460E-06
 -1      1748 0.00000E+00 0.00000E+00 0.00000E+00
 -1      1749 4.73211E-08 4.65372E-08-1.71765E-06
 -1      1750 0.00000E+00 0.00000E+00 0.00000E+00
 -1      1751 6.29487E-08 4.48926E-08-1.69207E-06
 -1      1752 0.00000E+00 0.00000E+00 0.00000E+00
 -1      1753 1.05796E-07 4.72622E-08-1.72654E-06
 -1      1754 0.00000E+00 0.00000E+00 0.00000E+00
 -1      1755 1.17785E-07 6.05642E-08-2.04104E-06
 -1      1756 0.00000E+00 0.00000E+00 0.00000E+00
 -1      1757-6.49635E-08 6.21800E-08-2.25467E-06
 -1      1758 0.00000E+00 0.00000E+00 0.00000E+00
 -1      1759-1.52435E-07 1.89395E-08-5.68157E-07
 -1      1760 0.00000E+00 0.00000E+00 0.00000E+00
 -1      1761-8.13675E-09-4.07537E-09-1.43341E-08
 -1      1762 0.00000E+00 0.00000E+00 0.00000E+00
 -1      1763 5.90567E-08-2.30936E-09 1.63027E-08
 -1      1764 0.00000E+00 0.00000E+00 0.00000E+00
 -1      1765-3.87828E-10-1.05981E-15-7.04253E-07
 -1      1766 0.00000E+00 0.00000E+00 0.00000E+00
 -1      1767 4.00690E-08-3.47100E-16-1.47709E-06
 -1      1768 0.00000E+00 0.00000E+00 0.00000E+00
 -1      1769 1.25105E-08-2.24575E-16-1.81141E-06
 -1      1770 0.00000E+00 0.00000E+00 0.00000E+00
 -1      1771-1.06741E-09-1.59310E-16-1.87724E-06
 -1      1772 0.00000E+00 0.00000E+00 0.00000E+00
 -1      1773 5.28642E-09-9.82520E-17-1.86010E-06
 -1      1774 0.00000E+00 0.00000E+00 0.00000E+00
 -1      1775 1.77409E-08-4.36438E-17-1.83557E-06
 -1      1776 0.00000E+00 0.00000E+00 0.00000E+00
 -1      1777 2.84702E-08 1.30567E-16-1.82229E-06
 -1      1778 0.00000E+00 0.00000E+00 0.00000E+00
 -1      1779 3.54375E-08 3.58987E-16-1.81710E-06
 -1      1780 0.00000E+00 0.00000E+00 0.00000E+00
 -1      1781 3.95270E-08 5.76592E-16-1.81572E-06
 -1      1782 0.00000E+00 0.00000E+00 0.00000E+00
 -1      1783 4.19513E-08 8.25886E-16-1.81563E-06
 -1      1784 0.00000E+00 0.00000E+00 0.00000E+00
 -1      1785 4.35588E-08 1.04172E-15-1.81594E-06
 -1      1786 0.00000E+00 0.00000E+00 0.00000E+00
 -1      1787 4.47279E-08 1.24402E-15-1.81629E-06
 -1      1788 0.00000E+00 0.00000E+00 0.00000E+00
 -1      1789 4.54162E-08 1.43350E-15-1.81587E-06
 -1      1790 0.00000E+00 0.00000E+00 0.00000E+00
 -1      1791 4.53435E-08 1.61814E-15-1.81202E-06
 -1      1792 0.00000E+00 0.00000E+00 0.00000E+00
 -1      1793 4.48744E-08 1.82125E-15-1.79954E-06
 -1      1794 0.00000E+00 0.00000E+00 0.00000E+00
 -1      1795 4.79436E-08 1.99814E-15-1.77187E-06
 -1      1796 0.00000E+00 0.00000E+00 0.00000E+00
 -1      1797 6.37358E-08 2.22512E-15-1.74523E-06
 -1      1798 0.00000E+00 0.00000E+00 0.00000E+00
 -1      1799 1.08049E-07 2.55662E-15-1.78262E-06
 -1      1800 0.00000E+00 0.00000E+00 0.00000E+00
 -1      1801 1.20498E-07 3.08022E-15-2.10827E-06
 -1      1802 0.00000E+00 0.00000E+00 0.00000E+00
 -1      1803-7.06316E-08 2.88183E-15-2.32819E-06
 -1      1804 0.00000E+00 0.00000E+00 0.00000E+00
 -1      1805-1.62397E-07 1.55246E-15-5.94932E-07
 -1      1806 0.00000E+00 0.00000E+00 0.00000E+00
 -1      1807-1.17402E-08 4.89456E-16-1.47516E-08
 -1      1808 0.00000E+00 0.00000E+00 0.00000E+00
 -1      1809 5.82390E-08 6.78089E-17 1.68791E-08
 -1      1810 0.00000E+00 0.00000E+00 0.00000E+00
 -1      1811-4.64371E-09-2.12152E-08-6.88847E-07
 -1      1812 0.00000E+00 0.00000E+00 0.00000E+00
 -1      1813 3.46664E-08-4.36863E-08-1.43670E-06
 -1      1814 0.00000E+00 0.00000E+00 0.00000E+00
 -1      1815 9.50689E-09-5.22030E-08-1.75783E-06
 -1      1816 0.00000E+00 0.00000E+00 0.00000E+00
 -1      1817-2.56928E-09-5.16192E-08-1.82068E-06
 -1      1818 0.00000E+00 0.00000E+00 0.00000E+00
 -1      1819 4.25656E-09-4.97051E-08-1.80365E-06
 -1      1820 0.00000E+00 0.00000E+00 0.00000E+00
 -1      1821 1.68523E-08-4.85701E-08-1.77965E-06
 -1      1822 0.00000E+00 0.00000E+00 0.00000E+00
 -1      1823 2.76002E-08-4.80399E-08-1.76668E-06
 -1      1824 0.00000E+00 0.00000E+00 0.00000E+00
 -1      1825 3.45574E-08-4.77705E-08-1.76164E-06
 -1      1826 0.00000E+00 0.00000E+00 0.00000E+00
 -1      1827 3.86361E-08-4.76109E-08-1.76031E-06
 -1      1828 0.00000E+00 0.00000E+00 0.00000E+00
 -1      1829 4.10560E-08-4.75156E-08-1.76023E-06
 -1      1830 0.00000E+00 0.00000E+00 0.00000E+00
 -1      1831 4.26661E-08-4.74666E-08-1.76053E-06
 -1      1832 0.00000E+00 0.00000E+00 0.00000E+00
 -1      1833 4.38463E-08-4.74558E-08-1.76088E-06
 -1      1834 0.00000E+00 0.00000E+00 0.00000E+00
 -1      1835 4.45570E-08-4.74822E-08-1.76048E-06
 -1      1836 0.00000E+00 0.00000E+00 0.00000E+00
 -1      1837 4.45319E-08-4.75147E-08-1.75678E-06
 -1      1838 0.00000E+00 0.00000E+00 0.00000E+00
 -1      1839 4.41251E-08-4.73493E-08-1.74460E-06
 -1      1840 0.00000E+00 0.00000E+00 0.00000E+00
 -1      1841 4.73211E-08-4.65372E-08-1.71765E-06
 -1      1842 0.00000E+00 0.00000E+00 0.00000E+00
 -1      1843 6.29487E-08-4.48926E-08-1.69207E-06
 -1      1844 0.00000E+00 0.00000E+00 0.00000E+00
 -1      1845 1.05796E-07-4.72622E-08-1.72654E-06
 -1      1846 0.00000E+00 0.00000E+00 0.00000E+00
 -1      1847 1.17785E-07-6.05642E-08-2.04104E-06
 -1      1848 0.00000E+00 0.00000E+00 0.00000E+00
 -1      1849-6.49635E-08-6.21800E-08-2.25467E-06
 -1      1850 0.00000E+00 0.00000E+00 0.00000E+00
 -1      1851-1.52435E-07-1.89395E-08-5.68157E-07
 -1      1852 0.00000E+00 0.00000E+00 0.00000E+00
 -1      1853-8.13675E-09 4.07537E-09-1.43341E-08
 -1      1854 0.00000E+00 0.00000E+00 0.00000E+00
 -1      1855 5.90567E-08 2.30936E-09 1.63027E-08
 -1      1856 0.00000E+00 0.00000E+00 0.00000E+00
 -1      1857-1.85836E-08-4.34771E-08-6.32960E-07
 -1      1858 0.00000E+00 0.00000E+00 0.00000E+00
 -1      1859 1.78789E-08-8.94919E-08-1.29780E-06
 -1      1860 0.00000E+00 0.00000E+00 0.00000E+00
 -1      1861 3.65575E-10-1.05045E-07-1.57803E-06
 -1      1862 0.00000E+00 0.00000E+00 0.00000E+00
 -1      1863-7.36338E-09-1.03397E-07-1.63256E-06
 -1      1864 0.00000E+00 0.00000E+00 0.00000E+00
 -1      1865 9.12551E-10-9.95781E-08-1.61624E-06
 -1      1866 0.00000E+00 0.00000E+00 0.00000E+00
 -1      1867 1.39240E-08-9.73032E-08-1.59397E-06
 -1      1868 0.00000E+00 0.00000E+00 0.00000E+00
 -1      1869 2.47135E-08-9.62288E-08-1.58207E-06
 -1      1870 0.00000E+00 0.00000E+00 0.00000E+00
 -1      1871 3.16345E-08-9.56774E-08-1.57749E-06
 -1      1872 0.00000E+00 0.00000E+00 0.00000E+00
 -1      1873 3.56787E-08-9.53526E-08-1.57631E-06
 -1      1874 0.00000E+00 0.00000E+00 0.00000E+00
 -1      1875 3.80859E-08-9.51612E-08-1.57625E-06
 -1      1876 0.00000E+00 0.00000E+00 0.00000E+00
 -1      1877 3.97040E-08-9.50642E-08-1.57654E-06
 -1      1878 0.00000E+00 0.00000E+00 0.00000E+00
 -1      1879 4.09172E-08-9.50431E-08-1.57687E-06
 -1      1880 0.00000E+00 0.00000E+00 0.00000E+00
 -1      1881 4.16981E-08-9.50939E-08-1.57656E-06
 -1      1882 0.00000E+00 0.00000E+00 0.00000E+00
 -1      1883 4.18142E-08-9.51604E-08-1.57318E-06
 -1      1884 0.00000E+00 0.00000E+00 0.00000E+00
 -1      1885 4.16299E-08-9.48563E-08-1.56232E-06
 -1      1886 0.00000E+00 0.00000E+00 0.00000E+00
 -1      1887 4.51356E-08-9.32615E-08-1.53712E-06
 -1      1888 0.00000E+00 0.00000E+00 0.00000E+00
 -1      1889 6.04369E-08-9.00887E-08-1.51619E-06
 -1      1890 0.00000E+00 0.00000E+00 0.00000E+00
 -1      1891 9.91020E-08-9.31147E-08-1.54147E-06
 -1      1892 0.00000E+00 0.00000E+00 0.00000E+00
 -1      1893 1.08246E-07-1.19464E-07-1.82342E-06
 -1      1894 0.00000E+00 0.00000E+00 0.00000E+00
 -1      1895-4.71808E-08-1.26453E-07-2.00972E-06
 -1      1896 0.00000E+00 0.00000E+00 0.00000E+00
 -1      1897-1.21444E-07-3.21277E-08-4.85810E-07
 -1      1898 0.00000E+00 0.00000E+00 0.00000E+00
 -1      1899 1.76136E-09 8.19532E-09-1.52322E-08
 -1      1900 0.00000E+00 0.00000E+00 0.00000E+00
 -1      1901 6.16348E-08 3.88008E-09 1.53398E-08
 -1      1902 0.00000E+00 0.00000E+00 0.00000E+00
 -1      1903-4.29038E-08-5.42145E-08-4.46267E-07
 -1      1904 0.00000E+00 0.00000E+00 0.00000E+00
 -1      1905-1.14010E-08-1.09391E-07-8.60667E-07
 -1      1906 0.00000E+00 0.00000E+00 0.00000E+00
 -1      1907-1.76020E-08-1.25392E-07-1.05328E-06
 -1      1908 0.00000E+00 0.00000E+00 0.00000E+00
 -1      1909-1.87089E-08-1.21891E-07-1.09452E-06
 -1      1910 0.00000E+00 0.00000E+00 0.00000E+00
 -1      1911-7.94039E-09-1.16699E-07-1.08295E-06
 -1      1912 0.00000E+00 0.00000E+00 0.00000E+00
 -1      1913 5.80103E-09-1.13692E-07-1.06652E-06
 -1      1914 0.00000E+00 0.00000E+00 0.00000E+00
 -1      1915 1.66647E-08-1.12227E-07-1.05756E-06
 -1      1916 0.00000E+00 0.00000E+00 0.00000E+00
 -1      1917 2.35255E-08-1.11426E-07-1.05411E-06
 -1      1918 0.00000E+00 0.00000E+00 0.00000E+00
 -1      1919 2.75130E-08-1.10935E-07-1.05320E-06
 -1      1920 0.00000E+00 0.00000E+00 0.00000E+00
 -1      1921 2.99007E-08-1.10642E-07-1.05313E-06
 -1      1922 0.00000E+00 0.00000E+00 0.00000E+00
 -1      1923 3.15322E-08-1.10492E-07-1.05332E-06
 -1      1924 0.00000E+00 0.00000E+00 0.00000E+00
 -1      1925 3.27983E-08-1.10453E-07-1.05355E-06
 -1      1926 0.00000E+00 0.00000E+00 0.00000E+00
 -1      1927 3.37003E-08-1.10524E-07-1.05333E-06
 -1      1928 0.00000E+00 0.00000E+00 0.00000E+00
 -1      1929 3.40409E-08-1.10662E-07-1.05084E-06
 -1      1930 0.00000E+00 0.00000E+00 0.00000E+00
 -1      1931 3.42730E-08-1.10441E-07-1.04285E-06
 -1      1932 0.00000E+00 0.00000E+00 0.00000E+00
 -1      1933 3.81630E-08-1.08645E-07-1.02535E-06
 -1      1934 0.00000E+00 0.00000E+00 0.00000E+00
 -1      1935 5.31944E-08-1.04842E-07-1.01351E-06
 -1      1936 0.00000E+00 0.00000E+00 0.00000E+00
 -1      1937 8.60302E-08-1.07091E-07-1.04118E-06
 -1      1938 0.00000E+00 0.00000E+00 0.00000E+00
 -1      1939 8.88210E-08-1.39146E-07-1.23054E-06
 -1      1940 0.00000E+00 0.00000E+00 0.00000E+00
 -1      1941-2.30769E-08-1.48395E-07-1.27025E-06
 -1      1942 0.00000E+00 0.00000E+00 0.00000E+00
 -1      1943-7.25164E-08-3.22954E-08-3.62145E-07
 -1      1944 0.00000E+00 0.00000E+00 0.00000E+00
 -1      1945 1.63124E-08 1.09836E-08-1.86160E-08
 -1      1946 0.00000E+00 0.00000E+00 0.00000E+00
 -1      1947 6.62501E-08 4.34373E-09 1.52266E-08
 -1      1948 0.00000E+00 0.00000E+00 0.00000E+00
 -1      1949-7.07003E-08-4.44921E-08-2.47429E-07
 -1      1950 0.00000E+00 0.00000E+00 0.00000E+00
 -1      1951-4.39969E-08-8.39815E-08-4.20602E-07
 -1      1952 0.00000E+00 0.00000E+00 0.00000E+00
 -1      1953-3.79355E-08-9.19681E-08-5.29503E-07
 -1      1954 0.00000E+00 0.00000E+00 0.00000E+00
 -1      1955-3.10550E-08-8.61216E-08-5.56279E-07
 -1      1956 0.00000E+00 0.00000E+00 0.00000E+00
 -1      1957-1.69474E-08-8.05781E-08-5.49940E-07
 -1      1958 0.00000E+00 0.00000E+00 0.00000E+00
 -1      1959-2.18268E-09-7.75525E-08-5.39674E-07
 -1      1960 0.00000E+00 0.00000E+00 0.00000E+00
 -1      1961 8.80026E-09-7.59481E-08-5.33824E-07
 -1      1962 0.00000E+00 0.00000E+00 0.00000E+00
 -1      1963 1.55866E-08-7.49524E-08-5.31631E-07
 -1      1964 0.00000E+00 0.00000E+00 0.00000E+00
 -1      1965 1.95079E-08-7.42972E-08-5.31086E-07
 -1      1966 0.00000E+00 0.00000E+00 0.00000E+00
 -1      1967 2.18784E-08-7.38968E-08-5.31076E-07
 -1      1968 0.00000E+00 0.00000E+00 0.00000E+00
 -1      1969 2.35334E-08-7.36856E-08-5.31226E-07
 -1      1970 0.00000E+00 0.00000E+00 0.00000E+00
 -1      1971 2.48728E-08-7.36181E-08-5.31429E-07
 -1      1972 0.00000E+00 0.00000E+00 0.00000E+00
 -1      1973 2.59383E-08-7.37009E-08-5.31342E-07
 -1      1974 0.00000E+00 0.00000E+00 0.00000E+00
 -1      1975 2.65633E-08-7.39633E-08-5.29849E-07
 -1      1976 0.00000E+00 0.00000E+00 0.00000E+00
 -1      1977 2.72658E-08-7.41447E-08-5.24695E-07
 -1      1978 0.00000E+00 0.00000E+00 0.00000E+00
 -1      1979 3.14027E-08-7.31755E-08-5.15670E-07
 -1      1980 0.00000E+00 0.00000E+00 0.00000E+00
 -1      1981 4.59364E-08-7.01919E-08-5.12145E-07
 -1      1982 0.00000E+00 0.00000E+00 0.00000E+00
 -1      1983 7.25618E-08-7.18083E-08-5.46479E-07
 -1      1984 0.00000E+00 0.00000E+00 0.00000E+00
 -1      1985 7.14929E-08-9.63727E-08-6.31970E-07
 -1      1986 0.00000E+00 0.00000E+00 0.00000E+00
 -1      1987 6.30913E-09-9.96427E-08-5.66899E-07
 -1      1988 0.00000E+00 0.00000E+00 0.00000E+00
 -1      1989-1.85718E-08-1.97765E-08-2.40627E-07
 -1      1990 0.00000E+00 0.00000E+00 0.00000E+00
 -1      1991 3.48922E-08 1.09752E-08-1.76527E-08
 -1      1992 0.00000E+00 0.00000E+00 0.00000E+00
 -1      1993 7.27986E-08 3.72648E-09 1.57161E-08
 -1      1994 0.00000E+00 0.00000E+00 0.00000E+00
 -1      1995-9.47314E-08-3.02396E-08-1.48478E-07
 -1      1996 0.00000E+00 0.00000E+00 0.00000E+00
 -1      1997-7.12730E-08-4.98103E-08-2.38883E-07
 -1      1998 0.00000E+00 0.00000E+00 0.00000E+00
 -1      1999-5.43002E-08-4.91093E-08-3.02828E-07
 -1      2000 0.00000E+00 0.00000E+00 0.00000E+00
 -1      2001-3.90391E-08-4.15588E-08-3.19503E-07
 -1      2002 0.00000E+00 0.00000E+00 0.00000E+00
 -1      2003-2.11723E-08-3.62490E-08-3.13586E-07
 -1      2004 0.00000E+00 0.00000E+00 0.00000E+00
 -1      2005-5.21936E-09-3.33735E-08-3.05554E-07
 -1      2006 0.00000E+00 0.00000E+00 0.00000E+00
 -1      2007 5.90906E-09-3.16090E-08-3.01207E-07
 -1      2008 0.00000E+00 0.00000E+00 0.00000E+00
 -1      2009 1.26201E-08-3.03808E-08-2.99732E-07
 -1      2010 0.00000E+00 0.00000E+00 0.00000E+00
 -1      2011 1.64882E-08-2.95452E-08-2.99466E-07
 -1      2012 0.00000E+00 0.00000E+00 0.00000E+00
 -1      2013 1.88576E-08-2.90366E-08-2.99536E-07
 -1      2014 0.00000E+00 0.00000E+00 0.00000E+00
 -1      2015 2.05500E-08-2.87690E-08-2.99697E-07
 -1      2016 0.00000E+00 0.00000E+00 0.00000E+00
 -1      2017 2.19779E-08-2.86732E-08-2.99912E-07
 -1      2018 0.00000E+00 0.00000E+00 0.00000E+00
 -1      2019 2.32284E-08-2.87531E-08-2.99961E-07
 -1      2020 0.00000E+00 0.00000E+00 0.00000E+00
 -1      2021 2.41780E-08-2.91089E-08-2.98963E-07
 -1      2022 0.00000E+00 0.00000E+00 0.00000E+00
 -1      2023 2.52658E-08-2.97233E-08-2.95282E-07
 -1      2024 0.00000E+00 0.00000E+00 0.00000E+00
 -1      2025 2.93974E-08-2.99403E-08-2.89028E-07
 -1      2026 0.00000E+00 0.00000E+00 0.00000E+00
 -1      2027 4.28188E-08-2.84988E-08-2.89084E-07
 -1      2028 0.00000E+00 0.00000E+00 0.00000E+00
 -1      2029 6.40578E-08-2.97604E-08-3.18289E-07
 -1      2030 0.00000E+00 0.00000E+00 0.00000E+00
 -1      2031 6.59967E-08-4.25007E-08-3.65358E-07
 -1      2032 0.00000E+00 0.00000E+00 0.00000E+00
 -1      2033 3.79307E-08-3.97750E-08-3.16138E-07
 -1      2034 0.00000E+00 0.00000E+00 0.00000E+00
 -1      2035 2.82206E-08-6.90889E-09-1.43194E-07
 -1      2036 0.00000E+00 0.00000E+00 0.00000E+00
 -1      2037 5.58926E-08 8.66487E-09-7.12831E-09
 -1      2038 0.00000E+00 0.00000E+00 0.00000E+00
 -1      2039 8.03532E-08 2.38771E-09 1.73901E-08
 -1      2040-7.54283E-08-8.31277E-08-3.52538E-08
 -1      2041-6.74417E-08-1.42594E-07-6.54405E-08
 -1      2042-4.29498E-08-1.84400E-07-8.27834E-08
 -1      2043-2.00614E-08-2.01995E-07-8.96467E-08
 -1      2044-6.37838E-09-2.06119E-07-9.03241E-08
 -1      2045-3.03486E-10-2.05738E-07-8.95654E-08
 -1      2046 2.02919E-09-2.04869E-07-8.90708E-08
 -1      2047 3.05596E-09-2.04453E-07-8.89712E-08
 -1      2048 3.69811E-09-2.04383E-07-8.90392E-08
 -1      2049 4.19908E-09-2.04442E-07-8.91295E-08
 -1      2050 4.64194E-09-2.04508E-07-8.91982E-08
 -1      2051 5.14390E-09-2.04499E-07-8.92326E-08
 -1      2052 5.89244E-09-2.04259E-07-8.91703E-08
 -1      2053 7.00923E-09-2.03471E-07-8.88101E-08
 -1      2054 8.05412E-09-2.01817E-07-8.78347E-08
 -1      2055 7.41782E-09-1.99840E-07-8.63822E-08
 -1      2056 4.05583E-09-2.00400E-07-8.65144E-08
 -1      2057 4.78517E-09-2.08158E-07-9.18902E-08
 -1      2058 2.71261E-08-2.17634E-07-9.94712E-08
 -1      2059 6.97405E-08-1.89499E-07-8.72657E-08
 -1      2060 8.77004E-08-1.01279E-07-4.27845E-08
 -1      2061 6.40440E-08-3.29430E-08-9.79217E-09
 -1      2062 3.38925E-08-6.60291E-09 1.56910E-09
 -1      2063-7.94822E-08-7.70463E-08-4.58878E-08
 -1      2064-6.93184E-08-1.34447E-07-8.66505E-08
 -1      2065-4.23054E-08-1.73836E-07-1.09507E-07
 -1      2066-1.88690E-08-1.90093E-07-1.17666E-07
 -1      2067-5.45396E-09-1.93634E-07-1.18091E-07
 -1      2068 2.43669E-10-1.93077E-07-1.16916E-07
 -1      2069 2.37887E-09-1.92146E-07-1.16168E-07
 -1      2070 3.33299E-09-1.91685E-07-1.15949E-07
 -1      2071 3.94928E-09-1.91574E-07-1.15968E-07
 -1      2072 4.43499E-09-1.91602E-07-1.16039E-07
 -1      2073 4.86167E-09-1.91651E-07-1.16102E-07
 -1      2074 5.34212E-09-1.91641E-07-1.16137E-07
 -1      2075 6.06686E-09-1.91427E-07-1.16067E-07
 -1      2076 7.18950E-09-1.90717E-07-1.15655E-07
 -1      2077 8.34412E-09-1.89202E-07-1.14497E-07
 -1      2078 7.86265E-09-1.87343E-07-1.12649E-07
 -1      2079 4.13295E-09-1.87828E-07-1.12503E-07
 -1      2080 3.30298E-09-1.95224E-07-1.19178E-07
 -1      2081 2.51673E-08-2.05025E-07-1.30650E-07
 -1      2082 7.20022E-08-1.79589E-07-1.16512E-07
 -1      2083 9.14632E-08-9.44979E-08-5.45837E-08
 -1      2084 6.40705E-08-2.99648E-08-1.12554E-08
 -1      2085 3.21129E-08-5.82897E-09 1.74779E-09
 -1      2086-8.96534E-08-6.66114E-08-6.12239E-08
 -1      2087-7.67331E-08-1.18032E-07-1.16846E-07
 -1      2088-4.48480E-08-1.52536E-07-1.47805E-07
 -1      2089-1.85729E-08-1.66617E-07-1.58223E-07
 -1      2090-4.52970E-09-1.69577E-07-1.58559E-07
 -1      2091 9.87158E-10-1.68997E-07-1.56925E-07
 -1      2092 2.88684E-09-1.68130E-07-1.55879E-07
 -1      2093 3.71522E-09-1.67692E-07-1.55526E-07
 -1      2094 4.27923E-09-1.67571E-07-1.55495E-07
 -1      2095 4.74278E-09-1.67582E-07-1.55554E-07
 -1      2096 5.15593E-09-1.67618E-07-1.55617E-07
 -1      2097 5.62840E-09-1.67608E-07-1.55653E-07
 -1      2098 6.36800E-09-1.67427E-07-1.55565E-07
 -1      2099 7.57675E-09-1.66821E-07-1.55059E-07
 -1      2100 8.93550E-09-1.65517E-07-1.53622E-07
 -1      2101 8.53579E-09-1.63899E-07-1.51212E-07
 -1      2102 3.78318E-09-1.64303E-07-1.50710E-07
 -1      2103 5.45062E-10-1.70772E-07-1.59183E-07
 -1      2104 2.39794E-08-1.79910E-07-1.75777E-07
 -1      2105 8.08431E-08-1.58457E-07-1.58509E-07
 -1      2106 1.04221E-07-8.23947E-08-7.23542E-08
 -1      2107 6.92874E-08-2.57139E-08-1.41504E-08
 -1      2108 3.18102E-08-4.89844E-09 1.80474E-09
 -1      2109-1.00788E-07-4.94358E-08-7.60081E-08
 -1      2110-8.52153E-08-8.85817E-08-1.46112E-07
 -1      2111-4.82682E-08-1.14466E-07-1.85026E-07
 -1      2112-1.87197E-08-1.24938E-07-1.97731E-07
 -1      2113-3.74508E-09-1.27099E-07-1.98039E-07
 -1      2114 1.70249E-09-1.26630E-07-1.95991E-07
 -1      2115 3.39291E-09-1.25960E-07-1.94673E-07
 -1      2116 4.09420E-09-1.25617E-07-1.94199E-07
 -1      2117 4.60344E-09-1.25517E-07-1.94129E-07
 -1      2118 5.04545E-09-1.25520E-07-1.94179E-07
 -1      2119 5.44841E-09-1.25544E-07-1.94245E-07
 -1      2120 5.92000E-09-1.25536E-07-1.94282E-07
 -1      2121 6.68821E-09-1.25403E-07-1.94175E-07
 -1      2122 8.00146E-09-1.24956E-07-1.93575E-07
 -1      2123 9.56924E-09-1.23991E-07-1.91861E-07
 -1      2124 9.19926E-09-1.22786E-07-1.88903E-07
 -1      2125 3.30648E-09-1.23073E-07-1.88057E-07
 -1      2126-2.23836E-09-1.27908E-07-1.98290E-07
 -1      2127 2.33574E-08-1.35075E-07-2.19856E-07
 -1      2128 9.08904E-08-1.19484E-07-1.99599E-07
 -1      2129 1.18520E-07-6.16151E-08-8.98743E-08
 -1      2130 7.58249E-08-1.90036E-08-1.70805E-08
 -1      2131 3.22270E-08-3.56995E-09 1.86376E-09
 -1      2132-1.09060E-07-2.63912E-08-8.63415E-08
 -1      2133-9.15984E-08-4.76027E-08-1.66718E-07
 -1      2134-5.09645E-08-6.15206E-08-2.11284E-07
 -1      2135-1.89539E-08-6.71212E-08-2.25619E-07
 -1      2136-3.22201E-09-6.82661E-08-2.25915E-07
 -1      2137 2.21093E-09-6.80054E-08-2.23581E-07
 -1      2138 3.75914E-09-6.76402E-08-2.22075E-07
 -1      2139 4.36937E-09-6.74525E-08-2.21520E-07
 -1      2140 4.83860E-09-6.73963E-08-2.21423E-07
 -1      2141 5.26535E-09-6.73960E-08-2.21468E-07
 -1      2142 5.66197E-09-6.74081E-08-2.21536E-07
 -1      2143 6.13503E-09-6.74037E-08-2.21575E-07
 -1      2144 6.92766E-09-6.73330E-08-2.21454E-07
 -1      2145 8.32090E-09-6.70956E-08-2.20788E-07
 -1      2146 1.00392E-08-6.65806E-08-2.18878E-07
 -1      2147 9.67218E-09-6.59365E-08-2.15533E-07
 -1      2148 2.92989E-09-6.60847E-08-2.14441E-07
 -1      2149-4.22774E-09-6.86780E-08-2.25930E-07
 -1      2150 2.30719E-08-7.26362E-08-2.51062E-07
 -1      2151 9.84139E-08-6.44280E-08-2.28784E-07
 -1      2152 1.29192E-07-3.30656E-08-1.02315E-07
 -1      2153 8.08897E-08-1.01225E-08-1.91340E-08
 -1      2154 3.27427E-08-1.88620E-09 1.92745E-09
 -1      2155-1.12086E-07-1.69849E-16-9.00324E-08
 -1      2156-9.39438E-08-2.23570E-16-1.74107E-07
 -1      2157-5.19710E-08-1.97187E-16-2.20710E-07
 -1      2158-1.90567E-08-1.91291E-16-2.35633E-07
 -1      2159-3.03875E-09-2.16759E-16-2.35927E-07
 -1      2160 2.39415E-09-2.43941E-16-2.33491E-07
 -1      2161 3.89222E-09-2.83172E-16-2.31918E-07
 -1      2162 4.46962E-09-3.30544E-16-2.31334E-07
 -1      2163 4.92431E-09-3.74874E-16-2.31227E-07
 -1      2164 5.34557E-09-4.14400E-16-2.31271E-07
 -1      2165 5.74005E-09-4.48804E-16-2.31340E-07
 -1      2166 6.21394E-09-4.79379E-16-2.31380E-07
 -1      2167 7.01592E-09-5.03608E-16-2.31254E-07
 -1      2168 8.43874E-09-5.29907E-16-2.30564E-07
 -1      2169 1.02113E-08-5.50701E-16-2.28583E-07
 -1      2170 9.84239E-09-5.63374E-16-2.25100E-07
 -1      2171 2.78929E-09-5.73972E-16-2.23919E-07
 -1      2172-4.94354E-09-6.10857E-16-2.35862E-07
 -1      2173 2.29907E-08-6.87587E-16-2.62287E-07
 -1      2174 1.01170E-07-6.29008E-16-2.39301E-07
 -1      2175 1.33099E-07-2.80986E-16-1.06799E-07
 -1      2176 8.27704E-08-5.93814E-17-1.98688E-08
 -1      2177 3.29601E-08-1.43335E-17 1.95406E-09
 -1      2178-1.09060E-07 2.63912E-08-8.63415E-08
 -1      2179-9.15984E-08 4.76027E-08-1.66718E-07
 -1      2180-5.09645E-08 6.15206E-08-2.11284E-07
 -1      2181-1.89539E-08 6.71212E-08-2.25619E-07
 -1      2182-3.22201E-09 6.82661E-08-2.25915E-07
 -1      2183 2.21093E-09 6.80054E-08-2.23581E-07
 -1      2184 3.75914E-09 6.76402E-08-2.22075E-07
 -1      2185 4.36937E-09 6.74525E-08-2.21520E-07
 -1      2186 4.83860E-09 6.73963E-08-2.21423E-07
 -1      2187 5.26535E-09 6.73960E-08-2.21468E-07
 -1      2188 5.66197E-09 6.74081E-08-2.21536E-07
 -1      2189 6.13503E-09 6.74037E-08-2.21575E-07
 -1      2190 6.92766E-09 6.73330E-08-2.21454E-07
 -1      2191 8.32090E-09 6.70956E-08-2.20788E-07
 -1      2192 1.00392E-08 6.65806E-08-2.18878E-07
 -1      2193 9.67218E-09 6.59365E-08-2.15533E-07
 -1      2194 2.92989E-09 6.60847E-08-2.14441E-07
 -1      2195-4.22774E-09 6.86780E-08-2.25930E-07
 -1      2196 2.30719E-08 7.26362E-08-2.51062E-07
 -1      2197 9.84139E-08 6.44280E-08-2.28784E-07
 -1      2198 1.29192E-07 3.30656E-08-1.02315E-07
 -1      2199 8.08897E-08 1.01225E-08-1.91340E-08
 -1      2200 3.27427E-08 1.88620E-09 1.92745E-09
 -1      2201-1.00788E-07 4.94358E-08-7.60081E-08
 -1      2202-8.52153E-08 8.85817E-08-1.46112E-07
 -1      2203-4.82682E-08 1.14466E-07-1.85026E-07
 -1      2204-1.87197E-08 1.24938E-07-1.97731E-07
 -1      2205-3.74508E-09 1.27099E-07-1.98039E-07
 -1      2206 1.70249E-09 1.26630E-07-1.95991E-07
 -1      2207 3.39291E-09 1.25960E-07-1.94673E-07
 -1      2208 4.09420E-09 1.25617E-07-1.94199E-07
 -1      2209 4.60344E-09 1.25517E-07-1.94129E-07
 -1      2210 5.04545E-09 1.25520E-07-1.94179E-07
 -1      2211 5.44841E-09 1.25544E-07-1.94245E-07
 -1      2212 5.92000E-09 1.25536E-07-1.94282E-07
 -1      2213 6.68821E-09 1.25403E-07-1.94175E-07
 -1      2214 8.00146E-09 1.24956E-07-1.93575E-07
 -1      2215 9.56924E-09 1.23991E-07-1.91861E-07
 -1      2216 9.19926E-09 1.22786E-07-1.88903E-07
 -1      2217 3.30648E-09 1.23073E-07-1.88057E-07
 -1      2218-2.23836E-09 1.27908E-07-1.98290E-07
 -1      2219 2.33574E-08 1.35075E-07-2.19856E-07
 -1      2220 9.08904E-08 1.19484E-07-1.99599E-07
 -1      2221 1.18520E-07 6.16151E-08-8.98743E-08
 -1      2222 7.58249E-08 1.90036E-08-1.70805E-08
 -1      2223 3.22270E-08 3.56995E-09 1.86376E-09
 -1      2224-8.96534E-08 6.66114E-08-6.12239E-08
 -1      2225-7.67331E-08 1.18032E-07-1.16846E-07
 -1      2226-4.48480E-08 1.52536E-07-1.47805E-07
 -1      2227-1.85729E-08 1.66617E-07-1.58223E-07
 -1      2228-4.52970E-09 1.69577E-07-1.58559E-07
 -1      2229 9.87158E-10 1.68997E-07-1.56925E-07
 -1      2230 2.88684E-09 1.68130E-07-1.55879E-07
 -1      2231 3.71522E-09 1.67692E-07-1.55526E-07
 -1      2232 4.27923E-09 1.67571E-07-1.55495E-07
 -1      2233 4.74278E-09 1.67582E-07-1.55554E-07
 -1      2234 5.15593E-09 1.67618E-07-1.55617E-07
 -1      2235 5.62840E-09 1.67608E-07-1.55653E-07
 -1      2236 6.36800E-09 1.67427E-07-1.55565E-07
 -1      2237 7.57675E-09 1.66821E-07-1.55059E-07
 -1      2238 8.93550E-09 1.65517E-07-1.53622E-07
 -1      2239 8.53579E-09 1.63899E-07-1.51212E-07
 -1      2240 3.78318E-09 1.64303E-07-1.50710E-07
 -1      2241 5.45062E-10 1.70772E-07-1.59183E-07
 -1      2242 2.39794E-08 1.79910E-07-1.75777E-07
 -1      2243 8.08431E-08 1.58457E-07-1.58509E-07
 -1      2244 1.04221E-07 8.23947E-08-7.23542E-08
 -1      2245 6.92874E-08 2.57139E-08-1.41504E-08
 -1      2246 3.18102E-08 4.89844E-09 1.80474E-09
 -1      2247-7.94822E-08 7.70463E-08-4.58878E-08
 -1      2248-6.93184E-08 1.34447E-07-8.66505E-08
 -1      2249-4.23054E-08 1.73836E-07-1.09507E-07
 -1      2250-1.88690E-08 1.90093E-07-1.17666E-07
 -1      2251-5.45396E-09 1.93634E-07-1.18091E-07
 -1      2252 2.43669E-10 1.93077E-07-1.16916E-07
 -1      2253 2.37887E-09 1.92146E-07-1.16168E-07
 -1      2254 3.33299E-09 1.91685E-07-1.15949E-07
 -1      2255 3.94928E-09 1.91574E-07-1.15968E-07
 -1      2256 4.43499E-09 1.91602E-07-1.16039E-07
 -1      2257 4.86167E-09 1.91651E-07-1.16102E-07
 -1      2258 5.34212E-09 1.91641E-07-1.16137E-07
 -1      2259 6.06686E-09 1.91427E-07-1.16067E-07
 -1      2260 7.18950E-09 1.90717E-07-1.15655E-07
 -1      2261 8.34412E-09 1.89202E-07-1.14497E-07
 -1      2262 7.86265E-09 1.87343E-07-1.12649E-07
 -1      2263 4.13295E-09 1.87828E-07-1.12503E-07
 -1      2264 3.30298E-09 1.95224E-07-1.19178E-07
 -1      2265 2.51673E-08 2.05025E-07-1.30650E-07
 -1      2266 7.20022E-08 1.79589E-07-1.16512E-07
 -1      2267 9.14632E-08 9.44979E-08-5.45837E-08
 -1      2268 6.40705E-08 2.99648E-08-1.12554E-08
 -1      2269 3.21129E-08 5.82897E-09 1.74779E-09
 -1      2270-7.54283E-08 8.31277E-08-3.52538E-08
 -1      2271-6.74417E-08 1.42594E-07-6.54405E-08
 -1      2272-4.29498E-08 1.84400E-07-8.27834E-08
 -1      2273-2.00614E-08 2.01995E-07-8.96467E-08
 -1      2274-6.37838E-09 2.06119E-07-9.03241E-08
 -1      2275-3.03486E-10 2.05738E-07-8.95654E-08
 -1      2276 2.02919E-09 2.04869E-07-8.90708E-08
 -1      2277 3.05596E-09 2.04453E-07-8.89712E-08
 -1      2278 3.69811E-09 2.04383E-07-8.90392E-08
 -1      2279 4.19908E-09 2.04442E-07-8.91295E-08
 -1      2280 4.64194E-09 2.04508E-07-8.91982E-08
 -1      2281 5.14390E-09 2.04499E-07-8.92326E-08
 -1      2282 5.89244E-09 2.04259E-07-8.91703E-08
 -1      2283 7.00923E-09 2.03471E-07-8.88101E-08
 -1      2284 8.05412E-09 2.01817E-07-8.78347E-08
 -1      2285 7.41782E-09 1.99840E-07-8.63822E-08
 -1      2286 4.05583E-09 2.00400E-07-8.65144E-08
 -1      2287 4.78517E-09 2.08158E-07-9.18902E-08
 -1      2288 2.71261E-08 2.17634E-07-9.94712E-08
 -1      2289 6.97405E-08 1.89499E-07-8.72657E-08
 -1      2290 8.77004E-08 1.01279E-07-4.27845E-08
 -1      2291 6.40440E-08 3.29430E-08-9.79217E-09
 -1      2292 3.38925E-08 6.60291E-09 1.56910E-09
 -1      2293-1.31857E-07-1.43026E-07-7.86006E-08
 -1      2294-1.09726E-07-2.45782E-07-1.36029E-07
 -1      2295-7.10682E-08-3.18470E-07-1.73778E-07
 -1      2296-3.40707E-08-3.49038E-07-1.86422E-07
 -1      2297-1.14557E-08-3.56432E-07-1.86392E-07
 -1      2298-7.77822E-10-3.55992E-07-1.83956E-07
 -1      2299 3.78039E-09-3.54637E-07-1.82605E-07
 -1      2300 5.97446E-09-3.54006E-07-1.82301E-07
 -1      2301 7.33021E-09-3.53937E-07-1.82413E-07
 -1      2302 8.32851E-09-3.54069E-07-1.82586E-07
 -1      2303 9.16893E-09-3.54198E-07-1.82726E-07
 -1      2304 1.00700E-08-3.54186E-07-1.82820E-07
 -1      2305 1.13336E-08-3.53765E-07-1.82746E-07
 -1      2306 1.31548E-08-3.52395E-07-1.82053E-07
 -1      2307 1.49388E-08-3.49530E-07-1.79946E-07
 -1      2308 1.44667E-08-3.46063E-07-1.76534E-07
 -1      2309 1.03031E-08-3.46750E-07-1.76547E-07
 -1      2310 1.25636E-08-3.59542E-07-1.89534E-07
 -1      2311 4.72535E-08-3.76858E-07-2.09485E-07
 -1      2312 1.11658E-07-3.29982E-07-1.84479E-07
 -1      2313 1.38917E-07-1.74227E-07-8.66979E-08
 -1      2314 1.03569E-07-5.64298E-08-1.45599E-08
 -1      2315 6.03595E-08-1.16586E-08 5.20293E-09
 -1      2316-1.39271E-07-1.28729E-07-1.02434E-07
 -1      2317-1.12142E-07-2.25580E-07-1.82366E-07
 -1      2318-6.95904E-08-2.92024E-07-2.31905E-07
 -1      2319-3.17213E-08-3.19363E-07-2.46876E-07
 -1      2320-9.73155E-09-3.25519E-07-2.46128E-07
 -1      2321 2.76491E-10-3.24756E-07-2.42772E-07
 -1      2322 4.49843E-09-3.23323E-07-2.40887E-07
 -1      2323 6.57349E-09-3.22633E-07-2.40332E-07
 -1      2324 7.88666E-09-3.22501E-07-2.40334E-07
 -1      2325 8.85896E-09-3.22581E-07-2.40462E-07
 -1      2326 9.67109E-09-3.22679E-07-2.40588E-07
 -1      2327 1.05338E-08-3.22667E-07-2.40682E-07
 -1      2328 1.17522E-08-3.22304E-07-2.40596E-07
 -1      2329 1.35708E-08-3.21100E-07-2.39809E-07
 -1      2330 1.55236E-08-3.18537E-07-2.37346E-07
 -1      2331 1.53609E-08-3.15355E-07-2.33051E-07
 -1      2332 1.07049E-08-3.15913E-07-2.32187E-07
 -1      2333 1.01881E-08-3.27746E-07-2.47729E-07
 -1      2334 4.36769E-08-3.45317E-07-2.77291E-07
 -1      2335 1.15213E-07-3.04774E-07-2.49179E-07
 -1      2336 1.44916E-07-1.57633E-07-1.11117E-07
 -1      2337 1.02962E-07-4.95639E-08-1.65299E-08
 -1      2338 5.70089E-08-9.82731E-09 5.86703E-09
 -1      2339-1.56651E-07-1.09111E-07-1.39055E-07
 -1      2340-1.23530E-07-1.94572E-07-2.53383E-07
 -1      2341-7.30191E-08-2.51689E-07-3.21784E-07
 -1      2342-3.06869E-08-2.74780E-07-3.41485E-07
 -1      2343-7.90877E-09-2.79757E-07-3.40322E-07
 -1      2344 1.70226E-09-2.78911E-07-3.35879E-07
 -1      2345 5.52041E-09-2.77576E-07-3.33329E-07
 -1      2346 7.39011E-09-2.76919E-07-3.32479E-07
 -1      2347 8.62081E-09-2.76764E-07-3.32378E-07
 -1      2348 9.55787E-09-2.76808E-07-3.32479E-07
 -1      2349 1.03466E-08-2.76881E-07-3.32607E-07
 -1      2350 1.11919E-08-2.76870E-07-3.32705E-07
 -1      2351 1.24262E-08-2.76569E-07-3.32581E-07
 -1      2352 1.43716E-08-2.75565E-07-3.31594E-07
 -1      2353 1.66498E-08-2.73404E-07-3.28506E-07
 -1      2354 1.67106E-08-2.70682E-07-3.22853E-07
 -1      2355 1.05266E-08-2.71110E-07-3.20814E-07
 -1      2356 5.67168E-09-2.81230E-07-3.40283E-07
 -1      2357 4.10398E-08-2.97566E-07-3.83387E-07
 -1      2358 1.29442E-07-2.64784E-07-3.49527E-07
 -1      2359 1.65590E-07-1.34495E-07-1.51291E-07
 -1      2360 1.10540E-07-4.13322E-08-2.17149E-08
 -1      2361 5.57056E-08-8.01624E-09 6.42134E-09
 -1      2362-1.75567E-07-8.01728E-08-1.74087E-07
 -1      2363-1.36695E-07-1.44820E-07-3.22162E-07
 -1      2364-7.78989E-08-1.87314E-07-4.09135E-07
 -1      2365-3.03842E-08-2.04264E-07-4.33566E-07
 -1      2366-6.31924E-09-2.07829E-07-4.32070E-07
 -1      2367 3.08034E-09-2.07123E-07-4.26617E-07
 -1      2368 6.53680E-09-2.06089E-07-4.23450E-07
 -1      2369 8.19949E-09-2.05573E-07-4.22337E-07
 -1      2370 9.34414E-09-2.05439E-07-4.22150E-07
 -1      2371 1.02476E-08-2.05461E-07-4.22235E-07
 -1      2372 1.10188E-08-2.05510E-07-4.22369E-07
 -1      2373 1.18586E-08-2.05501E-07-4.22474E-07
 -1      2374 1.31320E-08-2.05283E-07-4.22313E-07
 -1      2375 1.52356E-08-2.04552E-07-4.21126E-07
 -1      2376 1.78481E-08-2.02969E-07-4.17421E-07
 -1      2377 1.80448E-08-2.00962E-07-4.10433E-07
 -1      2378 1.01306E-08-2.01246E-07-4.07238E-07
 -1      2379 1.10381E-09-2.08724E-07-4.30598E-07
 -1      2380 3.93101E-08-2.21548E-07-4.87094E-07
 -1      2381 1.45627E-07-1.98413E-07-4.48110E-07
 -1      2382 1.88813E-07-9.95328E-08-1.90783E-07
 -1      2383 1.20311E-07-3.00676E-08-2.67242E-08
 -1      2384 5.55709E-08-5.75872E-09 7.07895E-09
 -1      2385-1.89554E-07-4.25544E-08-1.98640E-07
 -1      2386-1.46616E-07-7.74461E-08-3.70781E-07
 -1      2387-8.18024E-08-1.00202E-07-4.71075E-07
 -1      2388-3.03848E-08-1.09208E-07-4.98915E-07
 -1      2389-5.24611E-09-1.11081E-07-4.97206E-07
 -1      2390 4.06170E-09-1.10685E-07-4.91048E-07
 -1      2391 7.27269E-09-1.10121E-07-4.87454E-07
 -1      2392 8.78732E-09-1.09838E-07-4.86160E-07
 -1      2393 9.86923E-09-1.09761E-07-4.85917E-07
 -1      2394 1.07491E-08-1.09770E-07-4.85993E-07
 -1      2395 1.15094E-08-1.09794E-07-4.86134E-07
 -1      2396 1.23488E-08-1.09790E-07-4.86243E-07
 -1      2397 1.36569E-08-1.09675E-07-4.86056E-07
 -1      2398 1.58824E-08-1.09288E-07-4.84727E-07
 -1      2399 1.87353E-08-1.08449E-07-4.80580E-07
 -1      2400 1.89950E-08-1.07383E-07-4.72647E-07
 -1      2401 9.78243E-09-1.07526E-07-4.68632E-07
 -1      2402-2.14622E-09-1.11517E-07-4.94814E-07
 -1      2403 3.83500E-08-1.18585E-07-5.60953E-07
 -1      2404 1.57704E-07-1.06605E-07-5.18601E-07
 -1      2405 2.06105E-07-5.31451E-08-2.19091E-07
 -1      2406 1.27950E-07-1.58919E-08-3.02464E-08
 -1      2407 5.58409E-08-3.02416E-09 7.60361E-09
 -1      2408-1.94649E-07-3.55396E-16-2.07370E-07
 -1      2409-1.50254E-07-3.97912E-16-3.88140E-07
 -1      2410-8.32656E-08-3.27864E-16-4.93236E-07
 -1      2411-3.04163E-08-3.07875E-16-5.22307E-07
 -1      2412-4.86853E-09-3.44267E-16-5.20526E-07
 -1      2413 4.41546E-09-3.76588E-16-5.14119E-07
 -1      2414 7.54012E-09-4.29845E-16-5.10372E-07
 -1      2415 9.00150E-09-4.94788E-16-5.09014E-07
 -1      2416 1.00607E-08-5.53017E-16-5.08752E-07
 -1      2417 1.09320E-08-6.03079E-16-5.08825E-07
 -1      2418 1.16887E-08-6.45032E-16-5.08968E-07
 -1      2419 1.25285E-08-6.82418E-16-5.09080E-07
 -1      2420 1.38500E-08-7.08682E-16-5.08883E-07
 -1      2421 1.61205E-08-7.41112E-16-5.07503E-07
 -1      2422 1.90599E-08-7.64788E-16-5.03198E-07
 -1      2423 1.93361E-08-7.73528E-16-4.94927E-07
 -1      2424 9.64727E-09-7.74482E-16-4.90621E-07
 -1      2425-3.30942E-09-8.13366E-16-5.17830E-07
 -1      2426 3.80474E-08-9.44750E-16-5.87447E-07
 -1      2427 1.62109E-07-8.92015E-16-5.43937E-07
 -1      2428 2.12413E-07-3.42302E-16-2.29297E-07
 -1      2429 1.30793E-07-3.86744E-17-3.15041E-08
 -1      2430 5.59932E-08-1.17341E-17 7.80203E-09
 -1      2431-1.89554E-07 4.25544E-08-1.98640E-07
 -1      2432-1.46616E-07 7.74461E-08-3.70781E-07
 -1      2433-8.18024E-08 1.00202E-07-4.71075E-07
 -1      2434-3.03848E-08 1.09208E-07-4.98915E-07
 -1      2435-5.24611E-09 1.11081E-07-4.97206E-07
 -1      2436 4.06170E-09 1.10685E-07-4.91048E-07
 -1      2437 7.27269E-09 1.10121E-07-4.87454E-07
 -1      2438 8.78732E-09 1.09838E-07-4.86160E-07
 -1      2439 9.86923E-09 1.09761E-07-4.85917E-07
 -1      2440 1.07491E-08 1.09770E-07-4.85993E-07
 -1      2441 1.15094E-08 1.09794E-07-4.86134E-07
 -1      2442 1.23488E-08 1.09790E-07-4.86243E-07
 -1      2443 1.36569E-08 1.09675E-07-4.86056E-07
 -1      2444 1.58824E-08 1.09288E-07-4.84727E-07
 -1      2445 1.87353E-08 1.08449E-07-4.80580E-07
 -1      2446 1.89950E-08 1.07383E-07-4.72647E-07
 -1      2447 9.78243E-09 1.07526E-07-4.68632E-07
 -1      2448-2.14622E-09 1.11517E-07-4.94814E-07
 -1      2449 3.83500E-08 1.18585E-07-5.60953E-07
 -1      2450 1.57704E-07 1.06605E-07-5.18601E-07
 -1      2451 2.06105E-07 5.31451E-08-2.19091E-07
 -1      2452 1.27950E-07 1.58919E-08-3.02464E-08
 -1      2453 5.58409E-08 3.02416E-09 7.60361E-09
 -1      2454-1.75567E-07 8.01728E-08-1.74087E-07
 -1      2455-1.36695E-07 1.44820E-07-3.22162E-07
 -1      2456-7.78989E-08 1.87314E-07-4.09135E-07
 -1      2457-3.03842E-08 2.04264E-07-4.33566E-07
 -1      2458-6.31924E-09 2.07829E-07-4.32070E-07
 -1      2459 3.08034E-09 2.07123E-07-4.26617E-07
 -1      2460 6.53680E-09 2.06089E-07-4.23450E-07
 -1      2461 8.19949E-09 2.05573E-07-4.22337E-07
 -1      2462 9.34414E-09 2.05439E-07-4.22150E-07
 -1      2463 1.02476E-08 2.05461E-07-4.22235E-07
 -1      2464 1.10188E-08 2.05510E-07-4.22369E-07
 -1      2465 1.18586E-08 2.05501E-07-4.22474E-07
 -1      2466 1.31320E-08 2.05283E-07-4.22313E-07
 -1      2467 1.52356E-08 2.04552E-07-4.21126E-07
 -1      2468 1.78481E-08 2.02969E-07-4.17421E-07
 -1      2469 1.80448E-08 2.00962E-07-4.10433E-07
 -1      2470 1.01306E-08 2.01246E-07-4.07238E-07
 -1      2471 1.10380E-09 2.08724E-07-4.30598E-07
 -1      2472 3.93101E-08 2.21548E-07-4.87094E-07
 -1      2473 1.45627E-07 1.98413E-07-4.48110E-07
 -1      2474 1.88813E-07 9.95328E-08-1.90783E-07
 -1      2475 1.20311E-07 3.00676E-08-2.67242E-08
 -1      2476 5.55709E-08 5.75872E-09 7.07895E-09
 -1      2477-1.56651E-07 1.09111E-07-1.39055E-07
 -1      2478-1.23530E-07 1.94572E-07-2.53383E-07
 -1      2479-7.30191E-08 2.51689E-07-3.21784E-07
 -1      2480-3.06869E-08 2.74780E-07-3.41485E-07
 -1      2481-7.90877E-09 2.79757E-07-3.40322E-07
 -1      2482 1.70226E-09 2.78911E-07-3.35879E-07
 -1      2483 5.52041E-09 2.77576E-07-3.33329E-07
 -1      2484 7.39011E-09 2.76919E-07-3.32479E-07
 -1      2485 8.62081E-09 2.76764E-07-3.32378E-07
 -1      2486 9.55787E-09 2.76808E-07-3.32479E-07
 -1      2487 1.03466E-08 2.76881E-07-3.32607E-07
 -1      2488 1.11919E-08 2.76870E-07-3.32705E-07
 -1      2489 1.24262E-08 2.76569E-07-3.32581E-07
 -1      2490 1.43716E-08 2.75565E-07-3.31594E-07
 -1      2491 1.66498E-08 2.73404E-07-3.28506E-07
 -1      2492 1.67106E-08 2.70682E-07-3.22853E-07
 -1      2493 1.05266E-08 2.71110E-07-3.20814E-07
 -1      2494 5.67168E-09 2.81230E-07-3.40283E-07
 -1      2495 4.10398E-08 2.97566E-07-3.83387E-07
 -1      2496 1.29442E-07 2.64784E-07-3.49527E-07
 -1      2497 1.65590E-07 1.34495E-07-1.51291E-07
 -1      2498 1.10540E-07 4.13322E-08-2.17149E-08
 -1      2499 5.57056E-08 8.01624E-09 6.42134E-09
 -1      2500-1.39271E-07 1.28729E-07-1.02434E-07
 -1      2501-1.12142E-07 2.25580E-07-1.82366E-07
 -1      2502-6.95904E-08 2.92024E-07-2.31905E-07
 -1      2503-3.17213E-08 3.19363E-07-2.46876E-07
 -1      2504-9.73155E-09 3.25519E-07-2.46128E-07
 -1      2505 2.76491E-10 3.24756E-07-2.42772E-07
 -1      2506 4.49843E-09 3.23323E-07-2.40887E-07
 -1      2507 6.57349E-09 3.22633E-07-2.40332E-07
 -1      2508 7.88666E-09 3.22501E-07-2.40334E-07
 -1      2509 8.85896E-09 3.22581E-07-2.40462E-07
 -1      2510 9.67109E-09 3.22679E-07-2.40588E-07
 -1      2511 1.05338E-08 3.22667E-07-2.40682E-07
 -1      2512 1.17522E-08 3.22304E-07-2.40596E-07
 -1      2513 1.35708E-08 3.21100E-07-2.39809E-07
 -1      2514 1.55236E-08 3.18537E-07-2.37346E-07
 -1      2515 1.53609E-08 3.15355E-07-2.33051E-07
 -1      2516 1.07049E-08 3.15913E-07-2.32187E-07
 -1      2517 1.01881E-08 3.27746E-07-2.47729E-07
 -1      2518 4.36769E-08 3.45317E-07-2.77291E-07
 -1      2519 1.15213E-07 3.04774E-07-2.49179E-07
 -1      2520 1.44916E-07 1.57633E-07-1.11117E-07
 -1      2521 1.02962E-07 4.95639E-08-1.65299E-08
 -1      2522 5.70089E-08 9.82731E-09 5.86703E-09
 -1      2523-1.31857E-07 1.43026E-07-7.86006E-08
 -1      2524-1.09726E-07 2.45782E-07-1.36029E-07
 -1      2525-7.10682E-08 3.18470E-07-1.73778E-07
 -1      2526-3.40707E-08 3.49038E-07-1.86422E-07
 -1      2527-1.14557E-08 3.56432E-07-1.86392E-07
 -1      2528-7.77822E-10 3.55992E-07-1.83956E-07
 -1      2529 3.78039E-09 3.54637E-07-1.82605E-07
 -1      2530 5.97446E-09 3.54006E-07-1.82301E-07
 -1      2531 7.33021E-09 3.53937E-07-1.82413E-07
 -1      2532 8.32851E-09 3.54069E-07-1.82586E-07
 -1      2533 9.16893E-09 3.54198E-07-1.82726E-07
 -1      2534 1.00700E-08 3.54186E-07-1.82820E-07
 -1      2535 1.13336E-08 3.53765E-07-1.82746E-07
 -1      2536 1.31548E-08 3.52395E-07-1.82053E-07
 -1      2537 1.49388E-08 3.49530E-07-1.79946E-07
 -1      2538 1.44667E-08 3.46063E-07-1.76534E-07
 -1      2539 1.03031E-08 3.46750E-07-1.76547E-07
 -1      2540 1.25636E-08 3.59542E-07-1.89534E-07
 -1      2541 4.72535E-08 3.76858E-07-2.09485E-07
 -1      2542 1.11658E-07 3.29982E-07-1.84479E-07
 -1      2543 1.38917E-07 1.74227E-07-8.66979E-08
 -1      2544 1.03569E-07 5.64298E-08-1.45599E-08
 -1      2545 6.03595E-08 1.16586E-08 5.20293E-09
 -1      2546-1.57889E-07-1.60331E-07-1.13013E-07
 -1      2547-1.27933E-07-2.80650E-07-1.90010E-07
 -1      2548-8.29012E-08-3.64246E-07-2.42536E-07
 -1      2549-4.12411E-08-3.98946E-07-2.58303E-07
 -1      2550-1.48498E-08-4.07334E-07-2.56315E-07
 -1      2551-1.35213E-09-4.06957E-07-2.51860E-07
 -1      2552 5.17716E-09-4.05602E-07-2.49557E-07
 -1      2553 8.62062E-09-4.05043E-07-2.48998E-07
 -1      2554 1.07361E-08-4.05073E-07-2.49104E-07
 -1      2555 1.22123E-08-4.05286E-07-2.49320E-07
 -1      2556 1.33898E-08-4.05465E-07-2.49509E-07
 -1      2557 1.45683E-08-4.05467E-07-2.49666E-07
 -1      2558 1.60903E-08-4.04996E-07-2.49632E-07
 -1      2559 1.81908E-08-4.03432E-07-2.48742E-07
 -1      2560 2.04395E-08-4.00105E-07-2.45743E-07
 -1      2561 2.10258E-08-3.95874E-07-2.40564E-07
 -1      2562 1.85898E-08-3.96008E-07-2.40204E-07
 -1      2563 2.21764E-08-4.09833E-07-2.60374E-07
 -1      2564 5.80764E-08-4.33224E-07-2.93423E-07
 -1      2565 1.25698E-07-3.84758E-07-2.59399E-07
 -1      2566 1.54227E-07-1.95812E-07-1.16828E-07
 -1      2567 1.17562E-07-6.12739E-08-1.30119E-08
 -1      2568 7.53699E-08-1.25267E-08 1.02589E-08
 -1      2569-1.67926E-07-1.48587E-07-1.61257E-07
 -1      2570-1.31284E-07-2.66633E-07-2.81669E-07
 -1      2571-8.05692E-08-3.45051E-07-3.57111E-07
 -1      2572-3.77306E-08-3.76673E-07-3.77953E-07
 -1      2573-1.22914E-08-3.83708E-07-3.75090E-07
 -1      2574 2.99289E-10-3.82860E-07-3.69156E-07
 -1      2575 6.38831E-09-3.81326E-07-3.65953E-07
 -1      2576 9.67560E-09-3.80650E-07-3.64973E-07
 -1      2577 1.17350E-08-3.80587E-07-3.64910E-07
 -1      2578 1.31766E-08-3.80736E-07-3.65065E-07
 -1      2579 1.43168E-08-3.80881E-07-3.65241E-07
 -1      2580 1.54448E-08-3.80883E-07-3.65397E-07
 -1      2581 1.69062E-08-3.80467E-07-3.65319E-07
 -1      2582 1.89972E-08-3.79056E-07-3.64206E-07
 -1      2583 2.14476E-08-3.76006E-07-3.60490E-07
 -1      2584 2.25051E-08-3.72004E-07-3.53660E-07
 -1      2585 1.96901E-08-3.71996E-07-3.51539E-07
 -1      2586 1.91424E-08-3.84905E-07-3.75896E-07
 -1      2587 5.25023E-08-4.09669E-07-4.27381E-07
 -1      2588 1.31540E-07-3.68959E-07-3.87861E-07
 -1      2589 1.63780E-07-1.81249E-07-1.65003E-07
 -1      2590 1.16237E-07-5.45326E-08-1.80281E-08
 -1      2591 7.04822E-08-1.07201E-08 1.08211E-08
 -1      2592-1.89933E-07-1.27037E-07-2.24034E-07
 -1      2593-1.44921E-07-2.33410E-07-4.04827E-07
 -1      2594-8.34485E-08-3.01453E-07-5.11838E-07
 -1      2595-3.53862E-08-3.28111E-07-5.39746E-07
 -1      2596-9.42235E-09-3.33685E-07-5.35835E-07
 -1      2597 2.51007E-09-3.32656E-07-5.28037E-07
 -1      2598 8.06620E-09-3.31176E-07-5.23743E-07
 -1      2599 1.11004E-08-3.30500E-07-5.22296E-07
 -1      2600 1.30638E-08-3.30390E-07-5.22073E-07
 -1      2601 1.44641E-08-3.30487E-07-5.22190E-07
 -1      2602 1.55740E-08-3.30598E-07-5.22371E-07
 -1      2603 1.66742E-08-3.30600E-07-5.22536E-07
 -1      2604 1.81412E-08-3.30256E-07-5.22404E-07
 -1      2605 2.03705E-08-3.29075E-07-5.20972E-07
 -1      2606 2.32070E-08-3.26490E-07-5.16235E-07
 -1      2607 2.47019E-08-3.23020E-07-5.07063E-07
 -1      2608 2.04656E-08-3.22872E-07-5.02372E-07
 -1      2609 1.35139E-08-3.33842E-07-5.32332E-07
 -1      2610 4.70125E-08-3.57583E-07-6.10021E-07
 -1      2611 1.50013E-07-3.26921E-07-5.65663E-07
 -1      2612 1.91026E-07-1.55266E-07-2.29893E-07
 -1      2613 1.23661E-07-4.49811E-08-2.38218E-08
 -1      2614 6.74149E-08-8.66853E-09 1.21204E-08
 -1      2615-2.13649E-07-9.32582E-08-2.84186E-07
 -1      2616-1.60715E-07-1.74253E-07-5.25167E-07
 -1      2617-8.80675E-08-2.25032E-07-6.63699E-07
 -1      2618-3.39326E-08-2.44537E-07-6.98704E-07
 -1      2619-6.84807E-09-2.48478E-07-6.93836E-07
 -1      2620 4.65354E-09-2.47599E-07-6.84263E-07
 -1      2621 9.73005E-09-2.46437E-07-6.78944E-07
 -1      2622 1.25115E-08-2.45893E-07-6.77072E-07
 -1      2623 1.43765E-08-2.45786E-07-6.76717E-07
 -1      2624 1.57389E-08-2.45843E-07-6.76812E-07
 -1      2625 1.68265E-08-2.45919E-07-6.77007E-07
 -1      2626 1.79138E-08-2.45920E-07-6.77186E-07
 -1      2627 1.94150E-08-2.45671E-07-6.77001E-07
 -1      2628 2.18216E-08-2.44813E-07-6.75251E-07
 -1      2629 2.50543E-08-2.42923E-07-6.69497E-07
 -1      2630 2.68783E-08-2.40368E-07-6.58009E-07
 -1      2631 2.09727E-08-2.40194E-07-6.50762E-07
 -1      2632 7.83424E-09-2.48303E-07-6.86391E-07
 -1      2633 4.25014E-08-2.67042E-07-7.90367E-07
 -1      2634 1.70709E-07-2.46692E-07-7.42921E-07
 -1      2635 2.21348E-07-1.14970E-07-2.94321E-07
 -1      2636 1.33721E-07-3.24033E-08-2.91561E-08
 -1      2637 6.57246E-08-6.18301E-09 1.36616E-08
 -1      2638-2.30855E-07-4.91740E-08-3.25493E-07
 -1      2639-1.72448E-07-9.27305E-08-6.08707E-07
 -1      2640-9.18419E-08-1.19874E-07-7.69710E-07
 -1      2641-3.31643E-08-1.30208E-07-8.09831E-07
 -1      2642-5.09443E-09-1.32272E-07-8.04345E-07
 -1      2643 6.17646E-09-1.31783E-07-7.93555E-07
 -1      2644 1.09307E-08-1.31149E-07-7.87531E-07
 -1      2645 1.35335E-08-1.30848E-07-7.85371E-07
 -1      2646 1.53276E-08-1.30784E-07-7.84930E-07
 -1      2647 1.66640E-08-1.30810E-07-7.85014E-07
 -1      2648 1.77379E-08-1.30848E-07-7.85221E-07
 -1      2649 1.88205E-08-1.30849E-07-7.85412E-07
 -1      2650 2.03543E-08-1.30718E-07-7.85189E-07
 -1      2651 2.28961E-08-1.30266E-07-7.83214E-07
 -1      2652 2.64103E-08-1.29270E-07-7.76744E-07
 -1      2653 2.84190E-08-1.27927E-07-7.63644E-07
 -1      2654 2.12245E-08-1.27830E-07-7.54632E-07
 -1      2655 3.86805E-09-1.32173E-07-7.94476E-07
 -1      2656 3.97328E-08-1.42396E-07-9.17012E-07
 -1      2657 1.85752E-07-1.32232E-07-8.67889E-07
 -1      2658 2.43433E-07-6.12663E-08-3.40378E-07
 -1      2659 1.41691E-07-1.70325E-08-3.28813E-08
 -1      2660 6.49767E-08-3.23597E-09 1.48653E-08
 -1      2661-2.37011E-07-5.88705E-16-3.39889E-07
 -1      2662-1.76686E-07-5.38805E-16-6.37962E-07
 -1      2663-9.32591E-08-4.04221E-16-8.06986E-07
 -1      2664-3.29300E-08-3.64194E-16-8.48958E-07
 -1      2665-4.47775E-09-4.05318E-16-8.43268E-07
 -1      2666 6.72268E-09-4.23189E-16-8.32054E-07
 -1      2667 1.13650E-08-4.72604E-16-8.25784E-07
 -1      2668 1.39043E-08-5.34635E-16-8.23523E-07
 -1      2669 1.56728E-08-5.83654E-16-8.23052E-07
 -1      2670 1.69999E-08-6.23683E-16-8.23133E-07
 -1      2671 1.80692E-08-6.52279E-16-8.23344E-07
 -1      2672 1.91508E-08-6.79186E-16-8.23540E-07
 -1      2673 2.06976E-08-6.89578E-16-8.23304E-07
 -1      2674 2.32885E-08-7.13960E-16-8.21249E-07
 -1      2675 2.69027E-08-7.28663E-16-8.14525E-07
 -1      2676 2.89681E-08-7.20327E-16-8.00860E-07
 -1      2677 2.12886E-08-6.96576E-16-7.91237E-07
 -1      2678 2.47809E-09-7.07695E-16-8.32641E-07
 -1      2679 3.88422E-08-8.90536E-16-9.61728E-07
 -1      2680 1.91109E-07-9.13576E-16-9.12054E-07
 -1      2681 2.51318E-07-2.24889E-16-3.56888E-07
 -1      2682 1.44664E-07 5.32806E-17-3.42291E-08
 -1      2683 6.47865E-08 8.60636E-18 1.53141E-08
 -1      2684-2.30855E-07 4.91740E-08-3.25493E-07
 -1      2685-1.72448E-07 9.27305E-08-6.08707E-07
 -1      2686-9.18419E-08 1.19874E-07-7.69710E-07
 -1      2687-3.31643E-08 1.30208E-07-8.09831E-07
 -1      2688-5.09443E-09 1.32272E-07-8.04345E-07
 -1      2689 6.17646E-09 1.31783E-07-7.93555E-07
 -1      2690 1.09307E-08 1.31149E-07-7.87531E-07
 -1      2691 1.35335E-08 1.30848E-07-7.85371E-07
 -1      2692 1.53276E-08 1.30784E-07-7.84930E-07
 -1      2693 1.66640E-08 1.30810E-07-7.85014E-07
 -1      2694 1.77379E-08 1.30848E-07-7.85221E-07
 -1      2695 1.88205E-08 1.30849E-07-7.85412E-07
 -1      2696 2.03543E-08 1.30718E-07-7.85189E-07
 -1      2697 2.28961E-08 1.30266E-07-7.83214E-07
 -1      2698 2.64103E-08 1.29270E-07-7.76744E-07
 -1      2699 2.84190E-08 1.27927E-07-7.63644E-07
 -1      2700 2.12245E-08 1.27830E-07-7.54632E-07
 -1      2701 3.86805E-09 1.32173E-07-7.94476E-07
 -1      2702 3.97328E-08 1.42396E-07-9.17012E-07
 -1      2703 1.85752E-07 1.32232E-07-8.67889E-07
 -1      2704 2.43433E-07 6.12663E-08-3.40378E-07
 -1      2705 1.41691E-07 1.70325E-08-3.28813E-08
 -1      2706 6.49767E-08 3.23597E-09 1.48653E-08
 -1      2707-2.13649E-07 9.32582E-08-2.84186E-07
 -1      2708-1.60715E-07 1.74253E-07-5.25167E-07
 -1      2709-8.80675E-08 2.25032E-07-6.63699E-07
 -1      2710-3.39326E-08 2.44537E-07-6.98704E-07
 -1      2711-6.84807E-09 2.48478E-07-6.93836E-07
 -1      2712 4.65354E-09 2.47599E-07-6.84263E-07
 -1      2713 9.73005E-09 2.46437E-07-6.78944E-07
 -1      2714 1.25115E-08 2.45893E-07-6.77072E-07
 -1      2715 1.43765E-08 2.45786E-07-6.76717E-07
 -1      2716 1.57389E-08 2.45843E-07-6.76812E-07
 -1      2717 1.68265E-08 2.45919E-07-6.77007E-07
 -1      2718 1.79138E-08 2.45920E-07-6.77186E-07
 -1      2719 1.94150E-08 2.45671E-07-6.77001E-07
 -1      2720 2.18216E-08 2.44813E-07-6.75251E-07
 -1      2721 2.50543E-08 2.42923E-07-6.69497E-07
 -1      2722 2.68783E-08 2.40368E-07-6.58009E-07
 -1      2723 2.09727E-08 2.40194E-07-6.50762E-07
 -1      2724 7.83424E-09 2.48303E-07-6.86391E-07
 -1      2725 4.25014E-08 2.67042E-07-7.90367E-07
 -1      2726 1.70709E-07 2.46692E-07-7.42921E-07
 -1      2727 2.21348E-07 1.14970E-07-2.94321E-07
 -1      2728 1.33721E-07 3.24033E-08-2.91561E-08
 -1      2729 6.57246E-08 6.18301E-09 1.36616E-08
 -1      2730-1.89933E-07 1.27037E-07-2.24034E-07
 -1      2731-1.44921E-07 2.33410E-07-4.04827E-07
 -1      2732-8.34485E-08 3.01453E-07-5.11838E-07
 -1      2733-3.53862E-08 3.28111E-07-5.39746E-07
 -1      2734-9.42235E-09 3.33685E-07-5.35835E-07
 -1      2735 2.51007E-09 3.32656E-07-5.28037E-07
 -1      2736 8.06620E-09 3.31176E-07-5.23743E-07
 -1      2737 1.11004E-08 3.30500E-07-5.22296E-07
 -1      2738 1.30638E-08 3.30390E-07-5.22073E-07
 -1      2739 1.44641E-08 3.30487E-07-5.22190E-07
 -1      2740 1.55740E-08 3.30598E-07-5.22371E-07
 -1      2741 1.66742E-08 3.30600E-07-5.22536E-07
 -1      2742 1.81412E-08 3.30256E-07-5.22404E-07
 -1      2743 2.03705E-08 3.29075E-07-5.20972E-07
 -1      2744 2.32070E-08 3.26490E-07-5.16235E-07
 -1      2745 2.47019E-08 3.23020E-07-5.07063E-07
 -1      2746 2.04656E-08 3.22872E-07-5.02372E-07
 -1      2747 1.35139E-08 3.33842E-07-5.32332E-07
 -1      2748 4.70125E-08 3.57583E-07-6.10021E-07
 -1      2749 1.50013E-07 3.26921E-07-5.65663E-07
 -1      2750 1.91026E-07 1.55266E-07-2.29893E-07
 -1      2751 1.23661E-07 4.49811E-08-2.38218E-08
 -1      2752 6.74149E-08 8.66853E-09 1.21204E-08
 -1      2753-1.67926E-07 1.48587E-07-1.61257E-07
 -1      2754-1.31284E-07 2.66633E-07-2.81669E-07
 -1      2755-8.05692E-08 3.45051E-07-3.57111E-07
 -1      2756-3.77306E-08 3.76673E-07-3.77953E-07
 -1      2757-1.22914E-08 3.83708E-07-3.75090E-07
 -1      2758 2.99289E-10 3.82860E-07-3.69156E-07
 -1      2759 6.38831E-09 3.81326E-07-3.65953E-07
 -1      2760 9.67560E-09 3.80650E-07-3.64973E-07
 -1      2761 1.17350E-08 3.80587E-07-3.64910E-07
 -1      2762 1.31766E-08 3.80736E-07-3.65065E-07
 -1      2763 1.43168E-08 3.80881E-07-3.65241E-07
 -1      2764 1.54448E-08 3.80883E-07-3.65397E-07
 -1      2765 1.69062E-08 3.80467E-07-3.65319E-07
 -1      2766 1.89972E-08 3.79056E-07-3.64206E-07
 -1      2767 2.14476E-08 3.76006E-07-3.60490E-07
 -1      2768 2.25051E-08 3.72004E-07-3.53660E-07
 -1      2769 1.96901E-08 3.71996E-07-3.51539E-07
 -1      2770 1.91424E-08 3.84905E-07-3.75896E-07
 -1      2771 5.25023E-08 4.09669E-07-4.27381E-07
 -1      2772 1.31540E-07 3.68959E-07-3.87861E-07
 -1      2773 1.63780E-07 1.81249E-07-1.65003E-07
 -1      2774 1.16237E-07 5.45326E-08-1.80281E-08
 -1      2775 7.04822E-08 1.07201E-08 1.08211E-08
 -1      2776-1.57889E-07 1.60331E-07-1.13013E-07
 -1      2777-1.27933E-07 2.80650E-07-1.90010E-07
 -1      2778-8.29012E-08 3.64246E-07-2.42536E-07
 -1      2779-4.12411E-08 3.98946E-07-2.58303E-07
 -1      2780-1.48498E-08 4.07334E-07-2.56315E-07
 -1      2781-1.35213E-09 4.06957E-07-2.51860E-07
 -1      2782 5.17716E-09 4.05602E-07-2.49557E-07
 -1      2783 8.62062E-09 4.05043E-07-2.48998E-07
 -1      2784 1.07361E-08 4.05073E-07-2.49104E-07
 -1      2785 1.22123E-08 4.05286E-07-2.49320E-07
 -1      2786 1.33898E-08 4.05465E-07-2.49509E-07
 -1      2787 1.45683E-08 4.05467E-07-2.49666E-07
 -1      2788 1.60903E-08 4.04996E-07-2.49632E-07
 -1      2789 1.81908E-08 4.03432E-07-2.48742E-07
 -1      2790 2.04395E-08 4.00105E-07-2.45743E-07
 -1      2791 2.10258E-08 3.95874E-07-2.40564E-07
 -1      2792 1.85898E-08 3.96008E-07-2.40204E-07
 -1      2793 2.21764E-08 4.09833E-07-2.60374E-07
 -1      2794 5.80764E-08 4.33224E-07-2.93423E-07
 -1      2795 1.25698E-07 3.84758E-07-2.59399E-07
 -1      2796 1.54227E-07 1.95812E-07-1.16828E-07
 -1      2797 1.17562E-07 6.12739E-08-1.30119E-08
 -1      2798 7.53699E-08 1.25267E-08 1.02589E-08
 -1      2799-1.54022E-07-1.33998E-07-1.34598E-07
 -1      2800-1.23183E-07-2.41812E-07-2.22129E-07
 -1      2801-8.05818E-08-3.15381E-07-2.82839E-07
 -1      2802-4.25141E-08-3.46004E-07-2.99525E-07
 -1      2803-1.69436E-08-3.53592E-07-2.95395E-07
 -1      2804-2.11559E-09-3.53590E-07-2.89160E-07
 -1      2805 6.12270E-09-3.52767E-07-2.86013E-07
 -1      2806 1.08201E-08-3.52578E-07-2.85179E-07
 -1      2807 1.36790E-08-3.52810E-07-2.85223E-07
 -1      2808 1.55792E-08-3.53117E-07-2.85434E-07
 -1      2809 1.70199E-08-3.53338E-07-2.85641E-07
 -1      2810 1.83598E-08-3.53370E-07-2.85844E-07
 -1      2811 1.99113E-08-3.52967E-07-2.85864E-07
 -1      2812 2.18960E-08-3.51567E-07-2.84897E-07
 -1      2813 2.42515E-08-3.48524E-07-2.81371E-07
 -1      2814 2.64313E-08-3.44435E-07-2.75053E-07
 -1      2815 2.80373E-08-3.43901E-07-2.74303E-07
 -1      2816 3.37837E-08-3.54909E-07-2.99828E-07
 -1      2817 6.14206E-08-3.79023E-07-3.43074E-07
 -1      2818 1.13792E-07-3.43964E-07-3.02566E-07
 -1      2819 1.35888E-07-1.65982E-07-1.33186E-07
 -1      2820 1.08656E-07-5.00577E-08-8.75485E-09
 -1      2821 8.02415E-08-9.96850E-09 1.49347E-08
 -1      2822-1.63813E-07-1.31127E-07-2.10556E-07
 -1      2823-1.25651E-07-2.45905E-07-3.66370E-07
 -1      2824-7.63933E-08-3.17953E-07-4.62211E-07
 -1      2825-3.75730E-08-3.46411E-07-4.86658E-07
 -1      2826-1.34514E-08-3.52662E-07-4.81498E-07
 -1      2827 2.90335E-10-3.51977E-07-4.73203E-07
 -1      2828 8.03287E-09-3.50809E-07-4.68780E-07
 -1      2829 1.25638E-08-3.50407E-07-4.67357E-07
 -1      2830 1.53631E-08-3.50509E-07-4.67176E-07
 -1      2831 1.72245E-08-3.50740E-07-4.67317E-07
 -1      2832 1.86217E-08-3.50924E-07-4.67514E-07
 -1      2833 1.99012E-08-3.50955E-07-4.67715E-07
 -1      2834 2.13730E-08-3.50589E-07-4.67656E-07
 -1      2835 2.33214E-08-3.49284E-07-4.66318E-07
 -1      2836 2.58587E-08-3.46412E-07-4.61669E-07
 -1      2837 2.85802E-08-3.42339E-07-4.52876E-07
 -1      2838 3.03280E-08-3.41544E-07-4.49210E-07
 -1      2839 3.12772E-08-3.51571E-07-4.79648E-07
 -1      2840 5.38903E-08-3.79656E-07-5.52818E-07
 -1      2841 1.20440E-07-3.55664E-07-5.06962E-07
 -1      2842 1.46562E-07-1.58090E-07-2.05872E-07
 -1      2843 1.04810E-07-4.48368E-08-1.61075E-08
 -1      2844 7.39060E-08-8.74839E-09 1.50376E-08
 -1      2845-1.86206E-07-1.16488E-07-3.07556E-07
 -1      2846-1.38390E-07-2.26478E-07-5.62192E-07
 -1      2847-7.64495E-08-2.91219E-07-7.05404E-07
 -1      2848-3.31353E-08-3.15548E-07-7.39111E-07
 -1      2849-9.26961E-09-3.20373E-07-7.31990E-07
 -1      2850 3.54886E-09-3.19346E-07-7.20833E-07
 -1      2851 1.06751E-08-3.18090E-07-7.14800E-07
 -1      2852 1.49507E-08-3.17603E-07-7.12711E-07
 -1      2853 1.76611E-08-3.17617E-07-7.12315E-07
 -1      2854 1.94843E-08-3.17781E-07-7.12411E-07
 -1      2855 2.08473E-08-3.17926E-07-7.12623E-07
 -1      2856 2.20874E-08-3.17954E-07-7.12842E-07
 -1      2857 2.35388E-08-3.17647E-07-7.12706E-07
 -1      2858 2.55940E-08-3.16529E-07-7.10900E-07
 -1      2859 2.85176E-08-3.14039E-07-7.04715E-07
 -1      2860 3.17738E-08-3.10371E-07-6.92326E-07
 -1      2861 3.30810E-08-3.09377E-07-6.84064E-07
 -1      2862 2.63410E-08-3.17784E-07-7.20018E-07
 -1      2863 4.39454E-08-3.46338E-07-8.38738E-07
 -1      2864 1.40859E-07-3.34278E-07-7.98111E-07
 -1      2865 1.77130E-07-1.38586E-07-2.97593E-07
 -1      2866 1.07834E-07-3.68232E-08-2.03717E-08
 -1      2867 6.85307E-08-7.17364E-09 1.66606E-08
 -1      2868-2.10463E-07-8.52405E-08-3.99299E-07
 -1      2869-1.53580E-07-1.69633E-07-7.53228E-07
 -1      2870-7.83868E-08-2.18295E-07-9.43918E-07
 -1      2871-2.96537E-08-2.36144E-07-9.86736E-07
 -1      2872-5.41990E-09-2.39551E-07-9.77691E-07
 -1      2873 6.72562E-09-2.38674E-07-9.63771E-07
 -1      2874 1.32960E-08-2.37665E-07-9.56213E-07
 -1      2875 1.73189E-08-2.37250E-07-9.53514E-07
 -1      2876 1.99400E-08-2.37227E-07-9.52938E-07
 -1      2877 2.17302E-08-2.37331E-07-9.53012E-07
 -1      2878 2.30687E-08-2.37433E-07-9.53250E-07
 -1      2879 2.42860E-08-2.37452E-07-9.53497E-07
 -1      2880 2.57489E-08-2.37230E-07-9.53294E-07
 -1      2881 2.79528E-08-2.36416E-07-9.51031E-07
 -1      2882 3.12748E-08-2.34599E-07-9.43329E-07
 -1      2883 3.49492E-08-2.31936E-07-9.27415E-07
 -1      2884 3.55339E-08-2.31124E-07-9.14534E-07
 -1      2885 2.13906E-08-2.37483E-07-9.56267E-07
 -1      2886 3.47138E-08-2.59667E-07-1.12073E-06
 -1      2887 1.63568E-07-2.54647E-07-1.09049E-06
 -1      2888 2.11371E-07-1.03216E-07-3.88477E-07
 -1      2889 1.13690E-07-2.63719E-08-2.31976E-08
 -1      2890 6.45712E-08-5.15217E-09 1.88011E-08
 -1      2891-2.26933E-07-4.34062E-08-4.57858E-07
 -1      2892-1.64245E-07-8.72484E-08-8.76827E-07
 -1      2893-8.02245E-08-1.12881E-07-1.10011E-06
 -1      2894-2.75218E-08-1.22292E-07-1.14943E-06
 -1      2895-2.82373E-09-1.24127E-07-1.13926E-06
 -1      2896 8.93822E-09-1.23684E-07-1.12357E-06
 -1      2897 1.51513E-08-1.23150E-07-1.11502E-06
 -1      2898 1.90015E-08-1.22921E-07-1.11193E-06
 -1      2899 2.15604E-08-1.22901E-07-1.11124E-06
 -1      2900 2.33287E-08-1.22951E-07-1.11130E-06
 -1      2901 2.46527E-08-1.23002E-07-1.11156E-06
 -1      2902 2.58582E-08-1.23011E-07-1.11183E-06
 -1      2903 2.73385E-08-1.22894E-07-1.11157E-06
 -1      2904 2.96522E-08-1.22472E-07-1.10901E-06
 -1      2905 3.32329E-08-1.21533E-07-1.10029E-06
 -1      2906 3.71614E-08-1.20212E-07-1.08210E-06
 -1      2907 3.69749E-08-1.19821E-07-1.06622E-06
 -1      2908 1.81533E-08-1.23405E-07-1.11285E-06
 -1      2909 2.94139E-08-1.34728E-07-1.30730E-06
 -1      2910 1.78634E-07-1.32354E-07-1.28368E-06
 -1      2911 2.34418E-07-5.46646E-08-4.52209E-07
 -1      2912 1.18835E-07-1.38401E-08-2.53186E-08
 -1      2913 6.23270E-08-2.70909E-09 2.05321E-08
 -1      2914-2.32414E-07-8.72078E-16-4.76760E-07
 -1      2915-1.67843E-07-6.13368E-16-9.16910E-07
 -1      2916-8.09222E-08-4.07543E-16-1.15137E-06
 -1      2917-2.68166E-08-3.37416E-16-1.20301E-06
 -1      2918-1.92082E-09-3.72359E-16-1.19251E-06
 -1      2919 9.72065E-09-3.43039E-16-1.17626E-06
 -1      2920 1.58150E-08-3.66735E-16-1.16739E-06
 -1      2921 1.96058E-08-3.90876E-16-1.16416E-06
 -1      2922 2.21430E-08-3.99791E-16-1.16343E-06
 -1      2923 2.39038E-08-3.98858E-16-1.16349E-06
 -1      2924 2.52231E-08-3.84267E-16-1.16376E-06
 -1      2925 2.64249E-08-3.75897E-16-1.16403E-06
 -1      2926 2.79124E-08-3.46371E-16-1.16376E-06
 -1      2927 3.02647E-08-3.40139E-16-1.16109E-06
 -1      2928 3.39287E-08-3.32610E-16-1.15204E-06
 -1      2929 3.79401E-08-2.87673E-16-1.13311E-06
 -1      2930 3.74143E-08-2.27143E-16-1.11624E-06
 -1      2931 1.70694E-08-1.71690E-16-1.16489E-06
 -1      2932 2.79642E-08-3.54166E-16-1.36912E-06
 -1      2933 1.83508E-07-4.86667E-16-1.34714E-06
 -1      2934 2.41919E-07 9.82065E-17-4.74590E-07
 -1      2935 1.20858E-07 1.99743E-16-2.62211E-08
 -1      2936 6.16247E-08 3.89813E-17 2.12088E-08
 -1      2937-2.26933E-07 4.34062E-08-4.57858E-07
 -1      2938-1.64245E-07 8.72484E-08-8.76827E-07
 -1      2939-8.02245E-08 1.12881E-07-1.10011E-06
 -1      2940-2.75218E-08 1.22292E-07-1.14943E-06
 -1      2941-2.82373E-09 1.24127E-07-1.13926E-06
 -1      2942 8.93822E-09 1.23684E-07-1.12357E-06
 -1      2943 1.51513E-08 1.23150E-07-1.11502E-06
 -1      2944 1.90015E-08 1.22921E-07-1.11193E-06
 -1      2945 2.15604E-08 1.22901E-07-1.11124E-06
 -1      2946 2.33287E-08 1.22951E-07-1.11130E-06
 -1      2947 2.46527E-08 1.23002E-07-1.11156E-06
 -1      2948 2.58582E-08 1.23011E-07-1.11183E-06
 -1      2949 2.73385E-08 1.22894E-07-1.11157E-06
 -1      2950 2.96522E-08 1.22472E-07-1.10901E-06
 -1      2951 3.32329E-08 1.21533E-07-1.10029E-06
 -1      2952 3.71614E-08 1.20212E-07-1.08210E-06
 -1      2953 3.69749E-08 1.19821E-07-1.06622E-06
 -1      2954 1.81533E-08 1.23405E-07-1.11285E-06
 -1      2955 2.94139E-08 1.34728E-07-1.30730E-06
 -1      2956 1.78634E-07 1.32354E-07-1.28368E-06
 -1      2957 2.34418E-07 5.46646E-08-4.52209E-07
 -1      2958 1.18835E-07 1.38401E-08-2.53186E-08
 -1      2959 6.23270E-08 2.70909E-09 2.05321E-08
 -1      2960-2.10463E-07 8.52405E-08-3.99299E-07
 -1      2961-1.53580E-07 1.69633E-07-7.53228E-07
 -1      2962-7.83868E-08 2.18295E-07-9.43918E-07
 -1      2963-2.96537E-08 2.36144E-07-9.86736E-07
 -1      2964-5.41990E-09 2.39551E-07-9.77691E-07
 -1      2965 6.72562E-09 2.38674E-07-9.63771E-07
 -1      2966 1.32960E-08 2.37665E-07-9.56213E-07
 -1      2967 1.73189E-08 2.37250E-07-9.53514E-07
 -1      2968 1.99400E-08 2.37227E-07-9.52938E-07
 -1      2969 2.17302E-08 2.37331E-07-9.53012E-07
 -1      2970 2.30687E-08 2.37433E-07-9.53250E-07
 -1      2971 2.42860E-08 2.37452E-07-9.53497E-07
 -1      2972 2.57489E-08 2.37230E-07-9.53294E-07
 -1      2973 2.79528E-08 2.36416E-07-9.51031E-07
 -1      2974 3.12748E-08 2.34599E-07-9.43329E-07
 -1      2975 3.49492E-08 2.31936E-07-9.27415E-07
 -1      2976 3.55339E-08 2.31124E-07-9.14534E-07
 -1      2977 2.13906E-08 2.37483E-07-9.56267E-07
 -1      2978 3.47138E-08 2.59667E-07-1.12073E-06
 -1      2979 1.63568E-07 2.54647E-07-1.09049E-06
 -1      2980 2.11371E-07 1.03216E-07-3.88477E-07
 -1      2981 1.13690E-07 2.63719E-08-2.31976E-08
 -1      2982 6.45712E-08 5.15217E-09 1.88011E-08
 -1      2983-1.86206E-07 1.16488E-07-3.07556E-07
 -1      2984-1.38390E-07 2.26478E-07-5.62192E-07
 -1      2985-7.64495E-08 2.91219E-07-7.05404E-07
 -1      2986-3.31353E-08 3.15548E-07-7.39111E-07
 -1      2987-9.26961E-09 3.20373E-07-7.31990E-07
 -1      2988 3.54886E-09 3.19346E-07-7.20833E-07
 -1      2989 1.06751E-08 3.18090E-07-7.14800E-07
 -1      2990 1.49507E-08 3.17603E-07-7.12711E-07
 -1      2991 1.76611E-08 3.17617E-07-7.12315E-07
 -1      2992 1.94843E-08 3.17781E-07-7.12411E-07
 -1      2993 2.08473E-08 3.17926E-07-7.12623E-07
 -1      2994 2.20874E-08 3.17954E-07-7.12842E-07
 -1      2995 2.35388E-08 3.17647E-07-7.12706E-07
 -1      2996 2.55940E-08 3.16529E-07-7.10900E-07
 -1      2997 2.85176E-08 3.14039E-07-7.04715E-07
 -1      2998 3.17738E-08 3.10371E-07-6.92326E-07
 -1      2999 3.30810E-08 3.09377E-07-6.84064E-07
 -1      3000 2.63410E-08 3.17784E-07-7.20018E-07
 -1      3001 4.39454E-08 3.46338E-07-8.38738E-07
 -1      3002 1.40859E-07 3.34278E-07-7.98111E-07
 -1      3003 1.77130E-07 1.38586E-07-2.97593E-07
 -1      3004 1.07834E-07 3.68232E-08-2.03717E-08
 -1      3005 6.85307E-08 7.17364E-09 1.66606E-08
 -1      3006-1.63813E-07 1.31127E-07-2.10556E-07
 -1      3007-1.25651E-07 2.45905E-07-3.66370E-07
 -1      3008-7.63933E-08 3.17953E-07-4.62211E-07
 -1      3009-3.75730E-08 3.46411E-07-4.86658E-07
 -1      3010-1.34514E-08 3.52662E-07-4.81498E-07
 -1      3011 2.90335E-10 3.51977E-07-4.73203E-07
 -1      3012 8.03287E-09 3.50809E-07-4.68780E-07
 -1      3013 1.25638E-08 3.50407E-07-4.67357E-07
 -1      3014 1.53631E-08 3.50509E-07-4.67176E-07
 -1      3015 1.72245E-08 3.50740E-07-4.67317E-07
 -1      3016 1.86217E-08 3.50924E-07-4.67514E-07
 -1      3017 1.99012E-08 3.50955E-07-4.67715E-07
 -1      3018 2.13730E-08 3.50589E-07-4.67656E-07
 -1      3019 2.33214E-08 3.49284E-07-4.66318E-07
 -1      3020 2.58587E-08 3.46412E-07-4.61669E-07
 -1      3021 2.85802E-08 3.42339E-07-4.52876E-07
 -1      3022 3.03280E-08 3.41544E-07-4.49210E-07
 -1      3023 3.12772E-08 3.51571E-07-4.79648E-07
 -1      3024 5.38903E-08 3.79656E-07-5.52818E-07
 -1      3025 1.20440E-07 3.55664E-07-5.06962E-07
 -1      3026 1.46562E-07 1.58090E-07-2.05872E-07
 -1      3027 1.04810E-07 4.48368E-08-1.61075E-08
 -1      3028 7.39060E-08 8.74839E-09 1.50376E-08
 -1      3029-1.54022E-07 1.33998E-07-1.34598E-07
 -1      3030-1.23183E-07 2.41812E-07-2.22129E-07
 -1      3031-8.05818E-08 3.15381E-07-2.82839E-07
 -1      3032-4.25141E-08 3.46004E-07-2.99525E-07
 -1      3033-1.69436E-08 3.53592E-07-2.95395E-07
 -1      3034-2.11559E-09 3.53590E-07-2.89160E-07
 -1      3035 6.12270E-09 3.52767E-07-2.86013E-07
 -1      3036 1.08201E-08 3.52578E-07-2.85179E-07
 -1      3037 1.36790E-08 3.52810E-07-2.85223E-07
 -1      3038 1.55792E-08 3.53117E-07-2.85434E-07
 -1      3039 1.70199E-08 3.53338E-07-2.85641E-07
 -1      3040 1.83598E-08 3.53370E-07-2.85844E-07
 -1      3041 1.99113E-08 3.52967E-07-2.85864E-07
 -1      3042 2.18960E-08 3.51567E-07-2.84897E-07
 -1      3043 2.42515E-08 3.48524E-07-2.81371E-07
 -1      3044 2.64313E-08 3.44435E-07-2.75053E-07
 -1      3045 2.80373E-08 3.43901E-07-2.74303E-07
 -1      3046 3.37837E-08 3.54909E-07-2.99828E-07
 -1      3047 6.14206E-08 3.79023E-07-3.43074E-07
 -1      3048 1.13792E-07 3.43964E-07-3.02566E-07
 -1      3049 1.35888E-07 1.65982E-07-1.33186E-07
 -1      3050 1.08656E-07 5.00577E-08-8.75486E-09
 -1      3051 8.02415E-08 9.96850E-09 1.49347E-08
 -1      3052-1.27667E-07-6.38536E-08-1.42919E-07
 -1      3053-1.00613E-07-1.20120E-07-2.30785E-07
 -1      3054-6.86018E-08-1.62691E-07-2.93793E-07
 -1      3055-4.05688E-08-1.82748E-07-3.10248E-07
 -1      3056-1.87145E-08-1.88930E-07-3.04752E-07
 -1      3057-3.36498E-09-1.90047E-07-2.97401E-07
 -1      3058 6.39847E-09-1.90354E-07-2.93625E-07
 -1      3059 1.22435E-08-1.90814E-07-2.92505E-07
 -1      3060 1.57312E-08-1.91334E-07-2.92425E-07
 -1      3061 1.79500E-08-1.91743E-07-2.92583E-07
 -1      3062 1.95665E-08-1.91992E-07-2.92776E-07
 -1      3063 2.09767E-08-1.92059E-07-2.92997E-07
 -1      3064 2.23995E-08-1.91807E-07-2.93052E-07
 -1      3065 2.39481E-08-1.90874E-07-2.92084E-07
 -1      3066 2.59285E-08-1.88862E-07-2.88404E-07
 -1      3067 2.95479E-08-1.86247E-07-2.81871E-07
 -1      3068 3.69130E-08-1.85967E-07-2.81190E-07
 -1      3069 4.79836E-08-1.91212E-07-3.09763E-07
 -1      3070 6.20521E-08-2.03269E-07-3.56759E-07
 -1      3071 8.07184E-08-1.87752E-07-3.09545E-07
 -1      3072 8.91785E-08-8.98816E-08-1.39365E-07
 -1      3073 8.38713E-08-2.92167E-08-5.91540E-09
 -1      3074 7.97209E-08-5.91142E-09 1.75140E-08
 -1      3075-1.27835E-07-7.09410E-08-2.39653E-07
 -1      3076-9.46836E-08-1.43596E-07-4.14291E-07
 -1      3077-5.97557E-08-1.87735E-07-5.21102E-07
 -1      3078-3.37897E-08-2.06663E-07-5.46917E-07
 -1      3079-1.42505E-08-2.11581E-07-5.40344E-07
 -1      3080-8.33594E-11-2.11845E-07-5.30539E-07
 -1      3081 9.25534E-09-2.11641E-07-5.25231E-07
 -1      3082 1.49960E-08-2.11791E-07-5.23406E-07
 -1      3083 1.84520E-08-2.12139E-07-5.23062E-07
 -1      3084 2.06403E-08-2.12458E-07-5.23142E-07
 -1      3085 2.22120E-08-2.12668E-07-5.23327E-07
 -1      3086 2.35503E-08-2.12726E-07-5.23543E-07
 -1      3087 2.48570E-08-2.12491E-07-5.23487E-07
 -1      3088 2.62745E-08-2.11577E-07-5.22043E-07
 -1      3089 2.82749E-08-2.09639E-07-5.16939E-07
 -1      3090 3.22669E-08-2.06823E-07-5.07382E-07
 -1      3091 4.04669E-08-2.06267E-07-5.02919E-07
 -1      3092 4.93027E-08-2.09916E-07-5.35876E-07
 -1      3093 5.66046E-08-2.27895E-07-6.22806E-07
 -1      3094 7.85198E-08-2.28881E-07-5.70423E-07
 -1      3095 8.59772E-08-8.65036E-08-2.28840E-07
 -1      3096 7.35550E-08-2.64131E-08-1.41784E-08
 -1      3097 7.24706E-08-5.59171E-09 1.68061E-08
 -1      3098-1.40502E-07-7.01283E-08-3.82605E-07
 -1      3099-9.79070E-08-1.51888E-07-7.16035E-07
 -1      3100-5.26651E-08-1.94008E-07-8.88897E-07
 -1      3101-2.63746E-08-2.10431E-07-9.25830E-07
 -1      3102-8.26309E-09-2.14020E-07-9.15949E-07
 -1      3103 4.72454E-09-2.13691E-07-9.01828E-07
 -1      3104 1.35001E-08-2.13177E-07-8.94242E-07
 -1      3105 1.90665E-08-2.13119E-07-8.91498E-07
 -1      3106 2.24757E-08-2.13330E-07-8.90876E-07
 -1      3107 2.46432E-08-2.13567E-07-8.90910E-07
 -1      3108 2.61825E-08-2.13737E-07-8.91122E-07
 -1      3109 2.74640E-08-2.13790E-07-8.91370E-07
 -1      3110 2.87082E-08-2.13590E-07-8.91209E-07
 -1      3111 3.00934E-08-2.12774E-07-8.89097E-07
 -1      3112 3.23758E-08-2.11040E-07-8.81807E-07
 -1      3113 3.66542E-08-2.08308E-07-8.66737E-07
 -1      3114 4.57360E-08-2.07370E-07-8.55501E-07
 -1      3115 5.02693E-08-2.09609E-07-8.89453E-07
 -1      3116 4.39253E-08-2.30152E-07-1.05047E-06
 -1      3117 9.20817E-08-2.50065E-07-1.03645E-06
 -1      3118 1.05396E-07-7.63658E-08-3.42919E-07
 -1      3119 6.46657E-08-2.16712E-08-1.45140E-08
 -1      3120 6.59011E-08-4.91622E-09 1.75064E-08
 -1      3121-1.55916E-07-4.60607E-08-5.16777E-07
 -1      3122-1.04513E-07-1.03602E-07-1.01220E-06
 -1      3123-4.77687E-08-1.33863E-07-1.25230E-06
 -1      3124-1.99815E-08-1.45672E-07-1.30001E-06
 -1      3125-2.64327E-09-1.48418E-07-1.28691E-06
 -1      3126 9.45753E-09-1.48249E-07-1.26864E-06
 -1      3127 1.77268E-08-1.47859E-07-1.25888E-06
 -1      3128 2.31171E-08-1.47777E-07-1.25529E-06
 -1      3129 2.64773E-08-1.47899E-07-1.25444E-06
 -1      3130 2.86290E-08-1.48055E-07-1.25446E-06
 -1      3131 3.01457E-08-1.48172E-07-1.25472E-06
 -1      3132 3.13898E-08-1.48208E-07-1.25502E-06
 -1      3133 3.26044E-08-1.48060E-07-1.25478E-06
 -1      3134 3.40189E-08-1.47496E-07-1.25203E-06
 -1      3135 3.65710E-08-1.46289E-07-1.24258E-06
 -1      3136 4.11019E-08-1.44657E-07-1.22221E-06
 -1      3137 5.05067E-08-1.44007E-07-1.20407E-06
 -1      3138 5.14698E-08-1.46392E-07-1.24022E-06
 -1      3139 3.12911E-08-1.59161E-07-1.47354E-06
 -1      3140 1.08604E-07-1.75864E-07-1.51310E-06
 -1      3141 1.30713E-07-5.57141E-08-4.57232E-07
 -1      3142 5.89468E-08-1.54299E-08-1.21210E-08
 -1      3143 6.08418E-08-3.78114E-09 1.88866E-08
 -1      3144-1.62890E-07-1.81379E-08-5.84792E-07
 -1      3145-1.07075E-07-4.18315E-08-1.16519E-06
 -1      3146-4.48603E-08-5.61206E-08-1.44608E-06
 -1      3147-1.60390E-08-6.21641E-08-1.50117E-06
 -1      3148 9.15022E-10-6.38161E-08-1.48675E-06
 -1      3149 1.25348E-08-6.38936E-08-1.46637E-06
 -1      3150 2.05236E-08-6.37502E-08-1.45545E-06
 -1      3151 2.58093E-08-6.37164E-08-1.45139E-06
 -1      3152 2.91411E-08-6.37744E-08-1.45040E-06
 -1      3153 3.12842E-08-6.38490E-08-1.45041E-06
 -1      3154 3.27879E-08-6.39044E-08-1.45070E-06
 -1      3155 3.40117E-08-6.39190E-08-1.45103E-06
 -1      3156 3.52056E-08-6.38392E-08-1.45072E-06
 -1      3157 3.66522E-08-6.35671E-08-1.44761E-06
 -1      3158 3.92738E-08-6.30073E-08-1.43693E-06
 -1      3159 4.39918E-08-6.24526E-08-1.41398E-06
 -1      3160 5.31499E-08-6.23132E-08-1.39177E-06
 -1      3161 5.22409E-08-6.41335E-08-1.43338E-06
 -1      3162 2.73336E-08-6.84917E-08-1.70514E-06
 -1      3163 1.14839E-07-7.31726E-08-1.76586E-06
 -1      3164 1.40840E-07-2.82557E-08-5.34510E-07
 -1      3165 5.73117E-08-8.10419E-09-1.15543E-08
 -1      3166 5.76111E-08-2.07591E-09 2.05039E-08
 -1      3167-1.64987E-07-1.06573E-15-6.02478E-07
 -1      3168-1.07871E-07-5.66773E-16-1.20552E-06
 -1      3169-4.40067E-08-3.11843E-16-1.49906E-06
 -1      3170-1.48479E-08-2.05626E-16-1.55676E-06
 -1      3171 2.00800E-09-1.56194E-16-1.54209E-06
 -1      3172 1.34745E-08-1.22657E-16-1.52116E-06
 -1      3173 2.13727E-08-5.64423E-17-1.50991E-06
 -1      3174 2.66240E-08-1.09602E-17-1.50571E-06
 -1      3175 2.99460E-08 1.28062E-16-1.50468E-06
 -1      3176 3.20862E-08 1.72132E-16-1.50468E-06
 -1      3177 3.35860E-08 2.77506E-16-1.50498E-06
 -1      3178 3.48023E-08 3.70667E-16-1.50531E-06
 -1      3179 3.59919E-08 4.36035E-16-1.50498E-06
 -1      3180 3.74450E-08 5.36552E-16-1.50176E-06
 -1      3181 4.00914E-08 6.01548E-16-1.49072E-06
 -1      3182 4.48573E-08 7.27705E-16-1.46709E-06
 -1      3183 5.38855E-08 8.02346E-16-1.44372E-06
 -1      3184 5.24510E-08 1.00559E-15-1.48805E-06
 -1      3185 2.62076E-08 9.51960E-16-1.77066E-06
 -1      3186 1.16402E-07 7.92898E-16-1.83393E-06
 -1      3187 1.43600E-07 7.00826E-16-5.60614E-07
 -1      3188 5.68770E-08 3.65219E-16-1.18387E-08
 -1      3189 5.65894E-08 6.56581E-17 2.12401E-08
 -1      3190-1.62890E-07 1.81379E-08-5.84792E-07
 -1      3191-1.07075E-07 4.18315E-08-1.16519E-06
 -1      3192-4.48603E-08 5.61206E-08-1.44608E-06
 -1      3193-1.60390E-08 6.21641E-08-1.50117E-06
 -1      3194 9.15022E-10 6.38161E-08-1.48675E-06
 -1      3195 1.25348E-08 6.38936E-08-1.46637E-06
 -1      3196 2.05236E-08 6.37502E-08-1.45545E-06
 -1      3197 2.58093E-08 6.37164E-08-1.45139E-06
 -1      3198 2.91411E-08 6.37744E-08-1.45040E-06
 -1      3199 3.12842E-08 6.38490E-08-1.45041E-06
 -1      3200 3.27879E-08 6.39044E-08-1.45070E-06
 -1      3201 3.40117E-08 6.39190E-08-1.45103E-06
 -1      3202 3.52056E-08 6.38392E-08-1.45072E-06
 -1      3203 3.66522E-08 6.35671E-08-1.44761E-06
 -1      3204 3.92738E-08 6.30073E-08-1.43693E-06
 -1      3205 4.39918E-08 6.24526E-08-1.41398E-06
 -1      3206 5.31499E-08 6.23133E-08-1.39177E-06
 -1      3207 5.22409E-08 6.41335E-08-1.43338E-06
 -1      3208 2.73336E-08 6.84917E-08-1.70514E-06
 -1      3209 1.14839E-07 7.31726E-08-1.76586E-06
 -1      3210 1.40840E-07 2.82557E-08-5.34510E-07
 -1      3211 5.73117E-08 8.10419E-09-1.15543E-08
 -1      3212 5.76111E-08 2.07591E-09 2.05039E-08
 -1      3213-1.55916E-07 4.60607E-08-5.16777E-07
 -1      3214-1.04513E-07 1.03602E-07-1.01220E-06
 -1      3215-4.77687E-08 1.33863E-07-1.25230E-06
 -1      3216-1.99815E-08 1.45672E-07-1.30001E-06
 -1      3217-2.64327E-09 1.48418E-07-1.28691E-06
 -1      3218 9.45753E-09 1.48249E-07-1.26864E-06
 -1      3219 1.77268E-08 1.47859E-07-1.25888E-06
 -1      3220 2.31171E-08 1.47777E-07-1.25529E-06
 -1      3221 2.64773E-08 1.47899E-07-1.25444E-06
 -1      3222 2.86290E-08 1.48055E-07-1.25446E-06
 -1      3223 3.01457E-08 1.48172E-07-1.25472E-06
 -1      3224 3.13898E-08 1.48208E-07-1.25502E-06
 -1      3225 3.26044E-08 1.48060E-07-1.25478E-06
 -1      3226 3.40189E-08 1.47496E-07-1.25203E-06
 -1      3227 3.65710E-08 1.46289E-07-1.24258E-06
 -1      3228 4.11019E-08 1.44657E-07-1.22221E-06
 -1      3229 5.05067E-08 1.44007E-07-1.20407E-06
 -1      3230 5.14698E-08 1.46392E-07-1.24022E-06
 -1      3231 3.12911E-08 1.59161E-07-1.47354E-06
 -1      3232 1.08604E-07 1.75864E-07-1.51310E-06
 -1      3233 1.30713E-07 5.57141E-08-4.57232E-07
 -1      3234 5.89468E-08 1.54299E-08-1.21210E-08
 -1      3235 6.08418E-08 3.78114E-09 1.88866E-08
 -1      3236-1.40502E-07 7.01283E-08-3.82605E-07
 -1      3237-9.79070E-08 1.51888E-07-7.16035E-07
 -1      3238-5.26651E-08 1.94008E-07-8.88897E-07
 -1      3239-2.63746E-08 2.10431E-07-9.25830E-07
 -1      3240-8.26309E-09 2.14020E-07-9.15949E-07
 -1      3241 4.72454E-09 2.13691E-07-9.01828E-07
 -1      3242 1.35001E-08 2.13177E-07-8.94243E-07
 -1      3243 1.90665E-08 2.13119E-07-8.91498E-07
 -1      3244 2.24757E-08 2.13330E-07-8.90876E-07
 -1      3245 2.46432E-08 2.13567E-07-8.90910E-07
 -1      3246 2.61825E-08 2.13737E-07-8.91122E-07
 -1      3247 2.74640E-08 2.13790E-07-8.91370E-07
 -1      3248 2.87082E-08 2.13590E-07-8.91209E-07
 -1      3249 3.00934E-08 2.12774E-07-8.89097E-07
 -1      3250 3.23758E-08 2.11040E-07-8.81807E-07
 -1      3251 3.66542E-08 2.08308E-07-8.66737E-07
 -1      3252 4.57360E-08 2.07370E-07-8.55501E-07
 -1      3253 5.02693E-08 2.09609E-07-8.89453E-07
 -1      3254 4.39253E-08 2.30152E-07-1.05047E-06
 -1      3255 9.20817E-08 2.50065E-07-1.03645E-06
 -1      3256 1.05396E-07 7.63658E-08-3.42919E-07
 -1      3257 6.46657E-08 2.16712E-08-1.45140E-08
 -1      3258 6.59011E-08 4.91622E-09 1.75064E-08
 -1      3259-1.27835E-07 7.09410E-08-2.39653E-07
 -1      3260-9.46836E-08 1.43596E-07-4.14291E-07
 -1      3261-5.97557E-08 1.87735E-07-5.21102E-07
 -1      3262-3.37897E-08 2.06663E-07-5.46917E-07
 -1      3263-1.42505E-08 2.11581E-07-5.40344E-07
 -1      3264-8.33594E-11 2.11845E-07-5.30539E-07
 -1      3265 9.25534E-09 2.11641E-07-5.25231E-07
 -1      3266 1.49960E-08 2.11791E-07-5.23406E-07
 -1      3267 1.84520E-08 2.12139E-07-5.23062E-07
 -1      3268 2.06403E-08 2.12458E-07-5.23142E-07
 -1      3269 2.22120E-08 2.12668E-07-5.23327E-07
 -1      3270 2.35503E-08 2.12726E-07-5.23543E-07
 -1      3271 2.48570E-08 2.12491E-07-5.23487E-07
 -1      3272 2.62745E-08 2.11577E-07-5.22043E-07
 -1      3273 2.82749E-08 2.09639E-07-5.16939E-07
 -1      3274 3.22669E-08 2.06823E-07-5.07382E-07
 -1      3275 4.04669E-08 2.06267E-07-5.02919E-07
 -1      3276 4.93027E-08 2.09916E-07-5.35876E-07
 -1      3277 5.66046E-08 2.27895E-07-6.22806E-07
 -1      3278 7.85198E-08 2.28881E-07-5.70423E-07
 -1      3279 8.59772E-08 8.65036E-08-2.28840E-07
 -1      3280 7.35550E-08 2.64131E-08-1.41784E-08
 -1      3281 7.24706E-08 5.59171E-09 1.68061E-08
 -1      3282-1.27667E-07 6.38536E-08-1.42919E-07
 -1      3283-1.00613E-07 1.20120E-07-2.30785E-07
 -1      3284-6.86018E-08 1.62691E-07-2.93793E-07
 -1      3285-4.05688E-08 1.82748E-07-3.10248E-07
 -1      3286-1.87145E-08 1.88930E-07-3.04752E-07
 -1      3287-3.36498E-09 1.90047E-07-2.97401E-07
 -1      3288 6.39847E-09 1.90354E-07-2.93625E-07
 -1      3289 1.22435E-08 1.90814E-07-2.92505E-07
 -1      3290 1.57312E-08 1.91334E-07-2.92425E-07
 -1      3291 1.79500E-08 1.91743E-07-2.92583E-07
 -1      3292 1.95665E-08 1.91992E-07-2.92776E-07
 -1      3293 2.09767E-08 1.92059E-07-2.92997E-07
 -1      3294 2.23995E-08 1.91807E-07-2.93052E-07
 -1      3295 2.39481E-08 1.90874E-07-2.92084E-07
 -1      3296 2.59285E-08 1.88862E-07-2.88404E-07
 -1      3297 2.95479E-08 1.86247E-07-2.81871E-07
 -1      3298 3.69130E-08 1.85967E-07-2.81190E-07
 -1      3299 4.79836E-08 1.91212E-07-3.09763E-07
 -1      3300 6.20521E-08 2.03269E-07-3.56759E-07
 -1      3301 8.07184E-08 1.87752E-07-3.09545E-07
 -1      3302 8.91785E-08 8.98816E-08-1.39365E-07
 -1      3303 8.38713E-08 2.92167E-08-5.91540E-09
 -1      3304 7.97209E-08 5.91142E-09 1.75140E-08
 -3
    1PSTEP                        14           5           1          
  100CL  105 9.12500E-01        3304                     0    5           1
 -4  STRESS      6    1
 -5  SXX         1    4    1    1
 -5  SYY         1    4    2    2
 -5  SZZ         1    4    3    3
 -5  SXY         1    4    1    2
 -5  SYZ         1    4    2    3
 -5  SZX         1    4    3    1
 -1         1 4.80774E+04 1.93352E+04 1.90854E+04 3.92978E+03-9.73703E-01-9.63585E+01
 -1         2 8.70590E+04 1.74284E+02-3.37536E+04-2.01317E+04-2.98735E+03-1.99086E+04
 -1         3 4.65944E+04 1.87391E+04 1.85296E+04 2.51037E+03 2.67830E-01-9.01765E+01
 -1         4 5.34221E+04-7.90228E+03-4.12593E+04-1.16969E+04-9.39804E+02-9.04950E+03
 -1         5 4.62128E+04 1.85765E+04 1.83923E+04 1.23286E+03 5.17315E-01-8.11166E+01
 -1         6 5.02530E+04-6.15820E+03-4.14441E+04-1.97101E+03-2.64232E+02-9.30088E+03
 -1         7 4.61291E+04 1.85386E+04 1.83643E+04 6.11897E-05-5.94885E-08-7.81371E+01
 -1         8 4.95976E+04-5.85173E+03-4.15360E+04 3.92446E-07-4.66425E-07-9.19258E+03
 -1         9 4.62128E+04 1.85765E+04 1.83923E+04-1.23286E+03-5.17315E-01-8.11166E+01
 -1        10 5.02530E+04-6.15820E+03-4.14441E+04 1.97101E+03 2.64232E+02-9.30088E+03
 -1        11 4.65944E+04 1.87391E+04 1.85296E+04-2.51037E+03-2.67830E-01-9.01765E+01
 -1        12 5.34221E+04-7.90228E+03-4.12593E+04 1.16969E+04 9.39804E+02-9.04950E+03
 -1        13 4.80774E+04 1.93352E+04 1.90854E+04-3.92978E+03 9.73702E-01-9.63585E+01
 -1        14 8.70590E+04 1.74284E+02-3.37536E+04 2.01317E+04 2.98735E+03-1.99086E+04
 -1        15 4.85621E+04 1.95207E+04 1.93091E+04 3.94066E+03-5.71308E+01-3.54616E+03
 -1        16 5.48853E+04-2.94758E+03-4.20315E+04-9.77767E+03-1.48113E+03-1.28858E+04
 -1        17 4.70839E+04 1.89264E+04 1.87577E+04 2.53163E+03-3.31590E+01-3.48884E+03
 -1        18 3.91659E+04-8.55737E+03-4.65334E+04-6.64618E+03-4.90853E+02-7.11126E+03
 -1        19 4.67137E+04 1.87671E+04 1.86263E+04 1.24953E+03-1.41666E+01-3.40254E+03
 -1        20 3.47262E+04-1.05931E+04-4.74988E+04-2.19661E+03-3.18693E+02-6.79342E+03
 -1        21 4.66349E+04 1.87305E+04 1.86005E+04 6.04699E-05-8.86161E-07-3.36292E+03
 -1        22 3.39779E+04-1.10982E+04-4.75653E+04-4.31823E-07-2.11755E-07-6.75754E+03
 -1        23 4.67137E+04 1.87671E+04 1.86263E+04-1.24953E+03 1.41666E+01-3.40254E+03
 -1        24 3.47262E+04-1.05931E+04-4.74988E+04 2.19661E+03 3.18693E+02-6.79342E+03
 -1        25 4.70839E+04 1.89264E+04 1.87577E+04-2.53163E+03 3.31590E+01-3.48884E+03
 -1        26 3.91659E+04-8.55737E+03-4.65334E+04 6.64618E+03 4.90853E+02-7.11126E+03
 -1        27 4.85621E+04 1.95207E+04 1.93091E+04-3.94066E+03 5.71308E+01-3.54616E+03
 -1        28 5.48853E+04-2.94758E+03-4.20315E+04 9.77767E+03 1.48113E+03-1.28858E+04
 -1        29 4.95613E+04 1.99065E+04 1.98096E+04 3.95146E+03-1.15375E+02-7.22271E+03
 -1        30 5.02838E+04-1.79951E+03-4.54440E+04-1.09509E+04-3.28619E+02-5.26327E+03
 -1        31 4.81176E+04 1.93247E+04 1.92790E+04 2.59436E+03-6.66201E+01-7.06170E+03
 -1        32 3.38456E+04-8.87742E+03-5.17962E+04-6.66270E+03 3.25130E+02-4.28829E+03
 -1        33 4.77994E+04 1.91809E+04 1.91706E+04 1.30352E+03-2.83322E+01-6.83702E+03
 -1        34 3.11388E+04-1.09462E+04-5.07807E+04-1.85329E+03 4.23631E+02-3.70671E+03
 -1        35 4.77428E+04 1.91510E+04 1.91534E+04 5.92905E-05-1.69748E-06-6.73691E+03
 -1        36 3.04337E+04-1.20944E+04-5.02711E+04-2.64115E-07-4.82240E-08-3.63897E+03
 -1        37 4.77994E+04 1.91809E+04 1.91706E+04-1.30352E+03 2.83322E+01-6.83702E+03
 -1        38 3.11388E+04-1.09462E+04-5.07807E+04 1.85329E+03-4.23631E+02-3.70671E+03
 -1        39 4.81176E+04 1.93247E+04 1.92790E+04-2.59436E+03 6.66201E+01-7.06170E+03
 -1        40 3.38456E+04-8.87742E+03-5.17962E+04 6.66270E+03-3.25130E+02-4.28829E+03
 -1        41 4.95613E+04 1.99065E+04 1.98096E+04-3.95146E+03 1.15375E+02-7.22271E+03
 -1        42 5.02838E+04-1.79951E+03-4.54440E+04 1.09509E+04 3.28619E+02-5.26327E+03
 -1        43 5.13620E+04 2.06015E+04 2.07108E+04 3.93589E+03-1.77292E+02-1.14167E+04
 -1        44 4.60764E+04-3.81560E+03-5.39195E+04-1.11743E+04 1.01868E+03-4.22379E+03
 -1        45 5.00279E+04 2.00583E+04 2.02408E+04 2.68779E+03-1.02408E+02-1.10082E+04
 -1        46 3.12974E+04-1.02590E+04-5.72238E+04-6.70248E+03 2.23739E+03-3.62637E+03
 -1        47 4.98260E+04 1.99509E+04 2.01713E+04 1.38412E+03-4.45554E+01-1.05062E+04
 -1        48 2.92387E+04-1.28614E+04-5.37591E+04-1.86009E+03 1.97515E+03-3.28123E+03
 -1        49 4.98144E+04 1.99352E+04 2.01642E+04 5.76947E-05-2.47552E-06-1.02981E+04
 -1        50 2.87556E+04-1.43539E+04-5.24357E+04-2.52059E-08-1.67510E-07-3.14536E+03
 -1        51 4.98260E+04 1.99509E+04 2.01713E+04-1.38412E+03 4.45554E+01-1.05062E+04
 -1        52 2.92387E+04-1.28614E+04-5.37591E+04 1.86009E+03-1.97515E+03-3.28123E+03
 -1        53 5.00279E+04 2.00583E+04 2.02408E+04-2.68779E+03 1.02408E+02-1.10082E+04
 -1        54 3.12974E+04-1.02590E+04-5.72238E+04 6.70248E+03-2.23739E+03-3.62637E+03
 -1        55 5.13620E+04 2.06015E+04 2.07108E+04-3.93589E+03 1.77292E+02-1.14167E+04
 -1        56 4.60764E+04-3.81560E+03-5.39195E+04 1.11743E+04-1.01868E+03-4.22379E+03
 -1        57 5.46424E+04 2.18599E+04 2.22834E+04 3.78522E+03-2.40549E+02-1.66254E+04
 -1        58 4.02293E+04-9.37245E+03-7.08497E+04-1.19772E+04 3.53262E+03-4.23008E+03
 -1        59 5.35821E+04 2.14078E+04 2.19846E+04 2.72603E+03-1.44005E+02-1.55757E+04
 -1        60 3.12159E+04-1.13116E+04-6.12444E+04-6.72807E+03 4.95754E+03-2.79428E+03
 -1        61 5.35981E+04 2.13756E+04 2.19396E+04 1.39379E+03-6.90918E+01-1.45859E+04
 -1        62 2.92157E+04-1.56759E+04-5.52141E+04-1.79793E+03 3.30055E+03-2.36739E+03
 -1        63 5.36259E+04 2.13773E+04 2.19141E+04 5.55027E-05-3.23068E-06-1.42426E+04
 -1        64 2.77142E+04-1.83482E+04-5.51815E+04 1.81585E-07-2.25168E-07-2.22298E+03
 -1        65 5.35981E+04 2.13756E+04 2.19396E+04-1.39379E+03 6.90918E+01-1.45859E+04
 -1        66 2.92157E+04-1.56759E+04-5.52141E+04 1.79793E+03-3.30055E+03-2.36739E+03
 -1        67 5.35821E+04 2.14078E+04 2.19846E+04-2.72603E+03 1.44005E+02-1.55757E+04
 -1        68 3.12159E+04-1.13116E+04-6.12444E+04 6.72807E+03-4.95754E+03-2.79428E+03
 -1        69 5.46424E+04 2.18599E+04 2.22834E+04-3.78522E+03 2.40549E+02-1.66254E+04
 -1        70 4.02293E+04-9.37245E+03-7.08497E+04 1.19772E+04-3.53262E+03-4.23008E+03
 -1        71 6.11192E+04 2.42929E+04 2.51433E+04 3.13918E+03-3.47148E+02-2.37527E+04
 -1        72 2.79005E+04-2.80009E+04-1.05905E+05-1.12993E+04 6.02383E+03 2.55194E+03
 -1        73 6.10606E+04 2.41853E+04 2.53968E+04 2.28997E+03-1.89767E+02-2.09693E+04
 -1        74 3.86269E+04-1.16129E+04-6.14470E+04-6.89256E+03 5.22058E+03 2.51738E+03
 -1        75 6.10755E+04 2.41841E+04 2.51576E+04 9.22786E+02-7.75439E+01-1.94340E+04
 -1        76 3.21217E+04-1.83111E+04-6.00311E+04-3.23496E+03 2.58303E+03 2.81457E+03
 -1        77 6.10402E+04 2.41749E+04 2.51040E+04 5.23720E-05-3.99582E-06-1.91497E+04
 -1        78 3.21642E+04-1.60081E+04-5.86284E+04-5.35931E-08-1.37796E-07 2.92800E+03
 -1        79 6.10755E+04 2.41841E+04 2.51576E+04-9.22786E+02 7.75439E+01-1.94340E+04
 -1        80 3.21217E+04-1.83111E+04-6.00311E+04 3.23496E+03-2.58303E+03 2.81457E+03
 -1        81 6.10606E+04 2.41853E+04 2.53968E+04-2.28997E+03 1.89767E+02-2.09693E+04
 -1        82 3.86269E+04-1.16129E+04-6.14470E+04 6.89256E+03-5.22058E+03 2.51738E+03
 -1        83 6.11192E+04 2.42929E+04 2.51433E+04-3.13918E+03 3.47148E+02-2.37527E+04
 -1        84 2.79005E+04-2.80009E+04-1.05905E+05 1.12993E+04-6.02383E+03 2.55194E+03
 -1        85 8.20991E+04 3.16942E+04 3.45873E+04-9.56043E+02 2.50664E+02-3.59208E+04
 -1        86 8.81747E+04 5.02179E+02-9.90094E+04-3.84045E+04 2.74825E+04-4.25959E+03
 -1        87 8.03767E+04 3.10264E+04 3.33237E+04-4.35586E+02 5.81733E+01-2.81317E+04
 -1        88 8.17869E+04 2.46814E+04-3.83048E+04-2.26320E+04 1.53553E+04 1.74880E+03
 -1        89 7.93121E+04 3.07544E+04 3.27534E+04-8.40463E+01-2.09967E+01-2.67957E+04
 -1        90 6.81128E+04 1.46543E+04-4.64784E+04-7.11120E+03 1.33848E+03 3.75774E+03
 -1        91 7.89696E+04 3.06357E+04 3.25758E+04 4.73279E-05-4.60330E-06-2.64191E+04
 -1        92 6.58291E+04 1.19522E+04-4.64447E+04-9.64593E-07-1.28291E-07 4.19414E+03
 -1        93 7.93121E+04 3.07544E+04 3.27534E+04 8.40463E+01 2.09967E+01-2.67957E+04
 -1        94 6.81128E+04 1.46543E+04-4.64784E+04 7.11120E+03-1.33848E+03 3.75774E+03
 -1        95 8.03767E+04 3.10264E+04 3.33237E+04 4.35586E+02-5.81733E+01-2.81317E+04
 -1        96 8.17869E+04 2.46814E+04-3.83048E+04 2.26320E+04-1.53553E+04 1.74880E+03
 -1        97 8.20991E+04 3.16942E+04 3.45873E+04 9.56043E+02-2.50664E+02-3.59208E+04
 -1        98 8.81747E+04 5.02179E+02-9.90094E+04 3.84045E+04-2.74825E+04-4.25959E+03
 -1        99 3.69657E+04-3.75877E+03-1.39588E+04 1.01152E+02 3.12099E+01 2.23629E+02
 -1       100 3.69657E+04-3.75877E+03-1.39588E+04-1.01152E+02-3.12099E+01 2.23629E+02
 -1       101 4.41367E+04-5.90660E+02-2.29658E+04-1.53470E+02 1.54717E+01 5.20211E+02
 -1       102 4.41367E+04-5.90660E+02-2.29658E+04 1.53470E+02-1.54717E+01 5.20211E+02
 -1       103 4.64242E+04-4.11761E+02-2.54878E+04-1.29086E+02 4.43560E+01 5.28089E+02
 -1       104 4.64242E+04-4.11761E+02-2.54878E+04 1.29086E+02-4.43560E+01 5.28089E+02
 -1       105 4.59405E+04 1.02899E+01-2.52532E+04-4.46778E+01 7.71911E+01 3.68039E+02
 -1       106 4.59405E+04 1.02899E+01-2.52532E+04 4.46778E+01-7.71911E+01 3.68039E+02
 -1       107 4.51970E+04-8.16931E+00-2.48583E+04-8.71060E+00 9.14686E+01 2.65845E+02
 -1       108 4.51970E+04-8.16932E+00-2.48583E+04 8.71064E+00-9.14686E+01 2.65845E+02
 -1       109 4.49321E+04-3.53537E+01-2.46190E+04 2.48102E+00 9.59641E+01 2.30909E+02
 -1       110 4.49321E+04-3.53537E+01-2.46190E+04-2.48098E+00-9.59641E+01 2.30909E+02
 -1       111 4.49448E+04-5.55196E+01-2.45266E+04 4.83556E+00 9.59343E+01 2.23690E+02
 -1       112 4.49448E+04-5.55196E+01-2.45266E+04-4.83552E+00-9.59343E+01 2.23690E+02
 -1       113 4.50612E+04-6.25747E+01-2.45006E+04 4.27254E+00 9.53804E+01 2.23916E+02
 -1       114 4.50612E+04-6.25747E+01-2.45006E+04-4.27251E+00-9.53804E+01 2.23916E+02
 -1       115 4.52036E+04-6.49712E+01-2.44984E+04 3.69100E+00 9.48849E+01 2.25284E+02
 -1       116 4.52036E+04-6.49712E+01-2.44984E+04-3.69096E+00-9.48849E+01 2.25284E+02
 -1       117 4.53497E+04-6.51043E+01-2.45013E+04 3.41781E+00 9.45697E+01 2.25980E+02
 -1       118 4.53497E+04-6.51043E+01-2.45013E+04-3.41779E+00-9.45697E+01 2.25980E+02
 -1       119 4.54970E+04-6.47964E+01-2.45055E+04 3.53055E+00 9.43030E+01 2.25710E+02
 -1       120 4.54970E+04-6.47964E+01-2.45055E+04-3.53052E+00-9.43030E+01 2.25710E+02
 -1       121 4.56478E+04-6.53127E+01-2.45097E+04 4.16647E+00 9.39019E+01 2.24282E+02
 -1       122 4.56478E+04-6.53127E+01-2.45097E+04-4.16645E+00-9.39019E+01 2.24282E+02
 -1       123 4.57932E+04-6.97882E+01-2.45049E+04 5.12148E+00 9.32525E+01 2.21485E+02
 -1       124 4.57932E+04-6.97882E+01-2.45049E+04-5.12147E+00-9.32525E+01 2.21485E+02
 -1       125 4.58932E+04-8.09304E+01-2.44535E+04 6.42118E+00 9.24182E+01 2.20629E+02
 -1       126 4.58932E+04-8.09304E+01-2.44535E+04-6.42117E+00-9.24182E+01 2.20629E+02
 -1       127 4.57796E+04-1.24496E+02-2.42880E+04-6.01626E-01 9.29437E+01 2.29082E+02
 -1       128 4.57796E+04-1.24496E+02-2.42880E+04 6.01639E-01-9.29437E+01 2.29082E+02
 -1       129 4.51118E+04-1.71070E+02-2.38221E+04-2.24834E+01 1.04347E+02 2.96965E+02
 -1       130 4.51118E+04-1.71070E+02-2.38221E+04 2.24834E+01-1.04347E+02 2.96965E+02
 -1       131 4.36596E+04-1.51278E+02-2.31964E+04-6.34494E+01 1.30347E+02 5.06810E+02
 -1       132 4.36596E+04-1.51278E+02-2.31964E+04 6.34494E+01-1.30347E+02 5.06810E+02
 -1       133 4.37385E+04 8.37315E+02-2.26732E+04-5.28174E+02 1.91750E+02 4.22111E+02
 -1       134 4.37385E+04 8.37315E+02-2.26732E+04 5.28174E+02-1.91750E+02 4.22111E+02
 -1       135 6.56729E+04 6.16931E+03-2.66964E+04 3.28171E+03 2.62049E+02 2.62317E+03
 -1       136 6.56729E+04 6.16931E+03-2.66964E+04-3.28171E+03-2.62049E+02 2.62317E+03
 -1       137 3.70187E+04-3.89875E+03-1.46494E+04 1.10309E+02 1.09404E+02-2.18714E+03
 -1       138 3.70187E+04-3.89875E+03-1.46494E+04-1.10309E+02-1.09404E+02-2.18714E+03
 -1       139 4.40407E+04-6.79097E+02-2.34997E+04-1.45899E+02 1.27972E+02-2.97065E+02
 -1       140 4.40407E+04-6.79097E+02-2.34997E+04 1.45899E+02-1.27972E+02-2.97065E+02
 -1       141 4.61876E+04-4.93336E+02-2.57517E+04-1.23581E+02 1.43847E+02 5.63343E+02
 -1       142 4.61876E+04-4.93336E+02-2.57517E+04 1.23582E+02-1.43847E+02 5.63343E+02
 -1       143 4.56826E+04-8.92472E+01-2.54851E+04-4.14006E+01 1.49698E+02 5.32448E+02
 -1       144 4.56826E+04-8.92472E+01-2.54851E+04 4.14006E+01-1.49698E+02 5.32448E+02
 -1       145 4.50003E+04-1.20183E+02-2.51192E+04-5.79693E+00 1.53226E+02 3.48789E+02
 -1       146 4.50003E+04-1.20183E+02-2.51192E+04 5.79696E+00-1.53226E+02 3.48789E+02
 -1       147 4.47849E+04-1.44599E+02-2.48940E+04 3.96436E+00 1.53694E+02 2.47162E+02
 -1       148 4.47849E+04-1.44599E+02-2.48940E+04-3.96432E+00-1.53694E+02 2.47162E+02
 -1       149 4.48152E+04-1.61824E+02-2.48049E+04 5.81563E+00 1.53422E+02 2.09835E+02
 -1       150 4.48152E+04-1.61824E+02-2.48049E+04-5.81560E+00-1.53422E+02 2.09835E+02
 -1       151 4.49355E+04-1.67911E+02-2.47803E+04 5.15236E+00 1.53204E+02 2.00749E+02
 -1       152 4.49355E+04-1.67911E+02-2.47803E+04-5.15233E+00-1.53204E+02 2.00749E+02
 -1       153 4.50781E+04-1.69837E+02-2.47779E+04 4.58711E+00 1.53057E+02 2.00462E+02
 -1       154 4.50781E+04-1.69837E+02-2.47779E+04-4.58708E+00-1.53057E+02 2.00462E+02
 -1       155 4.52234E+04-1.69797E+02-2.47805E+04 4.32462E+00 1.52965E+02 2.01096E+02
 -1       156 4.52234E+04-1.69797E+02-2.47805E+04-4.32459E+00-1.52965E+02 2.01096E+02
 -1       157 4.53696E+04-1.69369E+02-2.47842E+04 4.44167E+00 1.52899E+02 2.00369E+02
 -1       158 4.53696E+04-1.69369E+02-2.47842E+04-4.44164E+00-1.52899E+02 2.00369E+02
 -1       159 4.55189E+04-1.69858E+02-2.47882E+04 4.99080E+00 1.52762E+02 1.98379E+02
 -1       160 4.55189E+04-1.69858E+02-2.47882E+04-4.99077E+00-1.52762E+02 1.98379E+02
 -1       161 4.56645E+04-1.73296E+02-2.47832E+04 6.05494E+00 1.52695E+02 1.98892E+02
 -1       162 4.56645E+04-1.73296E+02-2.47832E+04-6.05492E+00-1.52695E+02 1.98892E+02
 -1       163 4.57670E+04-1.86008E+02-2.47369E+04 7.12008E+00 1.51756E+02 2.15561E+02
 -1       164 4.57670E+04-1.86008E+02-2.47369E+04-7.12006E+00-1.51756E+02 2.15561E+02
 -1       165 4.56974E+04-2.11309E+02-2.45661E+04 2.11016E+00 1.53740E+02 2.84085E+02
 -1       166 4.56974E+04-2.11309E+02-2.45661E+04-2.11014E+00-1.53740E+02 2.84085E+02
 -1       167 4.50949E+04-3.09096E+02-2.41863E+04-1.36730E+01 1.45028E+02 4.75543E+02
 -1       168 4.50949E+04-3.09096E+02-2.41863E+04 1.36730E+01-1.45028E+02 4.75543E+02
 -1       169 4.36694E+04-1.67175E+02-2.34334E+04-1.02383E+02 1.95486E+02 7.90749E+02
 -1       170 4.36694E+04-1.67175E+02-2.34334E+04 1.02383E+02-1.95486E+02 7.90749E+02
 -1       171 4.47137E+04 6.02897E+02-2.31240E+04-1.69136E+02 4.94012E+01 3.03044E+02
 -1       172 4.47137E+04 6.02897E+02-2.31240E+04 1.69136E+02-4.94012E+01 3.03044E+02
 -1       173 5.26101E+04 2.71137E+03-2.82706E+04 3.75688E+02 6.34616E+02-8.36116E+02
 -1       174 5.26101E+04 2.71137E+03-2.82706E+04-3.75688E+02-6.34616E+02-8.36116E+02
 -1       175 3.68269E+04-4.37631E+03-1.69945E+04 1.47057E+02 2.73256E+02-4.40444E+03
 -1       176 3.68269E+04-4.37631E+03-1.69945E+04-1.47057E+02-2.73256E+02-4.40444E+03
 -1       177 4.36110E+04-9.77987E+02-2.52095E+04-1.29872E+02 3.40444E+02-6.05363E+02
 -1       178 4.36110E+04-9.77987E+02-2.52095E+04 1.29872E+02-3.40444E+02-6.05363E+02
 -1       179 4.54078E+04-7.22540E+02-2.66666E+04-1.13701E+02 3.77463E+02 8.83069E+02
 -1       180 4.54078E+04-7.22540E+02-2.66666E+04 1.13701E+02-3.77463E+02 8.83069E+02
 -1       181 4.48623E+04-3.96804E+02-2.63531E+04-3.24916E+01 3.92708E+02 7.45299E+02
 -1       182 4.48623E+04-3.96804E+02-2.63531E+04 3.24917E+01-3.92708E+02 7.45299E+02
 -1       183 4.43736E+04-4.57600E+02-2.60765E+04-8.01652E-01 3.98859E+02 4.13987E+02
 -1       184 4.43736E+04-4.57600E+02-2.60765E+04 8.01691E-01-3.98859E+02 4.13987E+02
 -1       185 4.42927E+04-4.73116E+02-2.58854E+04 5.50687E+00 3.99215E+02 2.37031E+02
 -1       186 4.42927E+04-4.73116E+02-2.58854E+04-5.50684E+00-3.99215E+02 2.37031E+02
 -1       187 4.43691E+04-4.84019E+02-2.58077E+04 5.96117E+00 3.98796E+02 1.71885E+02
 -1       188 4.43691E+04-4.84019E+02-2.58077E+04-5.96113E+00-3.98796E+02 1.71885E+02
 -1       189 4.44994E+04-4.87969E+02-2.57869E+04 5.07716E+00 3.98498E+02 1.56863E+02
 -1       190 4.44994E+04-4.87969E+02-2.57869E+04-5.07713E+00-3.98498E+02 1.56863E+02
 -1       191 4.46417E+04-4.89050E+02-2.57844E+04 4.50722E+00 3.98306E+02 1.56642E+02
 -1       192 4.46417E+04-4.89050E+02-2.57844E+04-4.50719E+00-3.98306E+02 1.56642E+02
 -1       193 4.47845E+04-4.88891E+02-2.57862E+04 4.27227E+00 3.98230E+02 1.57846E+02
 -1       194 4.47845E+04-4.88891E+02-2.57862E+04-4.27224E+00-3.98230E+02 1.57846E+02
 -1       195 4.49277E+04-4.88546E+02-2.57890E+04 4.35819E+00 3.98166E+02 1.56493E+02
 -1       196 4.49277E+04-4.88546E+02-2.57890E+04-4.35816E+00-3.98166E+02 1.56493E+02
 -1       197 4.50736E+04-4.88570E+02-2.57918E+04 4.84227E+00 3.98041E+02 1.52789E+02
 -1       198 4.50736E+04-4.88570E+02-2.57918E+04-4.84225E+00-3.98041E+02 1.52789E+02
 -1       199 4.52186E+04-4.91387E+02-2.57877E+04 5.87932E+00 3.97655E+02 1.53289E+02
 -1       200 4.52186E+04-4.91387E+02-2.57877E+04-5.87931E+00-3.97655E+02 1.53289E+02
 -1       201 4.53396E+04-4.97487E+02-2.57468E+04 7.29264E+00 3.97325E+02 1.82693E+02
 -1       202 4.53396E+04-4.97487E+02-2.57468E+04-7.29263E+00-3.97325E+02 1.82693E+02
 -1       203 4.53703E+04-5.15237E+02-2.55954E+04 6.84410E+00 3.95649E+02 3.04849E+02
 -1       204 4.53703E+04-5.15237E+02-2.55954E+04-6.84409E+00-3.95649E+02 3.04849E+02
 -1       205 4.49906E+04-5.89030E+02-2.53075E+04-1.11716E+01 3.98059E+02 6.46171E+02
 -1       206 4.49906E+04-5.89030E+02-2.53075E+04 1.11716E+01-3.98059E+02 6.46171E+02
 -1       207 4.39803E+04-5.64242E+02-2.46584E+04-5.80229E+01 4.17771E+02 1.20761E+03
 -1       208 4.39803E+04-5.64242E+02-2.46584E+04 5.80229E+01-4.17771E+02 1.20761E+03
 -1       209 4.31812E+04-2.24633E+02-2.46061E+04-3.14550E+02 3.95068E+02 8.76859E+02
 -1       210 4.31812E+04-2.24633E+02-2.46061E+04 3.14550E+02-3.95068E+02 8.76859E+02
 -1       211 5.09411E+04 2.87740E+03-2.55091E+04 4.71669E+02 7.56280E+02-2.99622E+03
 -1       212 5.09411E+04 2.87740E+03-2.55091E+04-4.71669E+02-7.56280E+02-2.99622E+03
 -1       213 3.60797E+04-5.47691E+03-2.18755E+04 2.40679E+02 6.12009E+02-6.43614E+03
 -1       214 3.60797E+04-5.47691E+03-2.18755E+04-2.40679E+02-6.12009E+02-6.43614E+03
 -1       215 4.25329E+04-1.62706E+03-2.84513E+04-1.03202E+02 7.24205E+02-5.67429E+02
 -1       216 4.25329E+04-1.62706E+03-2.84513E+04 1.03202E+02-7.24205E+02-5.67429E+02
 -1       217 4.37059E+04-1.31026E+03-2.87440E+04-9.74046E+01 7.97592E+02 1.12967E+03
 -1       218 4.37059E+04-1.31026E+03-2.87440E+04 9.74046E+01-7.97592E+02 1.12967E+03
 -1       219 4.32045E+04-1.15732E+03-2.85193E+04-1.68207E+01 8.21790E+02 8.20971E+02
 -1       220 4.32045E+04-1.15732E+03-2.85193E+04 1.68207E+01-8.21790E+02 8.20971E+02
 -1       221 4.30819E+04-1.23943E+03-2.83581E+04 7.20077E+00 8.28033E+02 4.22248E+02
 -1       222 4.30819E+04-1.23943E+03-2.83581E+04-7.20073E+00-8.28033E+02 4.22248E+02
 -1       223 4.31963E+04-1.23555E+03-2.82007E+04 7.24408E+00 8.26653E+02 2.06404E+02
 -1       224 4.31963E+04-1.23555E+03-2.82007E+04-7.24405E+00-8.26653E+02 2.06404E+02
 -1       225 4.33327E+04-1.23987E+03-2.81442E+04 6.15173E+00 8.26183E+02 1.30268E+02
 -1       226 4.33327E+04-1.23987E+03-2.81442E+04-6.15169E+00-8.26183E+02 1.30268E+02
 -1       227 4.34767E+04-1.24011E+03-2.81270E+04 4.89123E+00 8.25554E+02 1.13134E+02
 -1       228 4.34767E+04-1.24011E+03-2.81270E+04-4.89119E+00-8.25554E+02 1.13134E+02
 -1       229 4.36172E+04-1.24021E+03-2.81245E+04 4.35467E+00 8.25315E+02 1.13427E+02
 -1       230 4.36172E+04-1.24021E+03-2.81245E+04-4.35464E+00-8.25315E+02 1.13427E+02
 -1       231 4.37561E+04-1.24002E+03-2.81252E+04 4.16642E+00 8.25216E+02 1.15015E+02
 -1       232 4.37561E+04-1.24002E+03-2.81252E+04-4.16639E+00-8.25216E+02 1.15015E+02
 -1       233 4.38945E+04-1.23979E+03-2.81266E+04 4.20778E+00 8.25148E+02 1.13358E+02
 -1       234 4.38945E+04-1.23979E+03-2.81266E+04-4.20775E+00-8.25148E+02 1.13358E+02
 -1       235 4.40345E+04-1.23971E+03-2.81282E+04 4.56995E+00 8.24989E+02 1.08572E+02
 -1       236 4.40345E+04-1.23971E+03-2.81282E+04-4.56993E+00-8.24989E+02 1.08572E+02
 -1       237 4.41779E+04-1.23997E+03-2.81240E+04 5.52151E+00 8.24458E+02 1.08553E+02
 -1       238 4.41779E+04-1.23997E+03-2.81240E+04-5.52149E+00-8.24458E+02 1.08553E+02
 -1       239 4.43253E+04-1.24132E+03-2.80928E+04 7.76857E+00 8.23751E+02 1.42073E+02
 -1       240 4.43253E+04-1.24132E+03-2.80928E+04-7.76855E+00-8.23751E+02 1.42073E+02
 -1       241 4.44702E+04-1.24088E+03-2.79750E+04 1.03177E+01 8.21803E+02 2.90683E+02
 -1       242 4.44702E+04-1.24088E+03-2.79750E+04-1.03177E+01-8.21803E+02 2.90683E+02
 -1       243 4.45368E+04-1.26709E+03-2.77297E+04 8.23197E+00 8.20486E+02 6.85461E+02
 -1       244 4.45368E+04-1.26709E+03-2.77297E+04-8.23195E+00-8.20486E+02 6.85461E+02
 -1       245 4.38074E+04-1.48315E+03-2.75885E+04-5.31703E+01 8.37805E+02 1.44744E+03
 -1       246 4.38074E+04-1.48315E+03-2.75885E+04 5.31703E+01-8.37805E+02 1.44744E+03
 -1       247 4.24978E+04-1.13643E+03-2.65883E+04-2.80985E+02 8.62417E+02 1.33475E+03
 -1       248 4.24978E+04-1.13643E+03-2.65883E+04 2.80985E+02-8.62417E+02 1.33475E+03
 -1       249 5.04058E+04 2.51407E+03-2.52154E+04 4.20253E+02 1.23988E+03-2.50005E+03
 -1       250 5.04058E+04 2.51407E+03-2.52154E+04-4.20253E+02-1.23988E+03-2.50005E+03
 -1       251 3.37976E+04-8.14670E+03-3.16063E+04 4.25142E+02 1.28730E+03-7.87190E+03
 -1       252 3.37976E+04-8.14670E+03-3.16063E+04-4.25142E+02-1.28730E+03-7.87190E+03
 -1       253 4.01702E+04-2.86359E+03-3.37866E+04-8.89458E+01 1.41440E+03-3.86070E+01
 -1       254 4.01702E+04-2.86359E+03-3.37866E+04 8.89459E+01-1.41440E+03-3.86070E+01
 -1       255 4.02627E+04-2.82429E+03-3.32029E+04-7.72493E+01 1.53012E+03 1.04060E+03
 -1       256 4.02627E+04-2.82429E+03-3.32029E+04 7.72493E+01-1.53012E+03 1.04060E+03
 -1       257 4.01620E+04-2.93131E+03-3.33664E+04 1.17111E+01 1.56599E+03 7.48798E+02
 -1       258 4.01620E+04-2.93131E+03-3.33664E+04-1.17111E+01-1.56599E+03 7.48798E+02
 -1       259 4.06094E+04-2.96265E+03-3.31995E+04 1.48749E+01 1.56207E+03 3.50369E+02
 -1       260 4.06094E+04-2.96265E+03-3.31995E+04-1.48749E+01-1.56207E+03 3.50369E+02
 -1       261 4.09107E+04-2.94587E+03-3.31009E+04 9.03206E+00 1.56129E+03 1.55486E+02
 -1       262 4.09107E+04-2.94587E+03-3.31009E+04-9.03202E+00-1.56129E+03 1.55486E+02
 -1       263 4.11157E+04-2.94103E+03-3.30590E+04 6.01347E+00 1.55975E+03 8.55126E+01
 -1       264 4.11157E+04-2.94103E+03-3.30590E+04-6.01344E+00-1.55975E+03 8.55126E+01
 -1       265 4.12686E+04-2.93674E+03-3.30456E+04 4.39612E+00 1.55898E+03 7.09136E+01
 -1       266 4.12686E+04-2.93674E+03-3.30456E+04-4.39609E+00-1.55898E+03 7.09136E+01
 -1       267 4.14054E+04-2.93608E+03-3.30428E+04 3.96689E+00 1.55868E+03 7.15766E+01
 -1       268 4.14054E+04-2.93608E+03-3.30428E+04-3.96686E+00-1.55868E+03 7.15766E+01
 -1       269 4.15391E+04-2.93587E+03-3.30422E+04 3.85414E+00 1.55857E+03 7.31972E+01
 -1       270 4.15391E+04-2.93587E+03-3.30422E+04-3.85412E+00-1.55857E+03 7.31972E+01
 -1       271 4.16719E+04-2.93589E+03-3.30423E+04 3.83982E+00 1.55850E+03 7.16199E+01
 -1       272 4.16719E+04-2.93589E+03-3.30423E+04-3.83979E+00-1.55850E+03 7.16199E+01
 -1       273 4.18043E+04-2.93570E+03-3.30423E+04 4.00711E+00 1.55832E+03 6.70245E+01
 -1       274 4.18043E+04-2.93570E+03-3.30423E+04-4.00709E+00-1.55832E+03 6.70245E+01
 -1       275 4.19412E+04-2.93397E+03-3.30381E+04 4.80236E+00 1.55780E+03 6.59722E+01
 -1       276 4.19412E+04-2.93397E+03-3.30381E+04-4.80234E+00-1.55780E+03 6.59722E+01
 -1       277 4.21124E+04-2.92681E+03-3.30128E+04 7.83632E+00 1.55621E+03 9.69421E+01
 -1       278 4.21124E+04-2.92681E+03-3.30128E+04-7.83630E+00-1.55621E+03 9.69421E+01
 -1       279 4.23727E+04-2.91540E+03-3.29369E+04 1.35190E+01 1.55538E+03 2.27002E+02
 -1       280 4.23727E+04-2.91540E+03-3.29369E+04-1.35190E+01-1.55538E+03 2.27002E+02
 -1       281 4.28689E+04-2.87823E+03-3.27313E+04 2.91594E+01 1.54655E+03 6.09067E+02
 -1       282 4.28689E+04-2.87823E+03-3.27313E+04-2.91594E+01-1.54655E+03 6.09067E+02
 -1       283 4.30413E+04-3.16200E+03-3.28121E+04-1.74566E+01 1.55245E+03 1.27686E+03
 -1       284 4.30413E+04-3.16200E+03-3.28121E+04 1.74566E+01-1.55245E+03 1.27686E+03
 -1       285 4.17383E+04-3.20006E+03-3.22553E+04-2.67924E+02 1.63905E+03 1.76157E+03
 -1       286 4.17383E+04-3.20006E+03-3.22553E+04 2.67924E+02-1.63905E+03 1.76157E+03
 -1       287 5.19656E+04 1.68847E+03-2.58297E+04 7.27379E+02 1.91667E+03-2.01473E+03
 -1       288 5.19656E+04 1.68847E+03-2.58297E+04-7.27379E+02-1.91667E+03-2.01473E+03
 -1       289 2.79456E+04-1.46778E+04-5.03208E+04 9.24829E+02 1.43014E+03-5.46917E+03
 -1       290 2.79456E+04-1.46778E+04-5.03208E+04-9.24829E+02-1.43014E+03-5.46917E+03
 -1       291 3.52595E+04-5.46411E+03-4.11479E+04-3.17011E+02 1.35691E+03-3.63722E+02
 -1       292 3.52595E+04-5.46411E+03-4.11479E+04 3.17011E+02-1.35691E+03-3.63722E+02
 -1       293 3.32250E+04-7.21558E+03-4.31250E+04 1.93307E+01 1.67660E+03 6.57644E+02
 -1       294 3.32250E+04-7.21558E+03-4.31250E+04-1.93306E+01-1.67660E+03 6.57644E+02
 -1       295 3.48689E+04-7.15129E+03-4.28542E+04 3.79438E+01 1.65138E+03 4.42976E+02
 -1       296 3.48689E+04-7.15129E+03-4.28542E+04-3.79438E+01-1.65138E+03 4.42976E+02
 -1       297 3.57194E+04-7.13635E+03-4.27792E+04 2.38146E+01 1.65969E+03 2.09505E+02
 -1       298 3.57194E+04-7.13635E+03-4.27792E+04-2.38146E+01-1.65969E+03 2.09505E+02
 -1       299 3.62253E+04-7.11273E+03-4.27010E+04 1.06130E+01 1.65604E+03 8.66538E+01
 -1       300 3.62253E+04-7.11273E+03-4.27010E+04-1.06129E+01-1.65604E+03 8.66538E+01
 -1       301 3.64731E+04-7.09220E+03-4.26684E+04 5.26066E+00 1.65438E+03 4.22743E+01
 -1       302 3.64731E+04-7.09220E+03-4.26684E+04-5.26062E+00-1.65438E+03 4.22743E+01
 -1       303 3.66260E+04-7.08613E+03-4.26568E+04 3.41538E+00 1.65349E+03 3.23782E+01
 -1       304 3.66260E+04-7.08613E+03-4.26568E+04-3.41535E+00-1.65349E+03 3.23782E+01
 -1       305 3.67557E+04-7.08437E+03-4.26532E+04 3.16821E+00 1.65317E+03 3.24882E+01
 -1       306 3.67557E+04-7.08437E+03-4.26532E+04-3.16818E+00-1.65317E+03 3.24882E+01
 -1       307 3.68839E+04-7.08438E+03-4.26515E+04 3.15870E+00 1.65308E+03 3.33849E+01
 -1       308 3.68839E+04-7.08438E+03-4.26515E+04-3.15867E+00-1.65308E+03 3.33849E+01
 -1       309 3.70114E+04-7.08477E+03-4.26503E+04 3.08837E+00 1.65305E+03 3.24247E+01
 -1       310 3.70114E+04-7.08477E+03-4.26503E+04-3.08835E+00-1.65305E+03 3.24247E+01
 -1       311 3.71348E+04-7.08437E+03-4.26489E+04 2.96394E+00 1.65290E+03 2.97003E+01
 -1       312 3.71348E+04-7.08437E+03-4.26489E+04-2.96392E+00-1.65290E+03 2.97003E+01
 -1       313 3.72601E+04-7.08229E+03-4.26439E+04 3.56905E+00 1.65225E+03 2.98946E+01
 -1       314 3.72601E+04-7.08229E+03-4.26439E+04-3.56904E+00-1.65225E+03 2.98946E+01
 -1       315 3.74306E+04-7.06610E+03-4.26249E+04 6.77308E+00 1.65113E+03 4.97800E+01
 -1       316 3.74306E+04-7.06610E+03-4.26249E+04-6.77307E+00-1.65113E+03 4.97800E+01
 -1       317 3.78076E+04-7.03697E+03-4.25528E+04 1.91739E+01 1.64561E+03 1.36252E+02
 -1       318 3.78076E+04-7.03697E+03-4.25528E+04-1.91739E+01-1.64561E+03 1.36252E+02
 -1       319 3.85066E+04-7.00825E+03-4.25032E+04 3.57372E+01 1.65562E+03 3.61445E+02
 -1       320 3.85066E+04-7.00825E+03-4.25032E+04-3.57371E+01-1.65562E+03 3.61445E+02
 -1       321 4.02688E+04-6.90299E+03-4.20068E+04 1.15809E+02 1.58096E+03 8.23386E+02
 -1       322 4.02688E+04-6.90299E+03-4.20068E+04-1.15808E+02-1.58096E+03 8.23386E+02
 -1       323 4.01075E+04-8.02886E+03-4.39584E+04-4.54578E+02 1.89461E+03 1.06664E+03
 -1       324 4.01075E+04-8.02886E+03-4.39584E+04 4.54578E+02-1.89461E+03 1.06664E+03
 -1       325 5.58438E+04-9.13852E+01-2.91037E+04 1.43520E+03 1.59210E+03-3.35118E+03
 -1       326 5.58438E+04-9.13852E+01-2.91037E+04-1.43520E+03-1.59210E+03-3.35118E+03
 -1       327 3.03023E+04-6.95617E+03-5.58384E+04-1.79863E+03 8.82293E+03-5.08765E+03
 -1       328 3.03023E+04-6.95617E+03-5.58384E+04 1.79863E+03-8.82293E+03-5.08765E+03
 -1       329 3.02004E+04 2.34810E+03-4.22686E+04-1.10664E+02 6.63282E+03-3.70003E+02
 -1       330 3.02004E+04 2.34810E+03-4.22686E+04 1.10664E+02-6.63282E+03-3.70003E+02
 -1       331 3.28716E+04-6.79106E+02-4.53096E+04 2.18096E+02 7.46982E+03 2.10889E+02
 -1       332 3.28716E+04-6.79106E+02-4.53096E+04-2.18096E+02-7.46982E+03 2.10889E+02
 -1       333 3.59920E+04 1.55781E+02-4.42048E+04 1.11404E+02 7.24135E+03 2.24047E+02
 -1       334 3.59920E+04 1.55781E+02-4.42048E+04-1.11404E+02-7.24135E+03 2.24047E+02
 -1       335 3.72107E+04 1.20183E+01-4.42521E+04 4.96514E+01 7.29751E+03 1.01144E+02
 -1       336 3.72107E+04 1.20183E+01-4.42521E+04-4.96514E+01-7.29751E+03 1.01144E+02
 -1       337 3.78392E+04 9.86914E+01-4.41359E+04 1.30145E+01 7.28108E+03 4.42878E+01
 -1       338 3.78392E+04 9.86914E+01-4.41359E+04-1.30145E+01-7.28108E+03 4.42878E+01
 -1       339 3.80733E+04 1.08272E+02-4.41216E+04 2.49168E+00 7.28349E+03 1.82667E+01
 -1       340 3.80733E+04 1.08272E+02-4.41216E+04-2.49164E+00-7.28349E+03 1.82667E+01
 -1       341 3.82090E+04 1.16713E+02-4.41122E+04 3.02277E-01 7.28188E+03 1.21277E+01
 -1       342 3.82090E+04 1.16713E+02-4.41122E+04-3.02246E-01-7.28188E+03 1.21277E+01
 -1       343 3.83270E+04 1.16763E+02-4.41109E+04 6.44549E-01 7.28158E+03 1.13959E+01
 -1       344 3.83270E+04 1.16763E+02-4.41109E+04-6.44521E-01-7.28158E+03 1.13959E+01
 -1       345 3.84507E+04 1.16187E+02-4.41092E+04 9.68765E-01 7.28114E+03 1.16529E+01
 -1       346 3.84507E+04 1.16187E+02-4.41092E+04-9.68740E-01-7.28114E+03 1.16529E+01
 -1       347 3.85748E+04 1.15232E+02-4.41077E+04 6.95799E-01 7.28071E+03 1.11705E+01
 -1       348 3.85748E+04 1.15232E+02-4.41077E+04-6.95777E-01-7.28071E+03 1.11705E+01
 -1       349 3.86893E+04 1.14080E+02-4.41075E+04-1.10750E-01 7.28053E+03 1.02679E+01
 -1       350 3.86893E+04 1.14080E+02-4.41075E+04 1.10769E-01-7.28053E+03 1.02679E+01
 -1       351 3.87941E+04 1.16936E+02-4.41040E+04-7.97785E-01 7.27889E+03 1.14465E+01
 -1       352 3.87941E+04 1.16936E+02-4.41040E+04 7.97801E-01-7.27889E+03 1.14465E+01
 -1       353 3.89300E+04 1.24340E+02-4.41009E+04 4.28559E+00 7.28205E+03 2.48095E+01
 -1       354 3.89300E+04 1.24340E+02-4.41009E+04-4.28558E+00-7.28205E+03 2.48096E+01
 -1       355 3.93096E+04 1.86481E+02-4.40162E+04 2.44728E+01 7.26351E+03 6.92465E+01
 -1       356 3.93096E+04 1.86481E+02-4.40162E+04-2.44728E+01-7.26351E+03 6.92465E+01
 -1       357 4.01848E+04 1.39477E+02-4.40796E+04 9.05260E+01 7.33165E+03 2.00780E+02
 -1       358 4.01848E+04 1.39477E+02-4.40796E+04-9.05260E+01-7.33165E+03 2.00780E+02
 -1       359 4.26161E+04 5.20046E+02-4.31268E+04 2.89561E+02 7.03920E+03 3.54299E+02
 -1       360 4.26161E+04 5.20046E+02-4.31268E+04-2.89561E+02-7.03920E+03 3.54299E+02
 -1       361 4.66942E+04-2.13195E+02-4.56705E+04 5.01034E-01 8.08482E+03 7.66600E+02
 -1       362 4.66942E+04-2.13195E+02-4.56705E+04-5.01028E-01-8.08482E+03 7.66600E+02
 -1       363 8.82984E+04 1.09816E+04-1.97001E+04 9.00619E+02 4.86436E+03-1.11863E+04
 -1       364 8.82984E+04 1.09816E+04-1.97001E+04-9.00619E+02-4.86436E+03-1.11863E+04
 -1       365 3.78702E+04-2.86633E+03-1.31968E+04 1.87449E+02 6.49619E+01 2.29937E+02
 -1       366 4.69173E+04 8.97066E+03-2.19119E+04-1.37037E+03 4.51305E+03-2.25488E+03
 -1       367 4.48874E+04-8.60078E+02-2.25897E+04-1.57945E+02 5.93634E+01 5.12570E+02
 -1       368 4.30699E+04 1.40951E+04-1.47784E+04-8.11361E+01 3.69224E+03-8.44082E+02
 -1       369 4.60409E+04-5.34164E+02-2.54752E+04-6.94327E+01 8.01885E+01 5.13785E+02
 -1       370 4.65161E+04 1.26196E+04-1.66435E+04 1.71962E+02 3.86734E+03 5.28392E+01
 -1       371 4.56978E+04-2.07690E+02-2.53845E+04-1.73992E+01 1.01451E+02 3.61037E+02
 -1       372 4.96800E+04 1.30477E+04-1.59443E+04 9.65476E+01 3.80592E+03 1.45985E+02
 -1       373 4.50492E+04-2.02771E+02-2.50223E+04-7.12821E+00 1.11322E+02 2.63463E+02
 -1       374 5.09602E+04 1.29754E+04-1.59132E+04 2.98676E+01 3.80373E+03 8.18277E+01
 -1       375 4.48109E+04-2.32765E+02-2.47970E+04-7.18872E-01 1.13928E+02 2.31209E+02
 -1       376 5.15418E+04 1.30186E+04-1.58312E+04 4.92207E+00 3.80125E+03 4.44850E+01
 -1       377 4.48294E+04-2.49796E+02-2.47036E+04 1.47815E+00 1.13870E+02 2.24548E+02
 -1       378 5.17574E+04 1.30266E+04-1.58153E+04-1.45182E+00 3.80139E+03 2.19384E+01
 -1       379 4.49456E+04-2.56752E+02-2.46762E+04 1.66303E+00 1.13424E+02 2.24823E+02
 -1       380 5.18840E+04 1.30308E+04-1.58099E+04-2.04421E+00 3.80139E+03 1.54797E+01
 -1       381 4.50874E+04-2.58970E+02-2.46726E+04 1.47981E+00 1.13052E+02 2.26126E+02
 -1       382 5.20002E+04 1.30303E+04-1.58099E+04-1.48683E+00 3.80134E+03 1.39299E+01
 -1       383 4.52328E+04-2.59174E+02-2.46749E+04 1.36494E+00 1.12805E+02 2.26778E+02
 -1       384 5.21238E+04 1.30293E+04-1.58101E+04-1.15115E+00 3.80121E+03 1.38177E+01
 -1       385 4.53794E+04-2.58925E+02-2.46786E+04 1.43003E+00 1.12603E+02 2.26530E+02
 -1       386 5.22482E+04 1.30280E+04-1.58105E+04-1.35223E+00 3.80105E+03 1.34955E+01
 -1       387 4.55292E+04-2.59500E+02-2.46818E+04 1.73127E+00 1.12293E+02 2.25134E+02
 -1       388 5.23624E+04 1.30267E+04-1.58117E+04-2.11894E+00 3.80103E+03 1.34562E+01
 -1       389 4.56743E+04-2.63244E+02-2.46744E+04 2.03042E+00 1.11935E+02 2.22538E+02
 -1       390 5.24633E+04 1.30279E+04-1.58113E+04-3.09083E+00 3.80080E+03 1.58826E+01
 -1       391 4.57714E+04-2.75176E+02-2.46222E+04 1.50682E+00 1.10943E+02 2.21301E+02
 -1       392 5.25832E+04 1.30321E+04-1.58056E+04-1.75467E+00 3.80230E+03 3.00215E+01
 -1       393 4.56737E+04-3.06382E+02-2.44494E+04-4.16478E+00 1.13281E+02 2.28439E+02
 -1       394 5.29107E+04 1.30738E+04-1.57526E+04 1.06075E+01 3.79666E+03 6.77329E+01
 -1       395 4.50627E+04-3.77975E+02-2.40372E+04-1.18081E+01 1.12218E+02 2.96750E+02
 -1       396 5.37953E+04 1.30281E+04-1.57168E+04 6.24219E+01 3.82336E+03 1.43187E+02
 -1       397 4.38528E+04-2.60984E+02-2.33772E+04-9.25944E+00 1.63581E+02 4.50086E+02
 -1       398 5.60120E+04 1.31946E+04-1.52895E+04 2.64530E+02 3.65809E+03 3.12181E+02
 -1       399 4.45089E+04 5.08816E+02-2.32948E+04-3.02484E+02 9.43634E+01 6.90186E+02
 -1       400 6.34401E+04 1.33715E+04-1.51389E+04 4.43790E+00 4.26719E+03-5.71574E+02
 -1       401 5.15918E+04 3.32731E+03-3.04471E+04 5.47818E+02 3.76240E+02 9.21956E+02
 -1       402 7.99545E+04 1.75720E+04-7.27746E+03-1.44618E+03 1.56205E+03-3.00159E+03
 -1       403 3.85243E+04-1.79314E+03-1.22143E+04 3.10014E+02 5.36163E+01 2.42330E+02
 -1       404 4.44873E+04 5.22282E+03-2.60127E+04-8.60176E+02-4.22123E+02-2.35603E+03
 -1       405 4.50523E+04-1.59157E+03-2.22198E+04-2.53684E+02 5.19336E+01 5.13513E+02
 -1       406 4.15206E+04 1.04150E+04-1.76412E+04-1.05548E+02-1.35995E+02-6.25322E+02
 -1       407 4.62233E+04-5.22556E+02-2.49662E+04-2.19896E+01 6.55852E+01 5.07370E+02
 -1       408 4.46638E+04 1.00063E+04-1.96079E+04 1.71963E+02-1.84954E+02-8.30901E+00
 -1       409 4.56567E+04-3.34091E+02-2.50509E+04-5.99424E+00 7.54935E+01 3.55473E+02
 -1       410 4.77631E+04 1.01355E+04-1.89771E+04 7.05472E+01-1.63204E+02 1.13722E+02
 -1       411 4.50994E+04-3.25953E+02-2.47068E+04-2.91068E+00 8.09375E+01 2.61519E+02
 -1       412 4.91486E+04 1.00930E+04-1.89291E+04 2.11117E+01-1.74469E+02 7.35739E+01
 -1       413 4.48796E+04-3.54233E+02-2.44873E+04 4.11989E-02 8.20758E+01 2.30440E+02
 -1       414 4.97249E+04 1.01205E+04-1.88417E+04 1.68486E+00-1.73597E+02 4.19997E+01
 -1       415 4.49011E+04-3.69728E+02-2.43944E+04 1.46866E+00 8.20527E+01 2.24181E+02
 -1       416 4.99359E+04 1.01284E+04-1.88255E+04-1.60173E+00-1.73938E+02 2.24116E+01
 -1       417 4.50166E+04-3.76836E+02-2.43663E+04 1.67348E+00 8.18045E+01 2.24496E+02
 -1       418 5.00581E+04 1.01312E+04-1.88202E+04-1.57190E+00-1.73957E+02 1.58989E+01
 -1       419 4.51578E+04-3.79220E+02-2.43622E+04 1.58036E+00 8.16068E+01 2.25775E+02
 -1       420 5.01731E+04 1.01310E+04-1.88203E+04-9.61128E-01-1.73912E+02 1.42573E+01
 -1       421 4.53028E+04-3.79600E+02-2.43642E+04 1.52013E+00 8.14759E+01 2.26408E+02
 -1       422 5.02964E+04 1.01302E+04-1.88204E+04-6.63669E-01-1.73876E+02 1.40195E+01
 -1       423 4.54490E+04-3.79497E+02-2.43677E+04 1.55872E+00 8.13630E+01 2.26168E+02
 -1       424 5.04207E+04 1.01293E+04-1.88206E+04-8.06287E-01-1.73829E+02 1.37838E+01
 -1       425 4.55981E+04-3.80214E+02-2.43704E+04 1.72057E+00 8.12221E+01 2.24788E+02
 -1       426 5.05344E+04 1.01284E+04-1.88216E+04-1.50167E+00-1.73804E+02 1.39147E+01
 -1       427 4.57423E+04-3.84143E+02-2.43620E+04 1.92662E+00 8.09375E+01 2.22292E+02
 -1       428 5.06324E+04 1.01289E+04-1.88217E+04-2.37037E+00-1.73644E+02 1.68042E+01
 -1       429 4.58372E+04-3.95576E+02-2.43086E+04 1.12290E+00 8.08247E+01 2.20521E+02
 -1       430 5.07440E+04 1.01326E+04-1.88163E+04-3.12878E+00-1.74399E+02 3.03154E+01
 -1       431 4.57461E+04-4.21694E+02-2.41377E+04-2.24873E+00 8.04537E+01 2.28892E+02
 -1       432 5.10606E+04 1.01684E+04-1.87617E+04 5.27462E+00-1.71267E+02 6.23341E+01
 -1       433 4.52042E+04-4.81413E+02-2.37248E+04-3.46420E+00 8.53813E+01 2.86104E+02
 -1       434 5.19439E+04 1.01236E+04-1.87166E+04 4.37486E+01-1.83846E+02 1.35390E+02
 -1       435 4.42190E+04-4.44943E+02-2.31216E+04 9.10361E+00 9.35463E+01 4.70003E+02
 -1       436 5.48014E+04 1.02928E+04-1.81089E+04 1.87146E+02-1.68264E+02 1.39049E+02
 -1       437 4.33820E+04 5.90326E+01-2.36440E+04-9.71943E+01 1.10464E+02 5.85945E+02
 -1       438 5.94849E+04 8.87255E+03-1.95008E+04 2.97894E+02-2.12741E+02-7.05872E+01
 -1       439 4.98368E+04 4.91572E+03-2.98563E+04-1.07046E+03 1.38215E+02 1.22271E+03
 -1       440 7.62421E+04 2.19346E+04-7.65517E+03-2.77792E+03-7.57539E+01-3.17037E+03
 -1       441 3.87407E+04-1.45731E+03-1.18206E+04 1.75881E-05-2.61624E-06 2.48238E+02
 -1       442 4.41859E+04 4.28839E+03-2.60229E+04 2.18273E-05 4.89609E-06-2.34464E+03
 -1       443 4.51207E+04-1.81270E+03-2.20082E+04 3.37197E-05-5.49197E-07 5.14996E+02
 -1       444 4.13884E+04 9.43379E+03-1.76113E+04 2.99289E-05 2.07895E-06-5.74425E+02
 -1       445 4.63016E+04-6.01275E+02-2.47314E+04 2.88986E-05-3.72114E-06 5.04850E+02
 -1       446 4.45283E+04 9.44535E+03-1.94825E+04 3.07917E-05 8.72540E-07-1.20694E+01
 -1       447 4.56776E+04-3.79812E+02-2.48481E+04 2.82597E-05-5.88248E-06 3.53429E+02
 -1       448 4.75679E+04 9.51786E+03-1.88988E+04 3.02717E-05 3.28843E-07 1.02174E+02
 -1       449 4.51286E+04-4.00733E+02-2.45234E+04 2.62030E-05-6.99485E-06 2.60467E+02
 -1       450 4.89855E+04 9.45580E+03-1.88509E+04 2.84526E-05-2.16289E-07 7.03936E+01
 -1       451 4.49238E+04-4.20736E+02-2.43018E+04 2.39261E-05-7.98512E-06 2.29858E+02
 -1       452 4.95673E+04 9.48514E+03-1.87602E+04 2.59446E-05-6.22952E-07 4.11049E+01
 -1       453 4.49442E+04-4.37300E+02-2.42100E+04 2.14196E-05-7.88132E-06 2.23710E+02
 -1       454 4.97753E+04 9.49018E+03-1.87446E+04 2.31315E-05-8.96177E-07 2.23718E+01
 -1       455 4.50599E+04-4.44017E+02-2.41815E+04 1.93294E-05-7.90851E-06 2.24051E+02
 -1       456 4.98966E+04 9.49297E+03-1.87392E+04 2.02921E-05-1.06293E-06 1.60196E+01
 -1       457 4.52008E+04-4.46520E+02-2.41773E+04 1.71560E-05-7.73178E-06 2.25323E+02
 -1       458 5.00110E+04 9.49256E+03-1.87394E+04 1.75571E-05-1.15989E-06 1.43369E+01
 -1       459 4.53457E+04-4.46930E+02-2.41792E+04 1.50592E-05-7.49241E-06 2.25952E+02
 -1       460 5.01342E+04 9.49191E+03-1.87395E+04 1.49685E-05-1.20827E-06 1.40844E+01
 -1       461 4.54917E+04-4.46868E+02-2.41826E+04 1.30474E-05-7.23358E-06 2.25707E+02
 -1       462 5.02584E+04 9.49111E+03-1.87398E+04 1.25267E-05-1.22090E-06 1.38646E+01
 -1       463 4.56408E+04-4.47604E+02-2.41851E+04 1.10856E-05-6.95805E-06 2.24367E+02
 -1       464 5.03720E+04 9.49032E+03-1.87409E+04 1.02187E-05-1.20743E-06 1.40359E+01
 -1       465 4.57841E+04-4.51799E+02-2.41765E+04 9.14797E-06-6.71044E-06 2.21748E+02
 -1       466 5.04680E+04 9.49016E+03-1.87410E+04 8.02961E-06-1.17109E-06 1.71195E+01
 -1       467 4.58801E+04-4.61639E+02-2.41222E+04 7.24183E-06-6.39240E-06 2.20403E+02
 -1       468 5.05814E+04 9.49627E+03-1.87352E+04 5.95707E-06-1.11134E-06 2.96003E+01
 -1       469 4.57811E+04-4.92835E+02-2.39555E+04 5.36241E-06-6.10178E-06 2.26882E+02
 -1       470 5.08738E+04 9.51340E+03-1.86867E+04 4.03352E-06-1.02382E-06 6.31961E+01
 -1       471 4.53138E+04-5.11683E+02-2.35212E+04 3.52855E-06-5.61078E-06 2.88398E+02
 -1       472 5.18509E+04 9.54395E+03-1.85978E+04 2.34757E-06-9.03341E-07 1.18684E+02
 -1       473 4.42344E+04-6.77798E+02-2.30273E+04 1.43437E-06-5.53372E-06 4.57329E+02
 -1       474 5.46659E+04 9.38308E+03-1.81131E+04 1.07530E-06-7.32362E-07 1.28465E+02
 -1       475 4.31783E+04 3.07793E+02-2.35097E+04-1.13481E-06-3.62544E-06 6.00729E+02
 -1       476 5.87675E+04 8.34599E+03-1.95501E+04 1.93799E-07-5.30048E-07 2.35034E+01
 -1       477 4.91798E+04 4.80950E+03-2.97626E+04-1.60736E-06 4.48257E-07 1.22011E+03
 -1       478 7.53776E+04 2.30320E+04-7.31262E+03-8.53575E-07-2.70221E-07-3.14426E+03
 -1       479 3.85243E+04-1.79314E+03-1.22143E+04-3.10014E+02-5.36163E+01 2.42330E+02
 -1       480 4.44873E+04 5.22282E+03-2.60127E+04 8.60176E+02 4.22123E+02-2.35603E+03
 -1       481 4.50523E+04-1.59157E+03-2.22198E+04 2.53684E+02-5.19336E+01 5.13513E+02
 -1       482 4.15206E+04 1.04150E+04-1.76412E+04 1.05548E+02 1.35995E+02-6.25322E+02
 -1       483 4.62233E+04-5.22556E+02-2.49662E+04 2.19897E+01-6.55852E+01 5.07370E+02
 -1       484 4.46638E+04 1.00063E+04-1.96079E+04-1.71963E+02 1.84954E+02-8.30901E+00
 -1       485 4.56567E+04-3.34091E+02-2.50509E+04 5.99429E+00-7.54935E+01 3.55473E+02
 -1       486 4.77631E+04 1.01355E+04-1.89771E+04-7.05472E+01 1.63204E+02 1.13722E+02
 -1       487 4.50994E+04-3.25953E+02-2.47068E+04 2.91073E+00-8.09375E+01 2.61519E+02
 -1       488 4.91486E+04 1.00930E+04-1.89291E+04-2.11116E+01 1.74469E+02 7.35739E+01
 -1       489 4.48796E+04-3.54233E+02-2.44873E+04-4.11527E-02-8.20758E+01 2.30440E+02
 -1       490 4.97249E+04 1.01205E+04-1.88417E+04-1.68481E+00 1.73597E+02 4.19997E+01
 -1       491 4.49011E+04-3.69728E+02-2.43944E+04-1.46862E+00-8.20527E+01 2.24181E+02
 -1       492 4.99359E+04 1.01284E+04-1.88255E+04 1.60177E+00 1.73938E+02 2.24116E+01
 -1       493 4.50166E+04-3.76836E+02-2.43663E+04-1.67345E+00-8.18045E+01 2.24496E+02
 -1       494 5.00581E+04 1.01312E+04-1.88202E+04 1.57194E+00 1.73957E+02 1.58989E+01
 -1       495 4.51578E+04-3.79220E+02-2.43622E+04-1.58033E+00-8.16068E+01 2.25775E+02
 -1       496 5.01731E+04 1.01310E+04-1.88203E+04 9.61162E-01 1.73912E+02 1.42573E+01
 -1       497 4.53028E+04-3.79600E+02-2.43642E+04-1.52010E+00-8.14759E+01 2.26408E+02
 -1       498 5.02964E+04 1.01302E+04-1.88204E+04 6.63698E-01 1.73876E+02 1.40195E+01
 -1       499 4.54490E+04-3.79497E+02-2.43677E+04-1.55870E+00-8.13630E+01 2.26168E+02
 -1       500 5.04207E+04 1.01293E+04-1.88206E+04 8.06312E-01 1.73829E+02 1.37838E+01
 -1       501 4.55981E+04-3.80214E+02-2.43704E+04-1.72054E+00-8.12222E+01 2.24788E+02
 -1       502 5.05344E+04 1.01284E+04-1.88216E+04 1.50169E+00 1.73804E+02 1.39147E+01
 -1       503 4.57423E+04-3.84143E+02-2.43620E+04-1.92660E+00-8.09375E+01 2.22292E+02
 -1       504 5.06324E+04 1.01289E+04-1.88217E+04 2.37038E+00 1.73644E+02 1.68042E+01
 -1       505 4.58372E+04-3.95576E+02-2.43086E+04-1.12288E+00-8.08247E+01 2.20521E+02
 -1       506 5.07440E+04 1.01326E+04-1.88163E+04 3.12879E+00 1.74399E+02 3.03154E+01
 -1       507 4.57461E+04-4.21694E+02-2.41377E+04 2.24874E+00-8.04537E+01 2.28892E+02
 -1       508 5.10606E+04 1.01684E+04-1.87617E+04-5.27461E+00 1.71267E+02 6.23341E+01
 -1       509 4.52042E+04-4.81413E+02-2.37248E+04 3.46421E+00-8.53813E+01 2.86104E+02
 -1       510 5.19439E+04 1.01236E+04-1.87166E+04-4.37486E+01 1.83846E+02 1.35390E+02
 -1       511 4.42190E+04-4.44943E+02-2.31216E+04-9.10360E+00-9.35463E+01 4.70003E+02
 -1       512 5.48014E+04 1.02928E+04-1.81089E+04-1.87146E+02 1.68264E+02 1.39049E+02
 -1       513 4.33820E+04 5.90325E+01-2.36440E+04 9.71943E+01-1.10464E+02 5.85945E+02
 -1       514 5.94849E+04 8.87255E+03-1.95008E+04-2.97894E+02 2.12741E+02-7.05872E+01
 -1       515 4.98368E+04 4.91572E+03-2.98563E+04 1.07046E+03-1.38215E+02 1.22271E+03
 -1       516 7.62421E+04 2.19346E+04-7.65517E+03 2.77792E+03 7.57539E+01-3.17037E+03
 -1       517 3.78702E+04-2.86633E+03-1.31968E+04-1.87449E+02-6.49619E+01 2.29937E+02
 -1       518 4.69173E+04 8.97066E+03-2.19119E+04 1.37037E+03-4.51305E+03-2.25488E+03
 -1       519 4.48874E+04-8.60078E+02-2.25897E+04 1.57945E+02-5.93634E+01 5.12570E+02
 -1       520 4.30699E+04 1.40951E+04-1.47784E+04 8.11361E+01-3.69224E+03-8.44082E+02
 -1       521 4.60409E+04-5.34164E+02-2.54752E+04 6.94328E+01-8.01885E+01 5.13785E+02
 -1       522 4.65161E+04 1.26196E+04-1.66435E+04-1.71962E+02-3.86734E+03 5.28392E+01
 -1       523 4.56978E+04-2.07690E+02-2.53845E+04 1.73992E+01-1.01451E+02 3.61037E+02
 -1       524 4.96800E+04 1.30477E+04-1.59443E+04-9.65475E+01-3.80592E+03 1.45985E+02
 -1       525 4.50492E+04-2.02771E+02-2.50223E+04 7.12826E+00-1.11322E+02 2.63463E+02
 -1       526 5.09602E+04 1.29754E+04-1.59132E+04-2.98676E+01-3.80373E+03 8.18277E+01
 -1       527 4.48109E+04-2.32765E+02-2.47970E+04 7.18914E-01-1.13928E+02 2.31209E+02
 -1       528 5.15418E+04 1.30186E+04-1.58312E+04-4.92203E+00-3.80125E+03 4.44850E+01
 -1       529 4.48294E+04-2.49796E+02-2.47036E+04-1.47811E+00-1.13870E+02 2.24548E+02
 -1       530 5.17574E+04 1.30266E+04-1.58153E+04 1.45185E+00-3.80139E+03 2.19384E+01
 -1       531 4.49456E+04-2.56752E+02-2.46762E+04-1.66300E+00-1.13424E+02 2.24823E+02
 -1       532 5.18840E+04 1.30308E+04-1.58099E+04 2.04424E+00-3.80139E+03 1.54797E+01
 -1       533 4.50874E+04-2.58970E+02-2.46726E+04-1.47978E+00-1.13052E+02 2.26126E+02
 -1       534 5.20002E+04 1.30303E+04-1.58099E+04 1.48687E+00-3.80134E+03 1.39299E+01
 -1       535 4.52328E+04-2.59174E+02-2.46749E+04-1.36491E+00-1.12805E+02 2.26778E+02
 -1       536 5.21238E+04 1.30293E+04-1.58101E+04 1.15117E+00-3.80121E+03 1.38177E+01
 -1       537 4.53794E+04-2.58925E+02-2.46786E+04-1.43000E+00-1.12603E+02 2.26530E+02
 -1       538 5.22482E+04 1.30280E+04-1.58105E+04 1.35225E+00-3.80105E+03 1.34955E+01
 -1       539 4.55292E+04-2.59500E+02-2.46818E+04-1.73125E+00-1.12293E+02 2.25134E+02
 -1       540 5.23624E+04 1.30267E+04-1.58117E+04 2.11896E+00-3.80103E+03 1.34562E+01
 -1       541 4.56743E+04-2.63244E+02-2.46744E+04-2.03040E+00-1.11935E+02 2.22538E+02
 -1       542 5.24633E+04 1.30279E+04-1.58113E+04 3.09084E+00-3.80080E+03 1.58826E+01
 -1       543 4.57714E+04-2.75176E+02-2.46222E+04-1.50680E+00-1.10943E+02 2.21301E+02
 -1       544 5.25832E+04 1.30321E+04-1.58056E+04 1.75468E+00-3.80230E+03 3.00215E+01
 -1       545 4.56737E+04-3.06382E+02-2.44494E+04 4.16479E+00-1.13281E+02 2.28439E+02
 -1       546 5.29107E+04 1.30738E+04-1.57526E+04-1.06075E+01-3.79666E+03 6.77329E+01
 -1       547 4.50627E+04-3.77975E+02-2.40372E+04 1.18081E+01-1.12218E+02 2.96750E+02
 -1       548 5.37953E+04 1.30281E+04-1.57168E+04-6.24219E+01-3.82336E+03 1.43187E+02
 -1       549 4.38528E+04-2.60984E+02-2.33772E+04 9.25945E+00-1.63581E+02 4.50086E+02
 -1       550 5.60120E+04 1.31946E+04-1.52895E+04-2.64530E+02-3.65809E+03 3.12181E+02
 -1       551 4.45089E+04 5.08816E+02-2.32948E+04 3.02484E+02-9.43634E+01 6.90186E+02
 -1       552 6.34401E+04 1.33715E+04-1.51389E+04-4.43790E+00-4.26719E+03-5.71574E+02
 -1       553 5.15918E+04 3.32731E+03-3.04471E+04-5.47818E+02-3.76240E+02 9.21956E+02
 -1       554 7.99545E+04 1.75720E+04-7.27746E+03 1.44618E+03-1.56205E+03-3.00159E+03
 -1       555 3.79938E+04-2.97501E+03-1.36947E+04 2.07495E+02 2.45097E+02-2.14720E+03
 -1       556 4.48525E+04-9.39122E+02-2.29282E+04-1.48049E+02 2.77870E+02-3.21402E+02
 -1       557 4.58621E+04-6.11679E+02-2.55663E+04-6.71216E+01 2.81966E+02 5.14866E+02
 -1       558 4.55042E+04-3.04687E+02-2.54450E+04-1.62731E+01 2.80550E+02 5.00912E+02
 -1       559 4.49162E+04-3.11348E+02-2.51103E+04-6.04818E+00 2.79037E+02 3.36943E+02
 -1       560 4.47258E+04-3.38060E+02-2.48971E+04-2.70140E-01 2.77939E+02 2.45012E+02
 -1       561 4.47607E+04-3.52370E+02-2.48074E+04 1.66570E+00 2.77442E+02 2.10377E+02
 -1       562 4.48804E+04-3.58357E+02-2.47814E+04 1.81777E+00 2.77278E+02 2.01636E+02
 -1       563 4.50222E+04-3.60097E+02-2.47779E+04 1.64734E+00 2.77188E+02 2.01180E+02
 -1       564 4.51669E+04-3.60105E+02-2.47799E+04 1.54305E+00 2.77128E+02 2.01689E+02
 -1       565 4.53125E+04-3.59758E+02-2.47832E+04 1.60867E+00 2.77082E+02 2.01033E+02
 -1       566 4.54609E+04-3.60154E+02-2.47862E+04 1.87518E+00 2.77036E+02 1.99307E+02
 -1       567 4.56054E+04-3.63567E+02-2.47793E+04 2.17896E+00 2.77009E+02 2.00114E+02
 -1       568 4.57059E+04-3.74639E+02-2.47301E+04 1.69754E+00 2.76623E+02 2.16019E+02
 -1       569 4.56463E+04-3.98565E+02-2.45610E+04-3.39648E+00 2.76640E+02 2.78368E+02
 -1       570 4.50952E+04-4.84067E+02-2.41983E+04-6.61354E+00 2.70111E+02 4.53181E+02
 -1       571 4.40298E+04-3.41678E+02-2.34950E+04-2.89812E+01 2.94978E+02 7.15904E+02
 -1       572 4.46777E+04 3.03181E+02-2.35541E+04-1.51321E+02 1.78497E+02 3.77898E+02
 -1       573 4.56601E+04 1.53231E+03-3.04670E+04-4.94496E+02 6.84067E+02-1.02359E+03
 -1       574 3.87150E+04-1.90709E+03-1.25014E+04 3.27696E+02 2.30918E+02-2.07511E+03
 -1       575 4.50691E+04-1.71207E+03-2.23410E+04-2.45408E+02 2.63832E+02-3.19143E+02
 -1       576 4.61069E+04-6.31087E+02-2.48343E+04-2.08415E+01 2.69714E+02 4.89948E+02
 -1       577 4.55291E+04-4.68333E+02-2.48925E+04-5.83250E+00 2.70193E+02 4.81851E+02
 -1       578 4.50344E+04-4.68912E+02-2.45720E+04-3.07992E+00 2.69633E+02 3.29761E+02
 -1       579 4.48610E+04-4.93782E+02-2.43644E+04-4.41394E-01 2.68804E+02 2.43266E+02
 -1       580 4.48985E+04-5.06348E+02-2.42748E+04 8.50684E-01 2.68432E+02 2.10344E+02
 -1       581 4.50173E+04-5.12376E+02-2.42482E+04 1.05610E+00 2.68277E+02 2.01883E+02
 -1       582 4.51586E+04-5.14183E+02-2.42441E+04 9.73835E-01 2.68195E+02 2.01357E+02
 -1       583 4.53028E+04-5.14289E+02-2.42459E+04 9.23513E-01 2.68143E+02 2.01805E+02
 -1       584 4.54480E+04-5.14026E+02-2.42491E+04 9.58810E-01 2.68102E+02 2.01186E+02
 -1       585 4.55959E+04-5.14505E+02-2.42516E+04 1.10687E+00 2.68060E+02 1.99599E+02
 -1       586 4.57391E+04-5.18225E+02-2.42438E+04 1.29153E+00 2.67970E+02 2.00508E+02
 -1       587 4.58382E+04-5.28117E+02-2.41932E+04 4.47359E-01 2.67871E+02 2.15707E+02
 -1       588 4.57776E+04-5.51497E+02-2.40272E+04-2.00879E+00 2.66604E+02 2.75034E+02
 -1       589 4.53222E+04-6.03618E+02-2.36529E+04-5.25075E+00 2.67568E+02 4.36192E+02
 -1       590 4.43797E+04-6.28783E+02-2.30495E+04 2.07729E+01 2.63889E+02 6.92773E+02
 -1       591 4.38995E+04 6.37904E+01-2.35245E+04-1.34472E+02 2.59002E+02 3.46103E+02
 -1       592 4.36194E+04 2.71945E+03-3.00074E+04-9.79896E+02 4.45175E+02-8.25848E+02
 -1       593 3.89547E+04-1.58037E+03-1.20282E+04 3.51142E-05-1.35844E-06-2.04190E+03
 -1       594 4.51572E+04-1.95363E+03-2.20412E+04 3.02145E-05-1.00649E-06-3.14533E+02
 -1       595 4.62066E+04-7.28002E+02-2.45139E+04 2.86782E-05-1.28898E-06 4.82186E+02
 -1       596 4.55740E+04-5.34550E+02-2.46036E+04 2.73468E-05-2.82409E-06 4.75525E+02
 -1       597 4.50879E+04-5.63494E+02-2.43020E+04 2.57910E-05-3.86562E-06 3.27175E+02
 -1       598 4.49293E+04-5.79952E+02-2.40920E+04 2.37185E-05-4.92846E-06 2.42503E+02
 -1       599 4.49653E+04-5.93590E+02-2.40035E+04 2.14448E-05-5.01104E-06 2.10150E+02
 -1       600 4.50843E+04-5.99223E+02-2.39765E+04 1.93494E-05-5.15342E-06 2.01801E+02
 -1       601 4.52253E+04-6.01133E+02-2.39723E+04 1.72397E-05-5.13835E-06 2.01256E+02
 -1       602 4.53694E+04-6.01266E+02-2.39740E+04 1.51600E-05-5.01712E-06 2.01686E+02
 -1       603 4.55144E+04-6.01020E+02-2.39771E+04 1.31477E-05-4.88611E-06 2.01078E+02
 -1       604 4.56621E+04-6.01602E+02-2.39795E+04 1.11853E-05-4.72974E-06 1.99544E+02
 -1       605 4.58049E+04-6.05205E+02-2.39713E+04 9.25350E-06-4.58313E-06 2.00419E+02
 -1       606 4.59035E+04-6.15168E+02-2.39205E+04 7.35850E-06-4.37135E-06 2.15608E+02
 -1       607 4.58397E+04-6.37465E+02-2.37560E+04 5.50656E-06-4.15059E-06 2.72882E+02
 -1       608 4.54425E+04-6.70456E+02-2.33690E+04 3.66083E-06-3.82007E-06 4.33364E+02
 -1       609 4.44496E+04-8.26935E+02-2.28459E+04 1.80413E-06-3.60639E-06 6.75952E+02
 -1       610 4.36663E+04 1.50943E+02-2.33507E+04 4.16100E-08-2.57194E-06 3.61052E+02
 -1       611 4.31767E+04 2.92098E+03-2.97348E+04-1.08494E-06-2.35608E-07-7.95768E+02
 -1       612 3.87150E+04-1.90709E+03-1.25014E+04-3.27696E+02-2.30918E+02-2.07511E+03
 -1       613 4.50691E+04-1.71207E+03-2.23410E+04 2.45408E+02-2.63832E+02-3.19143E+02
 -1       614 4.61069E+04-6.31087E+02-2.48343E+04 2.08415E+01-2.69714E+02 4.89948E+02
 -1       615 4.55291E+04-4.68333E+02-2.48925E+04 5.83255E+00-2.70193E+02 4.81851E+02
 -1       616 4.50344E+04-4.68912E+02-2.45720E+04 3.07997E+00-2.69633E+02 3.29761E+02
 -1       617 4.48610E+04-4.93782E+02-2.43644E+04 4.41440E-01-2.68804E+02 2.43266E+02
 -1       618 4.48985E+04-5.06348E+02-2.42748E+04-8.50642E-01-2.68432E+02 2.10344E+02
 -1       619 4.50173E+04-5.12376E+02-2.42482E+04-1.05606E+00-2.68277E+02 2.01883E+02
 -1       620 4.51586E+04-5.14183E+02-2.42441E+04-9.73801E-01-2.68195E+02 2.01357E+02
 -1       621 4.53028E+04-5.14289E+02-2.42459E+04-9.23483E-01-2.68143E+02 2.01805E+02
 -1       622 4.54480E+04-5.14026E+02-2.42491E+04-9.58784E-01-2.68102E+02 2.01186E+02
 -1       623 4.55959E+04-5.14505E+02-2.42516E+04-1.10685E+00-2.68060E+02 1.99599E+02
 -1       624 4.57391E+04-5.18225E+02-2.42438E+04-1.29152E+00-2.67970E+02 2.00508E+02
 -1       625 4.58382E+04-5.28117E+02-2.41932E+04-4.47344E-01-2.67871E+02 2.15707E+02
 -1       626 4.57776E+04-5.51497E+02-2.40272E+04 2.00880E+00-2.66604E+02 2.75034E+02
 -1       627 4.53222E+04-6.03618E+02-2.36529E+04 5.25076E+00-2.67568E+02 4.36192E+02
 -1       628 4.43797E+04-6.28783E+02-2.30495E+04-2.07729E+01-2.63889E+02 6.92773E+02
 -1       629 4.38995E+04 6.37904E+01-2.35245E+04 1.34472E+02-2.59002E+02 3.46103E+02
 -1       630 4.36194E+04 2.71945E+03-3.00074E+04 9.79896E+02-4.45175E+02-8.25848E+02
 -1       631 3.79938E+04-2.97501E+03-1.36947E+04-2.07495E+02-2.45097E+02-2.14720E+03
 -1       632 4.48525E+04-9.39122E+02-2.29282E+04 1.48049E+02-2.77870E+02-3.21402E+02
 -1       633 4.58621E+04-6.11679E+02-2.55663E+04 6.71216E+01-2.81966E+02 5.14866E+02
 -1       634 4.55042E+04-3.04687E+02-2.54450E+04 1.62732E+01-2.80550E+02 5.00912E+02
 -1       635 4.49162E+04-3.11348E+02-2.51103E+04 6.04823E+00-2.79037E+02 3.36943E+02
 -1       636 4.47258E+04-3.38060E+02-2.48971E+04 2.70181E-01-2.77939E+02 2.45012E+02
 -1       637 4.47607E+04-3.52370E+02-2.48074E+04-1.66567E+00-2.77442E+02 2.10377E+02
 -1       638 4.48804E+04-3.58357E+02-2.47814E+04-1.81774E+00-2.77278E+02 2.01636E+02
 -1       639 4.50222E+04-3.60097E+02-2.47779E+04-1.64731E+00-2.77188E+02 2.01180E+02
 -1       640 4.51669E+04-3.60105E+02-2.47799E+04-1.54302E+00-2.77128E+02 2.01689E+02
 -1       641 4.53125E+04-3.59758E+02-2.47832E+04-1.60865E+00-2.77082E+02 2.01033E+02
 -1       642 4.54609E+04-3.60154E+02-2.47862E+04-1.87516E+00-2.77036E+02 1.99307E+02
 -1       643 4.56054E+04-3.63567E+02-2.47793E+04-2.17894E+00-2.77009E+02 2.00114E+02
 -1       644 4.57059E+04-3.74639E+02-2.47301E+04-1.69752E+00-2.76623E+02 2.16019E+02
 -1       645 4.56463E+04-3.98565E+02-2.45610E+04 3.39650E+00-2.76640E+02 2.78368E+02
 -1       646 4.50952E+04-4.84067E+02-2.41983E+04 6.61355E+00-2.70111E+02 4.53181E+02
 -1       647 4.40298E+04-3.41678E+02-2.34950E+04 2.89812E+01-2.94978E+02 7.15904E+02
 -1       648 4.46777E+04 3.03181E+02-2.35541E+04 1.51321E+02-1.78497E+02 3.77898E+02
 -1       649 4.56601E+04 1.53231E+03-3.04670E+04 4.94496E+02-6.84067E+02-1.02359E+03
 -1       650 3.80558E+04-3.35309E+03-1.53315E+04 2.79404E+02 5.94749E+02-4.26970E+03
 -1       651 4.46772E+04-1.13748E+03-2.38773E+04-1.28357E+02 6.73991E+02-6.46873E+02
 -1       652 4.53477E+04-7.51815E+02-2.57678E+04-6.18963E+01 6.91427E+02 7.84950E+02
 -1       653 4.49679E+04-5.26839E+02-2.56038E+04-1.25173E+01 6.92047E+02 6.83359E+02
 -1       654 4.45732E+04-5.59481E+02-2.53483E+04-3.59569E+00 6.88848E+02 3.92261E+02
 -1       655 4.45115E+04-5.77110E+02-2.51653E+04 5.00118E-01 6.86472E+02 2.32769E+02
 -1       656 4.45889E+04-5.85770E+02-2.50872E+04 1.81036E+00 6.85745E+02 1.72487E+02
 -1       657 4.47176E+04-5.89780E+02-2.50651E+04 1.87335E+00 6.85542E+02 1.58056E+02
 -1       658 4.48591E+04-5.90743E+02-2.50617E+04 1.70483E+00 6.85488E+02 1.57510E+02
 -1       659 4.50012E+04-5.90665E+02-2.50632E+04 1.61747E+00 6.85472E+02 1.58485E+02
 -1       660 4.51438E+04-5.90386E+02-2.50658E+04 1.66865E+00 6.85465E+02 1.57271E+02
 -1       661 4.52888E+04-5.90466E+02-2.50680E+04 1.89163E+00 6.85462E+02 1.54105E+02
 -1       662 4.54323E+04-5.92968E+02-2.50622E+04 2.20560E+00 6.85349E+02 1.55155E+02
 -1       663 4.55502E+04-5.99214E+02-2.50187E+04 1.69778E+00 6.85248E+02 1.83212E+02
 -1       664 4.55778E+04-6.13389E+02-2.48705E+04-5.69041E-01 6.82514E+02 2.95845E+02
 -1       665 4.52707E+04-6.79396E+02-2.45753E+04-7.07470E+00 6.81443E+02 5.96268E+02
 -1       666 4.45125E+04-6.44209E+02-2.40247E+04-4.44821E+00 6.71937E+02 1.11093E+03
 -1       667 4.38586E+04-3.44169E+02-2.40717E+04-2.28459E+02 6.67255E+02 7.27446E+02
 -1       668 4.42333E+04 1.63955E+03-2.76466E+04-4.35674E+02 9.84298E+02-2.27405E+03
 -1       669 3.89588E+04-2.37910E+03-1.34872E+04 3.89779E+02 5.42657E+02-4.07523E+03
 -1       670 4.50583E+04-2.02844E+03-2.25953E+04-2.26874E+02 6.18620E+02-6.31793E+02
 -1       671 4.57808E+04-8.89714E+02-2.43480E+04-1.51329E+01 6.35623E+02 7.35612E+02
 -1       672 4.51965E+04-8.16640E+02-2.43649E+04-3.57163E+00 6.40301E+02 6.48381E+02
 -1       673 4.48977E+04-8.39515E+02-2.41162E+04-1.75697E+00 6.38492E+02 3.79606E+02
 -1       674 4.48489E+04-8.55135E+02-2.39380E+04-1.54654E-01 6.36815E+02 2.30177E+02
 -1       675 4.49272E+04-8.61932E+02-2.38595E+04 8.98685E-01 6.36206E+02 1.73051E+02
 -1       676 4.50544E+04-8.65964E+02-2.38370E+04 1.08311E+00 6.35988E+02 1.59110E+02
 -1       677 4.51952E+04-8.66919E+02-2.38332E+04 1.02001E+00 6.35912E+02 1.58430E+02
 -1       678 4.53369E+04-8.66904E+02-2.38345E+04 9.84849E-01 6.35881E+02 1.59295E+02
 -1       679 4.54792E+04-8.66644E+02-2.38371E+04 1.00924E+00 6.35863E+02 1.58156E+02
 -1       680 4.56236E+04-8.66867E+02-2.38389E+04 1.13163E+00 6.35821E+02 1.55265E+02
 -1       681 4.57660E+04-8.69238E+02-2.38321E+04 1.23594E+00 6.35734E+02 1.56486E+02
 -1       682 4.58795E+04-8.76192E+02-2.37885E+04 5.88035E-01 6.35322E+02 1.83668E+02
 -1       683 4.59077E+04-8.82891E+02-2.36384E+04-1.75675E+00 6.33909E+02 2.88856E+02
 -1       684 4.56771E+04-9.38136E+02-2.33408E+04-1.43930E+00 6.31439E+02 5.72161E+02
 -1       685 4.50778E+04-9.97060E+02-2.28487E+04 2.12887E+01 6.28695E+02 1.03713E+03
 -1       686 4.33460E+04-8.01952E+02-2.33491E+04-1.28648E+02 6.33215E+02 7.41829E+02
 -1       687 4.30505E+04 2.87977E+03-2.65517E+04-9.85295E+02 8.72918E+02-2.01557E+03
 -1       688 3.92493E+04-2.12049E+03-1.27955E+04 3.43252E-05-5.83453E-07-3.99063E+03
 -1       689 4.51925E+04-2.34459E+03-2.20505E+04 3.17165E-05-1.34653E-06-6.19116E+02
 -1       690 4.59303E+04-1.06952E+03-2.37933E+04 2.83839E-05-8.95963E-07 7.20945E+02
 -1       691 4.52994E+04-9.66602E+02-2.38376E+04 2.73204E-05-1.39030E-06 6.37141E+02
 -1       692 4.50094E+04-1.01782E+03-2.36074E+04 2.58086E-05-2.29187E-06 3.75367E+02
 -1       693 4.49744E+04-1.02432E+03-2.34258E+04 2.39144E-05-3.07039E-06 2.29277E+02
 -1       694 4.50506E+04-1.03235E+03-2.33485E+04 2.17630E-05-3.23180E-06 1.73241E+02
 -1       695 4.51778E+04-1.03590E+03-2.33255E+04 1.96412E-05-3.29603E-06 1.59487E+02
 -1       696 4.53182E+04-1.03695E+03-2.33216E+04 1.75164E-05-3.28530E-06 1.58775E+02
 -1       697 4.54599E+04-1.03694E+03-2.33229E+04 1.54098E-05-3.19834E-06 1.59606E+02
 -1       698 4.56020E+04-1.03670E+03-2.33254E+04 1.33555E-05-3.10239E-06 1.58495E+02
 -1       699 4.57462E+04-1.03694E+03-2.33272E+04 1.13510E-05-3.00461E-06 1.55668E+02
 -1       700 4.58879E+04-1.03944E+03-2.33202E+04 9.39101E-06-2.91050E-06 1.56990E+02
 -1       701 4.60009E+04-1.04574E+03-2.32759E+04 7.47851E-06-2.78280E-06 1.83631E+02
 -1       702 4.60241E+04-1.05315E+03-2.31280E+04 5.61958E-06-2.62506E-06 2.86794E+02
 -1       703 4.58504E+04-1.08534E+03-2.28158E+04 3.80402E-06-2.42304E-06 5.63292E+02
 -1       704 4.52025E+04-1.27845E+03-2.24003E+04 2.04493E-06-2.12081E-06 1.01463E+03
 -1       705 4.32266E+04-7.88102E+02-2.29233E+04 4.26259E-07-1.58990E-06 7.53208E+02
 -1       706 4.26681E+04 2.94905E+03-2.61172E+04-6.75802E-07-7.56184E-07-1.92196E+03
 -1       707 3.89588E+04-2.37910E+03-1.34872E+04-3.89779E+02-5.42657E+02-4.07523E+03
 -1       708 4.50583E+04-2.02844E+03-2.25953E+04 2.26874E+02-6.18620E+02-6.31793E+02
 -1       709 4.57808E+04-8.89714E+02-2.43480E+04 1.51329E+01-6.35623E+02 7.35612E+02
 -1       710 4.51965E+04-8.16640E+02-2.43649E+04 3.57168E+00-6.40301E+02 6.48381E+02
 -1       711 4.48977E+04-8.39515E+02-2.41162E+04 1.75702E+00-6.38492E+02 3.79606E+02
 -1       712 4.48489E+04-8.55135E+02-2.39380E+04 1.54700E-01-6.36815E+02 2.30177E+02
 -1       713 4.49272E+04-8.61932E+02-2.38595E+04-8.98643E-01-6.36206E+02 1.73051E+02
 -1       714 4.50544E+04-8.65964E+02-2.38370E+04-1.08307E+00-6.35988E+02 1.59110E+02
 -1       715 4.51952E+04-8.66919E+02-2.38332E+04-1.01998E+00-6.35912E+02 1.58430E+02
 -1       716 4.53369E+04-8.66904E+02-2.38345E+04-9.84819E-01-6.35881E+02 1.59295E+02
 -1       717 4.54792E+04-8.66644E+02-2.38371E+04-1.00921E+00-6.35863E+02 1.58156E+02
 -1       718 4.56236E+04-8.66867E+02-2.38389E+04-1.13161E+00-6.35821E+02 1.55265E+02
 -1       719 4.57660E+04-8.69238E+02-2.38321E+04-1.23593E+00-6.35734E+02 1.56486E+02
 -1       720 4.58795E+04-8.76192E+02-2.37885E+04-5.88020E-01-6.35322E+02 1.83668E+02
 -1       721 4.59077E+04-8.82891E+02-2.36384E+04 1.75677E+00-6.33909E+02 2.88856E+02
 -1       722 4.56771E+04-9.38136E+02-2.33408E+04 1.43931E+00-6.31439E+02 5.72161E+02
 -1       723 4.50778E+04-9.97060E+02-2.28487E+04-2.12887E+01-6.28695E+02 1.03713E+03
 -1       724 4.33460E+04-8.01952E+02-2.33491E+04 1.28648E+02-6.33215E+02 7.41829E+02
 -1       725 4.30505E+04 2.87977E+03-2.65517E+04 9.85295E+02-8.72918E+02-2.01557E+03
 -1       726 3.80558E+04-3.35309E+03-1.53315E+04-2.79404E+02-5.94749E+02-4.26970E+03
 -1       727 4.46772E+04-1.13748E+03-2.38773E+04 1.28358E+02-6.73991E+02-6.46873E+02
 -1       728 4.53477E+04-7.51815E+02-2.57678E+04 6.18963E+01-6.91427E+02 7.84950E+02
 -1       729 4.49679E+04-5.26839E+02-2.56038E+04 1.25173E+01-6.92047E+02 6.83359E+02
 -1       730 4.45732E+04-5.59481E+02-2.53483E+04 3.59574E+00-6.88848E+02 3.92261E+02
 -1       731 4.45115E+04-5.77110E+02-2.51653E+04-5.00077E-01-6.86472E+02 2.32769E+02
 -1       732 4.45889E+04-5.85770E+02-2.50872E+04-1.81032E+00-6.85745E+02 1.72487E+02
 -1       733 4.47176E+04-5.89780E+02-2.50651E+04-1.87331E+00-6.85542E+02 1.58056E+02
 -1       734 4.48591E+04-5.90743E+02-2.50617E+04-1.70480E+00-6.85488E+02 1.57510E+02
 -1       735 4.50012E+04-5.90665E+02-2.50632E+04-1.61745E+00-6.85472E+02 1.58485E+02
 -1       736 4.51438E+04-5.90386E+02-2.50658E+04-1.66863E+00-6.85465E+02 1.57271E+02
 -1       737 4.52888E+04-5.90466E+02-2.50680E+04-1.89161E+00-6.85462E+02 1.54105E+02
 -1       738 4.54323E+04-5.92968E+02-2.50622E+04-2.20558E+00-6.85349E+02 1.55155E+02
 -1       739 4.55502E+04-5.99214E+02-2.50187E+04-1.69777E+00-6.85248E+02 1.83212E+02
 -1       740 4.55778E+04-6.13389E+02-2.48705E+04 5.69053E-01-6.82514E+02 2.95845E+02
 -1       741 4.52707E+04-6.79396E+02-2.45753E+04 7.07471E+00-6.81443E+02 5.96268E+02
 -1       742 4.45125E+04-6.44209E+02-2.40247E+04 4.44821E+00-6.71937E+02 1.11093E+03
 -1       743 4.38586E+04-3.44169E+02-2.40717E+04 2.28459E+02-6.67255E+02 7.27446E+02
 -1       744 4.42333E+04 1.63955E+03-2.76466E+04 4.35674E+02-9.84298E+02-2.27405E+03
 -1       745 3.81057E+04-3.96684E+03-1.82098E+04 4.27534E+02 1.15950E+03-6.06590E+03
 -1       746 4.43730E+04-1.27018E+03-2.50660E+04-9.75535E+01 1.26690E+03-6.13238E+02
 -1       747 4.44661E+04-8.49419E+02-2.58587E+04-5.38119E+01 1.31073E+03 9.76044E+02
 -1       748 4.41740E+04-7.92219E+02-2.57749E+04-4.94724E+00 1.31561E+03 7.36320E+02
 -1       749 4.41439E+04-8.38612E+02-2.56119E+04 5.98528E-02 1.30774E+03 3.94909E+02
 -1       750 4.42643E+04-8.39247E+02-2.54626E+04 1.19596E+00 1.30402E+03 2.01930E+02
 -1       751 4.43972E+04-8.42054E+02-2.54045E+04 1.91696E+00 1.30289E+03 1.31827E+02
 -1       752 4.45382E+04-8.42613E+02-2.53863E+04 1.80466E+00 1.30257E+03 1.15392E+02
 -1       753 4.46776E+04-8.42723E+02-2.53833E+04 1.67357E+00 1.30250E+03 1.15149E+02
 -1       754 4.48159E+04-8.42619E+02-2.53839E+04 1.61025E+00 1.30249E+03 1.16426E+02
 -1       755 4.49540E+04-8.42461E+02-2.53855E+04 1.64141E+00 1.30250E+03 1.14951E+02
 -1       756 4.50931E+04-8.42451E+02-2.53867E+04 1.79054E+00 1.30249E+03 1.10945E+02
 -1       757 4.52346E+04-8.42691E+02-2.53811E+04 2.04001E+00 1.30240E+03 1.11713E+02
 -1       758 4.53751E+04-8.44616E+02-2.53480E+04 1.94139E+00 1.30183E+03 1.43926E+02
 -1       759 4.55089E+04-8.42810E+02-2.52309E+04 4.65345E-01 1.29967E+03 2.79804E+02
 -1       760 4.56168E+04-8.66463E+02-2.49844E+04 3.58550E+00 1.29039E+03 6.27218E+02
 -1       761 4.52009E+04-1.02347E+03-2.48297E+04-8.88515E+00 1.28219E+03 1.28055E+03
 -1       762 4.40907E+04-8.27564E+02-2.42071E+04-2.01712E+02 1.29768E+03 1.16486E+03
 -1       763 4.49747E+04 1.92428E+03-2.51265E+04-3.05990E+02 1.55246E+03-1.96302E+03
 -1       764 3.93170E+04-3.17188E+03-1.52576E+04 5.03000E+02 9.43543E+02-5.64825E+03
 -1       765 4.50178E+04-2.32697E+03-2.26282E+04-1.98785E+02 1.05063E+03-5.79843E+02
 -1       766 4.52013E+04-1.17784E+03-2.33232E+04-6.79054E+00 1.09141E+03 9.02511E+02
 -1       767 4.47456E+04-1.27402E+03-2.34000E+04 1.34948E+00 1.10125E+03 6.89835E+02
 -1       768 4.48088E+04-1.30781E+03-2.32397E+04-1.94259E-01 1.09651E+03 3.78141E+02
 -1       769 4.49366E+04-1.30591E+03-2.30922E+04 1.68183E-02 1.09384E+03 1.98839E+02
 -1       770 4.50674E+04-1.30730E+03-2.30338E+04 8.29066E-01 1.09289E+03 1.32828E+02
 -1       771 4.52060E+04-1.30773E+03-2.30152E+04 9.80169E-01 1.09255E+03 1.16963E+02
 -1       772 4.53444E+04-1.30790E+03-2.30120E+04 9.62067E-01 1.09245E+03 1.16540E+02
 -1       773 4.54824E+04-1.30782E+03-2.30127E+04 9.49589E-01 1.09242E+03 1.17659E+02
 -1       774 4.56203E+04-1.30769E+03-2.30142E+04 9.65736E-01 1.09241E+03 1.16292E+02
 -1       775 4.57589E+04-1.30773E+03-2.30153E+04 1.01038E+00 1.09237E+03 1.12654E+02
 -1       776 4.58987E+04-1.30818E+03-2.30092E+04 1.09651E+00 1.09222E+03 1.13723E+02
 -1       777 4.60331E+04-1.30994E+03-2.29758E+04 4.08601E-01 1.09159E+03 1.44776E+02
 -1       778 4.61623E+04-1.30342E+03-2.28565E+04-1.46236E+00 1.09004E+03 2.71606E+02
 -1       779 4.63295E+04-1.31207E+03-2.26059E+04 3.68496E+00 1.08227E+03 5.93634E+02
 -1       780 4.61116E+04-1.54823E+03-2.24746E+04 2.04706E+01 1.08141E+03 1.17863E+03
 -1       781 4.40486E+04-1.50296E+03-2.23413E+04-1.02663E+02 1.10094E+03 1.17137E+03
 -1       782 4.40732E+04 2.91435E+03-2.30733E+04-8.47484E+02 1.32260E+03-1.52731E+03
 -1       783 3.96132E+04-3.08106E+03-1.43973E+04 3.45230E-05 6.48223E-07-5.49549E+03
 -1       784 4.51373E+04-2.80841E+03-2.18948E+04 3.19642E-05-9.78105E-07-5.56242E+02
 -1       785 4.53584E+04-1.52204E+03-2.25745E+04 2.87066E-05-8.62225E-07 8.80761E+02
 -1       786 4.48665E+04-1.59567E+03-2.26785E+04 2.76377E-05-1.30323E-06 6.75135E+02
 -1       787 4.49403E+04-1.65375E+03-2.25323E+04 2.62842E-05-1.99233E-06 3.72354E+02
 -1       788 4.50795E+04-1.64352E+03-2.23815E+04 2.44658E-05-2.56185E-06 1.97734E+02
 -1       789 4.52076E+04-1.64592E+03-2.23239E+04 2.23602E-05-2.72664E-06 1.33099E+02
 -1       790 4.53457E+04-1.64591E+03-2.23050E+04 2.01786E-05-2.74342E-06 1.17466E+02
 -1       791 4.54838E+04-1.64615E+03-2.23018E+04 1.79828E-05-2.70432E-06 1.16998E+02
 -1       792 4.56216E+04-1.64606E+03-2.23025E+04 1.58036E-05-2.62021E-06 1.18070E+02
 -1       793 4.57594E+04-1.64594E+03-2.23041E+04 1.36708E-05-2.52592E-06 1.16739E+02
 -1       794 4.58979E+04-1.64596E+03-2.23051E+04 1.15931E-05-2.43636E-06 1.13203E+02
 -1       795 4.60368E+04-1.64663E+03-2.22990E+04 9.57128E-06-2.34734E-06 1.14374E+02
 -1       796 4.61702E+04-1.64739E+03-2.22648E+04 7.61199E-06-2.24231E-06 1.44876E+02
 -1       797 4.62923E+04-1.64274E+03-2.21478E+04 5.72722E-06-2.10737E-06 2.68867E+02
 -1       798 4.65113E+04-1.62652E+03-2.18820E+04 3.93663E-06-1.92865E-06 5.81732E+02
 -1       799 4.62642E+04-1.98701E+03-2.18110E+04 2.27789E-06-1.64542E-06 1.14605E+03
 -1       800 4.39728E+04-1.69504E+03-2.17388E+04 7.38732E-07-1.15976E-06 1.19334E+03
 -1       801 4.37769E+04 2.88169E+03-2.24224E+04-3.72715E-07-6.46557E-07-1.38033E+03
 -1       802 3.93170E+04-3.17188E+03-1.52576E+04-5.03000E+02-9.43543E+02-5.64825E+03
 -1       803 4.50178E+04-2.32697E+03-2.26282E+04 1.98785E+02-1.05063E+03-5.79843E+02
 -1       804 4.52013E+04-1.17784E+03-2.33232E+04 6.79059E+00-1.09141E+03 9.02511E+02
 -1       805 4.47456E+04-1.27402E+03-2.34000E+04-1.34943E+00-1.10125E+03 6.89835E+02
 -1       806 4.48088E+04-1.30781E+03-2.32397E+04 1.94310E-01-1.09651E+03 3.78141E+02
 -1       807 4.49366E+04-1.30591E+03-2.30922E+04-1.67713E-02-1.09384E+03 1.98839E+02
 -1       808 4.50674E+04-1.30730E+03-2.30338E+04-8.29023E-01-1.09289E+03 1.32828E+02
 -1       809 4.52060E+04-1.30773E+03-2.30152E+04-9.80130E-01-1.09255E+03 1.16963E+02
 -1       810 4.53444E+04-1.30790E+03-2.30120E+04-9.62032E-01-1.09245E+03 1.16540E+02
 -1       811 4.54824E+04-1.30782E+03-2.30127E+04-9.49558E-01-1.09242E+03 1.17659E+02
 -1       812 4.56203E+04-1.30769E+03-2.30142E+04-9.65709E-01-1.09241E+03 1.16292E+02
 -1       813 4.57589E+04-1.30773E+03-2.30153E+04-1.01035E+00-1.09237E+03 1.12654E+02
 -1       814 4.58987E+04-1.30818E+03-2.30092E+04-1.09649E+00-1.09222E+03 1.13723E+02
 -1       815 4.60331E+04-1.30994E+03-2.29758E+04-4.08586E-01-1.09159E+03 1.44776E+02
 -1       816 4.61623E+04-1.30342E+03-2.28565E+04 1.46237E+00-1.09004E+03 2.71606E+02
 -1       817 4.63295E+04-1.31207E+03-2.26059E+04-3.68495E+00-1.08227E+03 5.93634E+02
 -1       818 4.61116E+04-1.54823E+03-2.24746E+04-2.04706E+01-1.08141E+03 1.17863E+03
 -1       819 4.40486E+04-1.50296E+03-2.23413E+04 1.02663E+02-1.10094E+03 1.17137E+03
 -1       820 4.40732E+04 2.91435E+03-2.30733E+04 8.47484E+02-1.32260E+03-1.52731E+03
 -1       821 3.81057E+04-3.96684E+03-1.82098E+04-4.27534E+02-1.15950E+03-6.06590E+03
 -1       822 4.43730E+04-1.27018E+03-2.50660E+04 9.75536E+01-1.26690E+03-6.13238E+02
 -1       823 4.44661E+04-8.49419E+02-2.58587E+04 5.38119E+01-1.31073E+03 9.76044E+02
 -1       824 4.41740E+04-7.92219E+02-2.57749E+04 4.94729E+00-1.31561E+03 7.36320E+02
 -1       825 4.41439E+04-8.38612E+02-2.56119E+04-5.98096E-02-1.30774E+03 3.94909E+02
 -1       826 4.42643E+04-8.39247E+02-2.54626E+04-1.19591E+00-1.30402E+03 2.01930E+02
 -1       827 4.43972E+04-8.42054E+02-2.54045E+04-1.91692E+00-1.30289E+03 1.31827E+02
 -1       828 4.45382E+04-8.42613E+02-2.53863E+04-1.80462E+00-1.30257E+03 1.15392E+02
 -1       829 4.46776E+04-8.42723E+02-2.53833E+04-1.67353E+00-1.30250E+03 1.15149E+02
 -1       830 4.48159E+04-8.42619E+02-2.53839E+04-1.61022E+00-1.30249E+03 1.16426E+02
 -1       831 4.49540E+04-8.42461E+02-2.53855E+04-1.64139E+00-1.30250E+03 1.14951E+02
 -1       832 4.50931E+04-8.42451E+02-2.53867E+04-1.79051E+00-1.30249E+03 1.10945E+02
 -1       833 4.52346E+04-8.42691E+02-2.53811E+04-2.03999E+00-1.30240E+03 1.11713E+02
 -1       834 4.53751E+04-8.44616E+02-2.53480E+04-1.94138E+00-1.30183E+03 1.43926E+02
 -1       835 4.55089E+04-8.42810E+02-2.52309E+04-4.65332E-01-1.29967E+03 2.79804E+02
 -1       836 4.56168E+04-8.66463E+02-2.49844E+04-3.58549E+00-1.29039E+03 6.27218E+02
 -1       837 4.52009E+04-1.02347E+03-2.48297E+04 8.88515E+00-1.28219E+03 1.28055E+03
 -1       838 4.40907E+04-8.27564E+02-2.42071E+04 2.01712E+02-1.29768E+03 1.16486E+03
 -1       839 4.49747E+04 1.92428E+03-2.51265E+04 3.05990E+02-1.55246E+03-1.96302E+03
 -1       840 3.84993E+04-4.52427E+03-2.19014E+04 6.63057E+02 1.81379E+03-6.79043E+03
 -1       841 4.42547E+04-6.19884E+02-2.49622E+04-9.19515E+01 1.84147E+03-1.57452E+02
 -1       842 4.34494E+04-4.68298E+02-2.49318E+04-4.21674E+01 1.95872E+03 8.55132E+02
 -1       843 4.36583E+04-6.34979E+02-2.51527E+04 1.05462E+01 1.95175E+03 6.48728E+02
 -1       844 4.41696E+04-6.30573E+02-2.49839E+04 2.62570E+00 1.94198E+03 3.23595E+02
 -1       845 4.44623E+04-6.24388E+02-2.48919E+04 1.91767E+00 1.93679E+03 1.51446E+02
 -1       846 4.46574E+04-6.18429E+02-2.48488E+04 1.55773E+00 1.93548E+03 8.87272E+01
 -1       847 4.48052E+04-6.15503E+02-2.48352E+04 1.36813E+00 1.93495E+03 7.44397E+01
 -1       848 4.49404E+04-6.14956E+02-2.48324E+04 1.29706E+00 1.93487E+03 7.44822E+01
 -1       849 4.50738E+04-6.14921E+02-2.48322E+04 1.28011E+00 1.93485E+03 7.57065E+01
 -1       850 4.52066E+04-6.15049E+02-2.48327E+04 1.27753E+00 1.93484E+03 7.43639E+01
 -1       851 4.53383E+04-6.14995E+02-2.48329E+04 1.33675E+00 1.93487E+03 7.05946E+01
 -1       852 4.54725E+04-6.13690E+02-2.48282E+04 1.40549E+00 1.93464E+03 7.08993E+01
 -1       853 4.56332E+04-6.08096E+02-2.48020E+04 1.86378E+00 1.93407E+03 9.97266E+01
 -1       854 4.58684E+04-5.98324E+02-2.47278E+04 1.05262E+00 1.93132E+03 2.19326E+02
 -1       855 4.63726E+04-5.68664E+02-2.45188E+04 1.35034E+01 1.92007E+03 5.43625E+02
 -1       856 4.68433E+04-7.77268E+02-2.45765E+04 1.19877E+01 1.89304E+03 1.08355E+03
 -1       857 4.61527E+04-8.75624E+02-2.41030E+04-2.19794E+02 1.98843E+03 1.43692E+03
 -1       858 4.81776E+04 2.57551E+03-2.16683E+04 1.10568E+02 1.89583E+03-1.10162E+03
 -1       859 3.97573E+04-4.16246E+03-1.83887E+04 6.12987E+02 1.01419E+03-6.15559E+03
 -1       860 4.48503E+04-1.99086E+03-2.19607E+04-1.88295E+02 1.15833E+03-1.16152E+02
 -1       861 4.42637E+04-1.11606E+03-2.18173E+04 9.50558E+00 1.22252E+03 7.67153E+02
 -1       862 4.43520E+04-1.44104E+03-2.21775E+04 1.01588E+01 1.23652E+03 5.97987E+02
 -1       863 4.49533E+04-1.41592E+03-2.20010E+04 1.02019E+00 1.22845E+03 3.04667E+02
 -1       864 4.52454E+04-1.41178E+03-2.19100E+04 3.90806E-02 1.22548E+03 1.48661E+02
 -1       865 4.54354E+04-1.40325E+03-2.18660E+04 3.75513E-01 1.22422E+03 8.96839E+01
 -1       866 4.55795E+04-1.40091E+03-2.18526E+04 4.99849E-01 1.22380E+03 7.60855E+01
 -1       867 4.57137E+04-1.40026E+03-2.18497E+04 5.68533E-01 1.22367E+03 7.58426E+01
 -1       868 4.58467E+04-1.40027E+03-2.18497E+04 5.85288E-01 1.22366E+03 7.69019E+01
 -1       869 4.59794E+04-1.40040E+03-2.18504E+04 5.83360E-01 1.22366E+03 7.56624E+01
 -1       870 4.61105E+04-1.40036E+03-2.18506E+04 5.56356E-01 1.22363E+03 7.23561E+01
 -1       871 4.62428E+04-1.39930E+03-2.18457E+04 4.49767E-01 1.22341E+03 7.29512E+01
 -1       872 4.63943E+04-1.39420E+03-2.18206E+04 1.36754E-01 1.22263E+03 1.00924E+02
 -1       873 4.66206E+04-1.37894E+03-2.17404E+04-2.00862E+00 1.22126E+03 2.11242E+02
 -1       874 4.71592E+04-1.34291E+03-2.15349E+04 9.48468E+00 1.20912E+03 5.05572E+02
 -1       875 4.78865E+04-1.58795E+03-2.15502E+04 3.23011E+01 1.20899E+03 9.66221E+02
 -1       876 4.62797E+04-2.00921E+03-2.16814E+04-7.99820E+01 1.24975E+03 1.44034E+03
 -1       877 4.74787E+04 3.76697E+03-1.89386E+04-6.43651E+02 1.33610E+03-4.69587E+02
 -1       878 3.97591E+04-4.30272E+03-1.82222E+04 3.30082E-05 1.38111E-06-5.97172E+03
 -1       879 4.47518E+04-2.55694E+03-2.17144E+04 3.14544E-05-3.42986E-07-9.01074E+01
 -1       880 4.41933E+04-1.59506E+03-2.16007E+04 2.91980E-05-8.94419E-07 7.47396E+02
 -1       881 4.42694E+04-1.88441E+03-2.19678E+04 2.84101E-05-1.22539E-06 5.80359E+02
 -1       882 4.48782E+04-1.88715E+03-2.18056E+04 2.71131E-05-1.65188E-06 2.98665E+02
 -1       883 4.51804E+04-1.87462E+03-2.17101E+04 2.52772E-05-1.98276E-06 1.47295E+02
 -1       884 4.53665E+04-1.86724E+03-2.16668E+04 2.30982E-05-2.07494E-06 8.98302E+01
 -1       885 4.55099E+04-1.86451E+03-2.16532E+04 2.07929E-05-2.04675E-06 7.64284E+01
 -1       886 4.56436E+04-1.86391E+03-2.16504E+04 1.84678E-05-1.98047E-06 7.61423E+01
 -1       887 4.57765E+04-1.86389E+03-2.16504E+04 1.61708E-05-1.89586E-06 7.71459E+01
 -1       888 4.59092E+04-1.86402E+03-2.16510E+04 1.39287E-05-1.80948E-06 7.59478E+01
 -1       889 4.60402E+04-1.86390E+03-2.16512E+04 1.17533E-05-1.73253E-06 7.27505E+01
 -1       890 4.61713E+04-1.86317E+03-2.16464E+04 9.64806E-06-1.66096E-06 7.34867E+01
 -1       891 4.63214E+04-1.85679E+03-2.16205E+04 7.62339E-06-1.58320E-06 1.00792E+02
 -1       892 4.65379E+04-1.84467E+03-2.15429E+04 5.69974E-06-1.48463E-06 2.08989E+02
 -1       893 4.71240E+04-1.78222E+03-2.13204E+04 3.92354E-06-1.34967E-06 4.89946E+02
 -1       894 4.78452E+04-2.15056E+03-2.13812E+04 2.37837E-06-1.13508E-06 9.34068E+02
 -1       895 4.59797E+04-2.37588E+03-2.16326E+04 9.45278E-07-7.48183E-07 1.47164E+03
 -1       896 4.70169E+04 3.81943E+03-1.85951E+04-2.08762E-07-4.23469E-07-2.86845E+02
 -1       897 3.97573E+04-4.16246E+03-1.83887E+04-6.12987E+02-1.01419E+03-6.15559E+03
 -1       898 4.48503E+04-1.99086E+03-2.19607E+04 1.88295E+02-1.15833E+03-1.16152E+02
 -1       899 4.42637E+04-1.11606E+03-2.18173E+04-9.50552E+00-1.22252E+03 7.67153E+02
 -1       900 4.43520E+04-1.44104E+03-2.21775E+04-1.01587E+01-1.23652E+03 5.97987E+02
 -1       901 4.49533E+04-1.41592E+03-2.20010E+04-1.02014E+00-1.22845E+03 3.04667E+02
 -1       902 4.52454E+04-1.41178E+03-2.19100E+04-3.90320E-02-1.22548E+03 1.48661E+02
 -1       903 4.54354E+04-1.40325E+03-2.18660E+04-3.75468E-01-1.22422E+03 8.96839E+01
 -1       904 4.55795E+04-1.40091E+03-2.18526E+04-4.99808E-01-1.22380E+03 7.60855E+01
 -1       905 4.57137E+04-1.40026E+03-2.18497E+04-5.68497E-01-1.22367E+03 7.58426E+01
 -1       906 4.58467E+04-1.40027E+03-2.18497E+04-5.85257E-01-1.22366E+03 7.69019E+01
 -1       907 4.59794E+04-1.40040E+03-2.18504E+04-5.83332E-01-1.22366E+03 7.56624E+01
 -1       908 4.61105E+04-1.40036E+03-2.18506E+04-5.56333E-01-1.22363E+03 7.23561E+01
 -1       909 4.62428E+04-1.39930E+03-2.18457E+04-4.49748E-01-1.22341E+03 7.29512E+01
 -1       910 4.63943E+04-1.39420E+03-2.18206E+04-1.36739E-01-1.22263E+03 1.00924E+02
 -1       911 4.66206E+04-1.37894E+03-2.17404E+04 2.00863E+00-1.22126E+03 2.11242E+02
 -1       912 4.71592E+04-1.34291E+03-2.15349E+04-9.48468E+00-1.20912E+03 5.05572E+02
 -1       913 4.78865E+04-1.58795E+03-2.15502E+04-3.23011E+01-1.20899E+03 9.66221E+02
 -1       914 4.62797E+04-2.00921E+03-2.16814E+04 7.99820E+01-1.24975E+03 1.44034E+03
 -1       915 4.74787E+04 3.76697E+03-1.89386E+04 6.43651E+02-1.33610E+03-4.69587E+02
 -1       916 3.84993E+04-4.52427E+03-2.19014E+04-6.63057E+02-1.81379E+03-6.79043E+03
 -1       917 4.42547E+04-6.19884E+02-2.49622E+04 9.19515E+01-1.84147E+03-1.57452E+02
 -1       918 4.34494E+04-4.68298E+02-2.49318E+04 4.21674E+01-1.95872E+03 8.55132E+02
 -1       919 4.36583E+04-6.34979E+02-2.51527E+04-1.05462E+01-1.95175E+03 6.48728E+02
 -1       920 4.41696E+04-6.30573E+02-2.49839E+04-2.62566E+00-1.94198E+03 3.23595E+02
 -1       921 4.44623E+04-6.24388E+02-2.48919E+04-1.91763E+00-1.93679E+03 1.51446E+02
 -1       922 4.46574E+04-6.18429E+02-2.48488E+04-1.55769E+00-1.93548E+03 8.87272E+01
 -1       923 4.48052E+04-6.15503E+02-2.48352E+04-1.36809E+00-1.93495E+03 7.44397E+01
 -1       924 4.49404E+04-6.14956E+02-2.48324E+04-1.29703E+00-1.93487E+03 7.44822E+01
 -1       925 4.50738E+04-6.14921E+02-2.48322E+04-1.28008E+00-1.93485E+03 7.57065E+01
 -1       926 4.52066E+04-6.15049E+02-2.48327E+04-1.27750E+00-1.93484E+03 7.43639E+01
 -1       927 4.53383E+04-6.14995E+02-2.48329E+04-1.33673E+00-1.93487E+03 7.05946E+01
 -1       928 4.54725E+04-6.13690E+02-2.48282E+04-1.40547E+00-1.93464E+03 7.08993E+01
 -1       929 4.56332E+04-6.08096E+02-2.48020E+04-1.86376E+00-1.93407E+03 9.97266E+01
 -1       930 4.58684E+04-5.98324E+02-2.47278E+04-1.05261E+00-1.93132E+03 2.19326E+02
 -1       931 4.63726E+04-5.68664E+02-2.45188E+04-1.35034E+01-1.92007E+03 5.43625E+02
 -1       932 4.68433E+04-7.77268E+02-2.45765E+04-1.19877E+01-1.89304E+03 1.08355E+03
 -1       933 4.61527E+04-8.75624E+02-2.41030E+04 2.19794E+02-1.98843E+03 1.43692E+03
 -1       934 4.81776E+04 2.57551E+03-2.16683E+04-1.10568E+02-1.89583E+03-1.10162E+03
 -1       935 3.96058E+04-4.71953E+03-2.61180E+04 7.94564E+02 1.52412E+03-3.82501E+03
 -1       936 4.41620E+04 1.84766E+03-2.11363E+04-2.47454E+02 1.53827E+03-5.54799E+02
 -1       937 4.24054E+04 6.15199E+02-2.28230E+04 3.82389E+01 1.65297E+03 4.60029E+02
 -1       938 4.42736E+04 6.42994E+02-2.26979E+04 2.58815E+01 1.64367E+03 3.61114E+02
 -1       939 4.51782E+04 6.61864E+02-2.26027E+04 1.00957E+01 1.63392E+03 1.85100E+02
 -1       940 4.56516E+04 6.75201E+02-2.25386E+04 2.45102E+00 1.63061E+03 8.51748E+01
 -1       941 4.58827E+04 6.91098E+02-2.25065E+04 7.52789E-01 1.62925E+03 4.58967E+01
 -1       942 4.60274E+04 6.95212E+02-2.24967E+04 3.27179E-01 1.62886E+03 3.61181E+01
 -1       943 4.61552E+04 6.96243E+02-2.24942E+04 4.13443E-01 1.62877E+03 3.55083E+01
 -1       944 4.62832E+04 6.95912E+02-2.24938E+04 4.69594E-01 1.62875E+03 3.60331E+01
 -1       945 4.64108E+04 6.95304E+02-2.24938E+04 4.30858E-01 1.62875E+03 3.52590E+01
 -1       946 4.65339E+04 6.95267E+02-2.24934E+04 2.49343E-01 1.62874E+03 3.34109E+01
 -1       947 4.66548E+04 6.96610E+02-2.24900E+04 2.62639E-01 1.62861E+03 3.47205E+01
 -1       948 4.68123E+04 7.08310E+02-2.24700E+04 4.31663E-01 1.62796E+03 5.44755E+01
 -1       949 4.71393E+04 7.30596E+02-2.24147E+04 5.94199E+00 1.62557E+03 1.29220E+02
 -1       950 4.78486E+04 7.47136E+02-2.23134E+04 1.48906E+01 1.62192E+03 3.10866E+02
 -1       951 4.96368E+04 8.04327E+02-2.20794E+04 1.17856E+02 1.56340E+03 6.57139E+02
 -1       952 5.13289E+04 2.24001E+02-2.25874E+04-3.57055E+02 1.80717E+03 4.71774E+02
 -1       953 5.65662E+04 4.87784E+03-1.72221E+04 4.77761E+02 1.00693E+03-9.18727E+02
 -1       954 3.96524E+04-4.90459E+03-2.55338E+04 3.15973E+02 4.01927E+02-3.47988E+03
 -1       955 4.40657E+04 7.98715E+02-2.03395E+04-1.96899E+02 5.83519E+02-4.36874E+02
 -1       956 4.24042E+04 1.90693E+01-2.20999E+04 6.21620E+01 6.23846E+02 3.93275E+02
 -1       957 4.42262E+04-9.64061E+00-2.20235E+04 2.83586E+01 6.41110E+02 3.18777E+02
 -1       958 4.51956E+04-2.31685E+01-2.19381E+04 5.70605E+00 6.33061E+02 1.71595E+02
 -1       959 4.56707E+04 2.67272E-01-2.18646E+04 8.16829E-01 6.31159E+02 8.23135E+01
 -1       960 4.58916E+04 1.30725E+01-2.18341E+04-5.06997E-01 6.30235E+02 4.63787E+01
 -1       961 4.60329E+04 1.78517E+01-2.18238E+04-3.09530E-01 6.29837E+02 3.69693E+01
 -1       962 4.61593E+04 1.87420E+01-2.18214E+04-1.34958E-01 6.29763E+02 3.61733E+01
 -1       963 4.62871E+04 1.85351E+01-2.18210E+04-2.64561E-02 6.29759E+02 3.65633E+01
 -1       964 4.64149E+04 1.80761E+01-2.18210E+04-8.28585E-02 6.29774E+02 3.58761E+01
 -1       965 4.65373E+04 1.79225E+01-2.18208E+04-2.68199E-01 6.29772E+02 3.43544E+01
 -1       966 4.66564E+04 2.00243E+01-2.18168E+04-6.70973E-01 6.29615E+02 3.59592E+01
 -1       967 4.68032E+04 2.85117E+01-2.17988E+04-8.06108E-01 6.28681E+02 5.50683E+01
 -1       968 4.71162E+04 6.07420E+01-2.17368E+04 4.98691E-01 6.29184E+02 1.22070E+02
 -1       969 4.78444E+04 6.29135E+01-2.16356E+04 1.52667E+01 6.14931E+02 2.87308E+02
 -1       970 4.99651E+04 1.21710E+02-2.13137E+04 9.36327E+01 6.26005E+02 5.20906E+02
 -1       971 5.04509E+04-1.15634E+03-2.26627E+04-3.00105E+01 6.52116E+02 6.80822E+02
 -1       972 5.46912E+04 7.35702E+03-1.61091E+04-9.23087E+02 6.06794E+02-4.28683E+02
 -1       973 4.04719E+04-3.00018E+03-2.47739E+04 2.95250E-05 1.22996E-06-3.42302E+03
 -1       974 4.46293E+04 1.91778E+03-1.97060E+04 3.01393E-05 9.71068E-08-3.88751E+02
 -1       975 4.30367E+04 1.38931E+03-2.14330E+04 2.97652E-05-7.15015E-07 3.83288E+02
 -1       976 4.48248E+04 1.34466E+03-2.13785E+04 2.92072E-05-8.09444E-07 3.04478E+02
 -1       977 4.58122E+04 1.30828E+03-2.13008E+04 2.77930E-05-1.01235E-06 1.67261E+02
 -1       978 4.62939E+04 1.33631E+03-2.12232E+04 2.57485E-05-1.15290E-06 8.11187E+01
 -1       979 4.65109E+04 1.34787E+03-2.11932E+04 2.33514E-05-1.18313E-06 4.63711E+01
 -1       980 4.66512E+04 1.35268E+03-2.11829E+04 2.08405E-05-1.14772E-06 3.71352E+01
 -1       981 4.67771E+04 1.35353E+03-2.11805E+04 1.83446E-05-1.09265E-06 3.63072E+01
 -1       982 4.69049E+04 1.35328E+03-2.11801E+04 1.59165E-05-1.03310E-06 3.66629E+01
 -1       983 4.70326E+04 1.35278E+03-2.11802E+04 1.35752E-05-9.76409E-07 3.60086E+01
 -1       984 4.71549E+04 1.35266E+03-2.11800E+04 1.13251E-05-9.27918E-07 3.45360E+01
 -1       985 4.72728E+04 1.35441E+03-2.11761E+04 9.16568E-06-8.85087E-07 3.63546E+01
 -1       986 4.74186E+04 1.36421E+03-2.11580E+04 7.10474E-06-8.41721E-07 5.44403E+01
 -1       987 4.77162E+04 1.38923E+03-2.10986E+04 5.17180E-06-7.87810E-07 1.21648E+02
 -1       988 4.85046E+04 1.43133E+03-2.09723E+04 3.43016E-06-7.13656E-07 2.71137E+02
 -1       989 5.06123E+04 1.29696E+03-2.07188E+04 2.03039E-06-5.93988E-07 4.99716E+02
 -1       990 5.07811E+04 3.16153E+02-2.21359E+04 8.21520E-07-3.93538E-07 7.58773E+02
 -1       991 5.44816E+04 9.05058E+03-1.54870E+04-3.88563E-07-1.61859E-07-4.08417E+02
 -1       992 3.96524E+04-4.90459E+03-2.55338E+04-3.15973E+02-4.01927E+02-3.47988E+03
 -1       993 4.40657E+04 7.98715E+02-2.03395E+04 1.96899E+02-5.83519E+02-4.36874E+02
 -1       994 4.24042E+04 1.90693E+01-2.20999E+04-6.21619E+01-6.23846E+02 3.93275E+02
 -1       995 4.42262E+04-9.64061E+00-2.20235E+04-2.83585E+01-6.41110E+02 3.18777E+02
 -1       996 4.51956E+04-2.31685E+01-2.19381E+04-5.70600E+00-6.33061E+02 1.71595E+02
 -1       997 4.56707E+04 2.67271E-01-2.18646E+04-8.16779E-01-6.31159E+02 8.23135E+01
 -1       998 4.58916E+04 1.30725E+01-2.18341E+04 5.07043E-01-6.30235E+02 4.63787E+01
 -1       999 4.60329E+04 1.78517E+01-2.18238E+04 3.09572E-01-6.29837E+02 3.69693E+01
 -1      1000 4.61593E+04 1.87420E+01-2.18214E+04 1.34994E-01-6.29763E+02 3.61733E+01
 -1      1001 4.62871E+04 1.85351E+01-2.18210E+04 2.64880E-02-6.29759E+02 3.65633E+01
 -1      1002 4.64149E+04 1.80761E+01-2.18210E+04 8.28859E-02-6.29774E+02 3.58761E+01
 -1      1003 4.65373E+04 1.79225E+01-2.18208E+04 2.68222E-01-6.29772E+02 3.43544E+01
 -1      1004 4.66564E+04 2.00243E+01-2.18168E+04 6.70992E-01-6.29615E+02 3.59592E+01
 -1      1005 4.68032E+04 2.85117E+01-2.17988E+04 8.06123E-01-6.28681E+02 5.50683E+01
 -1      1006 4.71162E+04 6.07420E+01-2.17368E+04-4.98680E-01-6.29184E+02 1.22070E+02
 -1      1007 4.78444E+04 6.29135E+01-2.16356E+04-1.52667E+01-6.14931E+02 2.87308E+02
 -1      1008 4.99651E+04 1.21710E+02-2.13137E+04-9.36327E+01-6.26005E+02 5.20906E+02
 -1      1009 5.04509E+04-1.15634E+03-2.26627E+04 3.00105E+01-6.52116E+02 6.80822E+02
 -1      1010 5.46912E+04 7.35702E+03-1.61091E+04 9.23087E+02-6.06794E+02-4.28683E+02
 -1      1011 3.96058E+04-4.71953E+03-2.61180E+04-7.94563E+02-1.52412E+03-3.82501E+03
 -1      1012 4.41620E+04 1.84766E+03-2.11363E+04 2.47454E+02-1.53827E+03-5.54799E+02
 -1      1013 4.24054E+04 6.15199E+02-2.28230E+04-3.82389E+01-1.65297E+03 4.60029E+02
 -1      1014 4.42736E+04 6.42994E+02-2.26979E+04-2.58815E+01-1.64367E+03 3.61114E+02
 -1      1015 4.51782E+04 6.61864E+02-2.26027E+04-1.00957E+01-1.63392E+03 1.85100E+02
 -1      1016 4.56516E+04 6.75201E+02-2.25386E+04-2.45098E+00-1.63061E+03 8.51748E+01
 -1      1017 4.58827E+04 6.91098E+02-2.25065E+04-7.52748E-01-1.62925E+03 4.58967E+01
 -1      1018 4.60274E+04 6.95212E+02-2.24967E+04-3.27141E-01-1.62886E+03 3.61181E+01
 -1      1019 4.61552E+04 6.96243E+02-2.24942E+04-4.13409E-01-1.62877E+03 3.55083E+01
 -1      1020 4.62832E+04 6.95912E+02-2.24938E+04-4.69564E-01-1.62875E+03 3.60331E+01
 -1      1021 4.64108E+04 6.95304E+02-2.24938E+04-4.30832E-01-1.62875E+03 3.52590E+01
 -1      1022 4.65339E+04 6.95267E+02-2.24934E+04-2.49321E-01-1.62874E+03 3.34109E+01
 -1      1023 4.66548E+04 6.96610E+02-2.24900E+04-2.62620E-01-1.62861E+03 3.47205E+01
 -1      1024 4.68123E+04 7.08310E+02-2.24700E+04-4.31648E-01-1.62796E+03 5.44755E+01
 -1      1025 4.71393E+04 7.30596E+02-2.24147E+04-5.94198E+00-1.62557E+03 1.29220E+02
 -1      1026 4.78486E+04 7.47136E+02-2.23134E+04-1.48906E+01-1.62192E+03 3.10866E+02
 -1      1027 4.96368E+04 8.04327E+02-2.20794E+04-1.17856E+02-1.56340E+03 6.57139E+02
 -1      1028 5.13289E+04 2.24001E+02-2.25874E+04 3.57055E+02-1.80717E+03 4.71774E+02
 -1      1029 5.65662E+04 4.87784E+03-1.72221E+04-4.77761E+02-1.00693E+03-9.18727E+02
 -1      1030-2.30624E+03-2.30625E+03-5.38121E+03 2.00137E-02-1.69517E+03-2.15593E+03
 -1      1031-3.11747E+02-3.11754E+02-7.27421E+02 1.68049E-04-8.89844E+01 5.84443E+02
 -1      1032-1.64366E+03-1.64367E+03-3.83521E+03 1.84918E-02-1.38485E+03-2.11879E+03
 -1      1033-3.01991E+02-3.01997E+02-7.04657E+02 1.24714E-04-1.99643E+01 5.60165E+02
 -1      1034-1.85062E+03-1.85064E+03-4.31812E+03 2.18991E-02-1.29497E+03-2.30883E+03
 -1      1035-2.84043E+02-2.84047E+02-6.62777E+02-2.40072E-04 9.26902E+00 5.24612E+02
 -1      1036-2.16597E+03-2.16601E+03-5.05395E+03 2.27113E-02-1.14328E+03-2.61091E+03
 -1      1037-2.60959E+02-2.60963E+02-6.08915E+02-4.49915E-04 1.76520E+01 4.92385E+02
 -1      1038-2.47786E+03-2.47790E+03-5.78168E+03 1.91520E-02-8.62267E+02-2.91880E+03
 -1      1039-2.40758E+02-2.40762E+02-5.61779E+02-4.41337E-04 1.58952E+01 4.67699E+02
 -1      1040-2.69714E+03-2.69720E+03-6.29335E+03 1.10312E-02-4.64526E+02-3.14215E+03
 -1      1041-2.26869E+02-2.26874E+02-5.29372E+02-2.65044E-04 9.03694E+00 4.52385E+02
 -1      1042-2.77560E+03-2.77566E+03-6.47642E+03-1.74651E-11 2.39799E-06-3.22313E+03
 -1      1043-2.21933E+02-2.21938E+02-5.17856E+02-9.24752E-12-1.15410E-06 4.47213E+02
 -1      1044-2.69714E+03-2.69720E+03-6.29335E+03-1.10312E-02 4.64526E+02-3.14215E+03
 -1      1045-2.26869E+02-2.26874E+02-5.29372E+02 2.65044E-04-9.03695E+00 4.52385E+02
 -1      1046-2.47786E+03-2.47790E+03-5.78168E+03-1.91520E-02 8.62267E+02-2.91880E+03
 -1      1047-2.40758E+02-2.40762E+02-5.61779E+02 4.41337E-04-1.58952E+01 4.67699E+02
 -1      1048-2.16597E+03-2.16601E+03-5.05395E+03-2.27113E-02 1.14328E+03-2.61091E+03
 -1      1049-2.60959E+02-2.60963E+02-6.08915E+02 4.49915E-04-1.76520E+01 4.92385E+02
 -1      1050-1.85062E+03-1.85064E+03-4.31812E+03-2.18991E-02 1.29497E+03-2.30883E+03
 -1      1051-2.84043E+02-2.84047E+02-6.62777E+02 2.40072E-04-9.26902E+00 5.24612E+02
 -1      1052-1.64366E+03-1.64367E+03-3.83521E+03-1.84918E-02 1.38485E+03-2.11879E+03
 -1      1053-3.01991E+02-3.01997E+02-7.04657E+02-1.24714E-04 1.99643E+01 5.60165E+02
 -1      1054-2.30624E+03-2.30625E+03-5.38121E+03-2.00137E-02 1.69517E+03-2.15593E+03
 -1      1055-3.11747E+02-3.11754E+02-7.27421E+02-1.68049E-04 8.89844E+01 5.84443E+02
 -1      1056-6.64658E+02-1.90559E+02-2.66003E+03-1.54010E+02-6.92114E+02-1.66042E+03
 -1      1057-4.11869E+02-8.08707E+01-4.55865E+02 1.20675E+01 1.70553E-01 4.85658E+02
 -1      1058-5.64002E+02-4.15965E+02-2.55672E+03-2.54234E+02-9.68038E+02-1.57856E+03
 -1      1059-3.79164E+02-1.32956E+02-4.89785E+02 1.42191E+01 1.43946E+01 4.32147E+02
 -1      1060-7.61481E+02-8.36407E+02-3.07332E+03-4.07032E+02-1.21605E+03-1.76325E+03
 -1      1061-4.01669E+02-2.19773E+02-4.93909E+02 1.40357E+01 2.82791E+01 4.01426E+02
 -1      1062-8.60822E+02-7.89531E+02-3.64600E+03-4.36259E+02-1.11406E+03-2.04703E+03
 -1      1063-4.34329E+02-2.66594E+02-4.83030E+02 1.51053E+01 3.14354E+01 3.75691E+02
 -1      1064-9.25411E+02-6.42044E+02-4.15599E+03-3.58451E+02-8.52349E+02-2.33001E+03
 -1      1065-4.67144E+02-2.91780E+02-4.68125E+02 1.27580E+01 2.54141E+01 3.55793E+02
 -1      1066-9.65877E+02-5.20641E+02-4.50611E+03-2.00322E+02-4.60820E+02-2.53293E+03
 -1      1067-4.91276E+02-3.05051E+02-4.56681E+02 7.27814E+00 1.40708E+01 3.43275E+02
 -1      1068-9.79448E+02-4.74872E+02-4.62938E+03-7.88772E-07 3.16630E-06-2.60604E+03
 -1      1069-5.00089E+02-3.09250E+02-4.52425E+02 1.78802E-07-1.10364E-06 3.39020E+02
 -1      1070-9.65877E+02-5.20641E+02-4.50611E+03 2.00322E+02 4.60820E+02-2.53293E+03
 -1      1071-4.91276E+02-3.05051E+02-4.56681E+02-7.27814E+00-1.40708E+01 3.43275E+02
 -1      1072-9.25411E+02-6.42044E+02-4.15599E+03 3.58451E+02 8.52349E+02-2.33001E+03
 -1      1073-4.67144E+02-2.91780E+02-4.68125E+02-1.27580E+01-2.54141E+01 3.55793E+02
 -1      1074-8.60822E+02-7.89531E+02-3.64600E+03 4.36259E+02 1.11406E+03-2.04703E+03
 -1      1075-4.34329E+02-2.66594E+02-4.83030E+02-1.51053E+01-3.14354E+01 3.75691E+02
 -1      1076-7.61481E+02-8.36407E+02-3.07332E+03 4.07032E+02 1.21605E+03-1.76325E+03
 -1      1077-4.01669E+02-2.19773E+02-4.93909E+02-1.40357E+01-2.82791E+01 4.01426E+02
 -1      1078-5.64002E+02-4.15965E+02-2.55672E+03 2.54234E+02 9.68038E+02-1.57856E+03
 -1      1079-3.79164E+02-1.32956E+02-4.89785E+02-1.42191E+01-1.43946E+01 4.32147E+02
 -1      1080-6.64658E+02-1.90559E+02-2.66003E+03 1.54010E+02 6.92113E+02-1.66042E+03
 -1      1081-4.11869E+02-8.08707E+01-4.55865E+02-1.20675E+01-1.70554E-01 4.85658E+02
 -1      1082 6.70854E+01 1.05169E+02 4.22683E+01-3.82273E+02-1.81349E+02-9.32861E+02
 -1      1083-4.69689E+02-1.23535E+02-1.41294E+02 3.87423E+01 5.41551E+01 3.34975E+02
 -1      1084-1.04822E+02-1.22787E+02-1.10077E+03-4.92025E+02-5.57881E+02-8.91766E+02
 -1      1085-4.07569E+02-1.18904E+02-1.70206E+02 2.85344E+01 4.34950E+01 2.79297E+02
 -1      1086-5.53486E+01 8.83197E+01-1.51296E+03-6.80332E+02-8.25546E+02-1.07115E+03
 -1      1087-4.08072E+02-1.44680E+02-1.76871E+02 2.15625E+01 5.28842E+01 2.53513E+02
 -1      1088-5.99984E+01 3.39960E+02-1.98447E+03-7.10427E+02-8.33580E+02-1.33610E+03
 -1      1089-4.53104E+02-1.93986E+02-1.88746E+02 1.86382E+01 4.71887E+01 2.32118E+02
 -1      1090-3.48768E+01 6.91502E+02-2.36970E+03-5.77229E+02-6.50988E+02-1.59454E+03
 -1      1091-5.06764E+02-2.35130E+02-1.97175E+02 1.46149E+01 3.62173E+01 2.13891E+02
 -1      1092-5.27921E+00 9.70485E+02-2.61238E+03-3.20606E+02-3.52934E+02-1.77413E+03
 -1      1093-5.47486E+02-2.61226E+02-2.01493E+02 8.19658E+00 1.97313E+01 2.01536E+02
 -1      1094 7.69331E+00 1.07468E+03-2.69279E+03-4.39919E-07 3.15747E-06-1.83708E+03
 -1      1095-5.62488E+02-2.70104E+02-2.02725E+02 2.47091E-07-7.77100E-07 1.97134E+02
 -1      1096-5.27921E+00 9.70485E+02-2.61238E+03 3.20606E+02 3.52934E+02-1.77413E+03
 -1      1097-5.47486E+02-2.61226E+02-2.01493E+02-8.19658E+00-1.97313E+01 2.01536E+02
 -1      1098-3.48768E+01 6.91502E+02-2.36970E+03 5.77229E+02 6.50988E+02-1.59454E+03
 -1      1099-5.06764E+02-2.35130E+02-1.97175E+02-1.46149E+01-3.62173E+01 2.13891E+02
 -1      1100-5.99984E+01 3.39960E+02-1.98447E+03 7.10427E+02 8.33580E+02-1.33610E+03
 -1      1101-4.53104E+02-1.93986E+02-1.88746E+02-1.86382E+01-4.71887E+01 2.32118E+02
 -1      1102-5.53486E+01 8.83197E+01-1.51296E+03 6.80332E+02 8.25546E+02-1.07115E+03
 -1      1103-4.08072E+02-1.44680E+02-1.76871E+02-2.15625E+01-5.28842E+01 2.53513E+02
 -1      1104-1.04822E+02-1.22787E+02-1.10077E+03 4.92025E+02 5.57881E+02-8.91766E+02
 -1      1105-4.07569E+02-1.18904E+02-1.70206E+02-2.85344E+01-4.34950E+01 2.79297E+02
 -1      1106 6.70855E+01 1.05169E+02 4.22684E+01 3.82273E+02 1.81349E+02-9.32861E+02
 -1      1107-4.69689E+02-1.23535E+02-1.41294E+02-3.87423E+01-5.41551E+01 3.34975E+02
 -1      1108 4.05802E+02 2.86361E+02 1.23945E+03-4.39984E+02-7.05717E+01-3.83195E+02
 -1      1109-4.14140E+02-1.10875E+02 9.67848E+00 3.75317E+01 3.58658E+01 1.73228E+02
 -1      1110 2.14603E+02 8.60455E+01 2.23497E+01-5.98851E+02-2.25780E+02-4.31896E+02
 -1      1111-3.37434E+02-8.83623E+01 2.68298E+01 2.61185E+01 4.42819E+01 1.46936E+02
 -1      1112 2.60416E+02 4.23556E+02-5.10346E+02-8.41764E+02-4.32831E+02-6.35545E+02
 -1      1113-3.35587E+02-1.10461E+02-6.09457E+00 1.65964E+01 5.96789E+01 1.27589E+02
 -1      1114 3.40806E+02 8.87587E+02-8.40482E+02-8.77491E+02-5.02711E+02-9.33058E+02
 -1      1115-3.66743E+02-1.46715E+02-3.46560E+01 1.08900E+01 5.71727E+01 1.09791E+02
 -1      1116 4.16868E+02 1.34748E+03-1.08397E+03-7.07548E+02-4.13417E+02-1.22454E+03
 -1      1117-4.11216E+02-1.87583E+02-5.94440E+01 7.32388E+00 4.44178E+01 9.35199E+01
 -1      1118 4.84761E+02 1.68988E+03-1.19944E+03-3.86987E+02-2.22472E+02-1.41149E+03
 -1      1119-4.47552E+02-2.16739E+02-7.53852E+01 3.81183E+00 2.43424E+01 8.11006E+01
 -1      1120 5.12064E+02 1.81352E+03-1.22834E+03 1.19043E-06 2.74510E-06-1.47159E+03
 -1      1121-4.61847E+02-2.27421E+02-8.13924E+01 1.62836E-07-4.97771E-07 7.63735E+01
 -1      1122 4.84761E+02 1.68988E+03-1.19944E+03 3.86987E+02 2.22472E+02-1.41149E+03
 -1      1123-4.47552E+02-2.16739E+02-7.53852E+01-3.81183E+00-2.43424E+01 8.11006E+01
 -1      1124 4.16868E+02 1.34748E+03-1.08397E+03 7.07548E+02 4.13417E+02-1.22454E+03
 -1      1125-4.11216E+02-1.87583E+02-5.94440E+01-7.32388E+00-4.44178E+01 9.35199E+01
 -1      1126 3.40806E+02 8.87587E+02-8.40482E+02 8.77491E+02 5.02711E+02-9.33058E+02
 -1      1127-3.66743E+02-1.46715E+02-3.46560E+01-1.08900E+01-5.71727E+01 1.09791E+02
 -1      1128 2.60416E+02 4.23556E+02-5.10346E+02 8.41764E+02 4.32831E+02-6.35545E+02
 -1      1129-3.35587E+02-1.10461E+02-6.09457E+00-1.65964E+01-5.96789E+01 1.27589E+02
 -1      1130 2.14603E+02 8.60455E+01 2.23498E+01 5.98851E+02 2.25780E+02-4.31896E+02
 -1      1131-3.37434E+02-8.83623E+01 2.68298E+01-2.61185E+01-4.42819E+01 1.46936E+02
 -1      1132 4.05802E+02 2.86361E+02 1.23945E+03 4.39984E+02 7.05717E+01-3.83195E+02
 -1      1133-4.14140E+02-1.10875E+02 9.67848E+00-3.75317E+01-3.58658E+01 1.73228E+02
 -1      1134 4.24494E+02 2.21769E+02 1.29117E+03-3.69676E+02 2.70971E+01 9.08358E+01
 -1      1135-2.68367E+02-7.81861E+01 4.43570E+01 2.15004E+01 1.74109E+01 4.86419E+01
 -1      1136 3.09730E+02 1.06004E+02 4.17024E+02-5.43770E+02 2.73012E+01-8.63009E+01
 -1      1137-1.99319E+02-5.51652E+01 7.48496E+01 1.10356E+01 2.83345E+01 5.41082E+01
 -1      1138 3.65543E+02 4.31053E+02 4.57337E+01-8.20840E+02-5.75336E+01-2.83246E+02
 -1      1139-1.74421E+02-6.94575E+01 5.40328E+01 2.93821E+00 4.63430E+01 4.38734E+01
 -1      1140 4.51538E+02 8.99789E+02-1.48848E+02-8.89549E+02-1.46230E+02-6.22739E+02
 -1      1141-1.58610E+02-8.81776E+01 4.19790E+01 1.26676E-01 4.84204E+01 2.78327E+01
 -1      1142 5.37345E+02 1.35538E+03-2.29145E+02-7.02131E+02-1.30837E+02-9.59383E+02
 -1      1143-1.53243E+02-1.08588E+02 3.57073E+01-1.49468E+00 3.92369E+01 1.19160E+01
 -1      1144 6.07310E+02 1.65463E+03-2.14659E+02-3.60950E+02-6.08132E+01-1.12578E+03
 -1      1145-1.61852E+02-1.28178E+02 2.37090E+01-1.90750E+00 2.17830E+01 2.11586E-01
 -1      1146 6.34230E+02 1.75123E+03-1.94637E+02 5.48042E-06 8.82888E-07-1.16872E+03
 -1      1147-1.67901E+02-1.36391E+02 1.71779E+01-6.32842E-10-3.33096E-07-4.73455E+00
 -1      1148 6.07310E+02 1.65463E+03-2.14659E+02 3.60950E+02 6.08132E+01-1.12578E+03
 -1      1149-1.61852E+02-1.28178E+02 2.37090E+01 1.90750E+00-2.17830E+01 2.11586E-01
 -1      1150 5.37345E+02 1.35538E+03-2.29145E+02 7.02131E+02 1.30837E+02-9.59383E+02
 -1      1151-1.53243E+02-1.08588E+02 3.57073E+01 1.49468E+00-3.92369E+01 1.19160E+01
 -1      1152 4.51538E+02 8.99789E+02-1.48848E+02 8.89549E+02 1.46230E+02-6.22739E+02
 -1      1153-1.58610E+02-8.81776E+01 4.19790E+01-1.26676E-01-4.84204E+01 2.78327E+01
 -1      1154 3.65543E+02 4.31053E+02 4.57338E+01 8.20840E+02 5.75336E+01-2.83246E+02
 -1      1155-1.74421E+02-6.94575E+01 5.40328E+01-2.93821E+00-4.63430E+01 4.38734E+01
 -1      1156 3.09730E+02 1.06004E+02 4.17024E+02 5.43770E+02-2.73012E+01-8.63009E+01
 -1      1157-1.99319E+02-5.51652E+01 7.48496E+01-1.10356E+01-2.83345E+01 5.41082E+01
 -1      1158 4.24494E+02 2.21769E+02 1.29117E+03 3.69676E+02-2.70971E+01 9.08358E+01
 -1      1159-2.68367E+02-7.81861E+01 4.43570E+01-2.15004E+01-1.74109E+01 4.86419E+01
 -1      1160 3.56027E+02 1.67945E+02 7.57410E+02-1.45743E+02 7.68728E+01 2.90343E+02
 -1      1161-6.07360E+01-2.24576E+01 4.52592E+01-9.78294E-01 4.91308E+00 2.50084E+00
 -1      1162 3.06319E+02 9.79354E+01 3.31920E+02-2.27986E+02 1.57280E+02 8.53650E+01
 -1      1163-1.64664E+01-1.43195E+01 6.74006E+01-9.54320E+00 1.18621E+01 2.21071E+01
 -1      1164 3.62329E+02 2.51767E+02 1.46617E+02-4.52900E+02 1.72400E+02-3.81659E+01
 -1      1165 2.96737E+01-2.43024E+01 6.97592E+01-1.94209E+01 2.67560E+01 1.67068E+01
 -1      1166 3.94767E+02 5.00784E+02 4.22552E+01-5.86886E+02 1.16843E+02-4.00174E+02
 -1      1167 7.29840E+01-2.89621E+01 8.39969E+01-1.92162E+01 3.27686E+01 4.34983E+00
 -1      1168 4.27888E+02 7.45915E+02 5.77351E+01-4.00160E+02 8.80902E+01-7.67782E+02
 -1      1169 1.08466E+02-2.80429E+01 1.05243E+02-1.33437E+01 2.55065E+01-9.61720E+00
 -1      1170 4.58924E+02 8.59716E+02 9.89112E+01-1.41775E+02 5.96219E+01-8.76375E+02
 -1      1171 1.26787E+02-3.13720E+01 1.09913E+02-7.18980E+00 1.23392E+01-2.24194E+01
 -1      1172 4.66472E+02 8.80797E+02 1.21256E+02-6.98807E-06-9.27745E-08-8.78933E+02
 -1      1173 1.28595E+02-3.47997E+01 1.07693E+02-1.34861E-07-2.28493E-07-2.76548E+01
 -1      1174 4.58924E+02 8.59716E+02 9.89112E+01 1.41775E+02-5.96219E+01-8.76375E+02
 -1      1175 1.26787E+02-3.13720E+01 1.09913E+02 7.18980E+00-1.23392E+01-2.24194E+01
 -1      1176 4.27888E+02 7.45915E+02 5.77350E+01 4.00160E+02-8.80902E+01-7.67782E+02
 -1      1177 1.08466E+02-2.80429E+01 1.05243E+02 1.33437E+01-2.55065E+01-9.61720E+00
 -1      1178 3.94767E+02 5.00784E+02 4.22553E+01 5.86886E+02-1.16843E+02-4.00174E+02
 -1      1179 7.29840E+01-2.89621E+01 8.39969E+01 1.92162E+01-3.27686E+01 4.34983E+00
 -1      1180 3.62329E+02 2.51767E+02 1.46617E+02 4.52900E+02-1.72400E+02-3.81659E+01
 -1      1181 2.96737E+01-2.43024E+01 6.97592E+01 1.94209E+01-2.67560E+01 1.67068E+01
 -1      1182 3.06319E+02 9.79354E+01 3.31920E+02 2.27986E+02-1.57280E+02 8.53650E+01
 -1      1183-1.64664E+01-1.43195E+01 6.74006E+01 9.54320E+00-1.18621E+01 2.21071E+01
 -1      1184 3.56027E+02 1.67945E+02 7.57410E+02 1.45743E+02-7.68728E+01 2.90343E+02
 -1      1185-6.07360E+01-2.24576E+01 4.52592E+01 9.78294E-01-4.91308E+00 2.50084E+00
 -1      1186 3.27024E+02 1.53109E+02 4.22840E+02 2.51633E+02 7.21246E+01 2.81013E+02
 -1      1187 1.16615E+02 2.04330E+01 7.02069E+01-2.92521E+01 2.61614E+00 5.54042E+00
 -1      1188 3.63631E+02 1.45713E+02 2.42320E+02 3.75103E+02 1.55005E+02 8.09014E+01
 -1      1189 1.49406E+02 1.61611E+01 8.53821E+01-3.46858E+01 6.39855E+00 2.85355E+01
 -1      1190 5.40251E+02 1.96704E+02 1.66818E+02 5.75674E+02 2.04975E+02 5.61225E+01
 -1      1191 1.91953E+02 1.18598E+00 9.47734E+01-4.49124E+01 1.86192E+01 2.78312E+01
 -1      1192 7.56952E+02 1.43689E+02 9.73485E+01 6.23955E+02 1.93569E+02-5.26924E+02
 -1      1193 2.22408E+02 1.81882E+00 1.11651E+02-4.14040E+01 2.64135E+01 2.19432E+01
 -1      1194 1.00608E+03 9.68530E+01 1.66278E+02 4.70909E+02 1.58613E+02-1.11961E+03
 -1      1195 2.38169E+02 1.45035E+01 1.35552E+02-2.87501E+01 1.97521E+01 1.47128E+01
 -1      1196 1.16363E+03 9.13933E+01 2.24604E+02 2.22794E+02 8.88152E+01-1.09045E+03
 -1      1197 2.38287E+02 2.10815E+01 1.42200E+02-1.31942E+01 7.59404E+00 4.05463E+00
 -1      1198 1.22603E+03 1.11887E+02 2.63934E+02 6.27837E-05 1.56876E-06-1.07038E+03
 -1      1199 2.36597E+02 2.26238E+01 1.42065E+02-6.22793E-08-1.50852E-07-1.21066E-01
 -1      1200 1.16363E+03 9.13932E+01 2.24604E+02-2.22794E+02-8.88152E+01-1.09045E+03
 -1      1201 2.38287E+02 2.10815E+01 1.42200E+02 1.31942E+01-7.59404E+00 4.05463E+00
 -1      1202 1.00608E+03 9.68529E+01 1.66278E+02-4.70909E+02-1.58613E+02-1.11961E+03
 -1      1203 2.38169E+02 1.45035E+01 1.35552E+02 2.87501E+01-1.97521E+01 1.47128E+01
 -1      1204 7.56951E+02 1.43689E+02 9.73484E+01-6.23954E+02-1.93569E+02-5.26924E+02
 -1      1205 2.22408E+02 1.81882E+00 1.11651E+02 4.14040E+01-2.64135E+01 2.19432E+01
 -1      1206 5.40251E+02 1.96704E+02 1.66818E+02-5.75674E+02-2.04975E+02 5.61225E+01
 -1      1207 1.91953E+02 1.18598E+00 9.47734E+01 4.49124E+01-1.86192E+01 2.78312E+01
 -1      1208 3.63631E+02 1.45713E+02 2.42320E+02-3.75103E+02-1.55005E+02 8.09014E+01
 -1      1209 1.49406E+02 1.61611E+01 8.53821E+01 3.46858E+01-6.39855E+00 2.85355E+01
 -1      1210 3.27024E+02 1.53109E+02 4.22840E+02-2.51633E+02-7.21246E+01 2.81013E+02
 -1      1211 1.16615E+02 2.04330E+01 7.02069E+01 2.92521E+01-2.61615E+00 5.54043E+00
 -1      1212-2.20441E+03-2.20441E+03-5.14360E+03 2.57444E-02-2.26869E+03-1.93611E+03
 -1      1213-2.20441E+03-2.20441E+03-5.14360E+03-2.57444E-02 2.26869E+03-1.93611E+03
 -1      1214-3.86875E+03-3.86870E+03-9.02697E+03 4.04098E-02-3.84673E+03-1.83139E+03
 -1      1215-3.86875E+03-3.86870E+03-9.02697E+03-4.04098E-02 3.84673E+03-1.83139E+03
 -1      1216-4.95250E+03-4.95240E+03-1.15556E+04 3.15520E-02-4.95271E+03-1.15453E+03
 -1      1217-4.95250E+03-4.95240E+03-1.15556E+04-3.15520E-02 4.95271E+03-1.15453E+03
 -1      1218-5.42463E+03-5.42450E+03-1.26572E+04 1.53665E-02-5.44851E+03-5.29791E+02
 -1      1219-5.42463E+03-5.42450E+03-1.26572E+04-1.53665E-02 5.44851E+03-5.29791E+02
 -1      1220-5.52135E+03-5.52121E+03-1.28829E+04 4.60543E-03-5.57701E+03-1.64330E+02
 -1      1221-5.52135E+03-5.52121E+03-1.28829E+04-4.60543E-03 5.57701E+03-1.64330E+02
 -1      1222-5.50442E+03-5.50429E+03-1.28434E+04 7.40544E-05-5.57725E+03-8.74481E+00
 -1      1223-5.50442E+03-5.50429E+03-1.28434E+04-7.40546E-05 5.57725E+03-8.74482E+00
 -1      1224-5.48360E+03-5.48347E+03-1.27948E+04-1.45116E-03-5.55909E+03 4.64851E+01
 -1      1225-5.48360E+03-5.48347E+03-1.27948E+04 1.45116E-03 5.55909E+03 4.64851E+01
 -1      1226-5.47852E+03-5.47840E+03-1.27830E+04-2.04469E-03-5.55081E+03 6.87541E+01
 -1      1227-5.47852E+03-5.47840E+03-1.27830E+04 2.04469E-03 5.55081E+03 6.87541E+01
 -1      1228-5.48196E+03-5.48183E+03-1.27910E+04-2.43012E-03-5.55075E+03 8.27672E+01
 -1      1229-5.48196E+03-5.48183E+03-1.27910E+04 2.43012E-03 5.55075E+03 8.27671E+01
 -1      1230-5.48692E+03-5.48679E+03-1.28026E+04-2.75807E-03-5.55346E+03 9.43018E+01
 -1      1231-5.48692E+03-5.48679E+03-1.28026E+04 2.75807E-03 5.55346E+03 9.43018E+01
 -1      1232-5.49063E+03-5.49050E+03-1.28112E+04-3.06484E-03-5.55579E+03 1.04964E+02
 -1      1233-5.49063E+03-5.49050E+03-1.28112E+04 3.06484E-03 5.55579E+03 1.04964E+02
 -1      1234-5.49168E+03-5.49155E+03-1.28136E+04-3.43118E-03-5.55557E+03 1.17607E+02
 -1      1235-5.49168E+03-5.49155E+03-1.28136E+04 3.43118E-03 5.55557E+03 1.17607E+02
 -1      1236-5.48594E+03-5.48581E+03-1.28003E+04-4.00812E-03-5.54846E+03 1.37259E+02
 -1      1237-5.48594E+03-5.48581E+03-1.28003E+04 4.00812E-03 5.54846E+03 1.37259E+02
 -1      1238-5.46283E+03-5.46270E+03-1.27463E+04-4.89525E-03-5.52582E+03 1.67110E+02
 -1      1239-5.46283E+03-5.46270E+03-1.27463E+04 4.89525E-03 5.52582E+03 1.67110E+02
 -1      1240-5.40891E+03-5.40879E+03-1.26205E+04-5.70095E-03-5.47985E+03 1.94327E+02
 -1      1241-5.40891E+03-5.40879E+03-1.26205E+04 5.70095E-03 5.47985E+03 1.94327E+02
 -1      1242-5.33820E+03-5.33808E+03-1.24556E+04-5.04544E-03-5.42747E+03 1.73618E+02
 -1      1243-5.33820E+03-5.33808E+03-1.24556E+04 5.04544E-03 5.42747E+03 1.73618E+02
 -1      1244-5.35414E+03-5.35402E+03-1.24927E+04-1.82259E-03-5.44634E+03 7.26544E+01
 -1      1245-5.35414E+03-5.35402E+03-1.24927E+04 1.82259E-03 5.44634E+03 7.26544E+01
 -1      1246-5.61508E+03-5.61494E+03-1.31016E+04-9.24691E-04-5.64535E+03 6.77518E+01
 -1      1247-5.61508E+03-5.61494E+03-1.31016E+04 9.24691E-04 5.64535E+03 6.77518E+01
 -1      1248-5.92415E+03-5.92400E+03-1.38227E+04-2.06390E-02-5.85280E+03 6.74115E+02
 -1      1249-5.92415E+03-5.92400E+03-1.38227E+04 2.06390E-02 5.85280E+03 6.74115E+02
 -1      1250-5.14751E+03-5.14742E+03-1.20107E+04-5.53078E-02-5.07199E+03 1.92045E+03
 -1      1251-5.14751E+03-5.14742E+03-1.20107E+04 5.53078E-02 5.07199E+03 1.92045E+03
 -1      1252-2.69572E+03-2.69573E+03-6.29002E+03-4.01767E-02-2.76236E+03 2.44255E+03
 -1      1253-2.69572E+03-2.69573E+03-6.29002E+03 4.01767E-02 2.76236E+03 2.44255E+03
 -1      1254-7.99169E+02-7.99196E+02-1.86478E+03-9.89890E-03-9.47625E+02 1.73189E+03
 -1      1255-7.99169E+02-7.99196E+02-1.86478E+03 9.89890E-03 9.47625E+02 1.73189E+03
 -1      1256-5.56065E+01-5.56190E+01-1.29773E+02-7.54015E-04-1.98020E+02 8.73884E+02
 -1      1257-5.56066E+01-5.56190E+01-1.29773E+02 7.54015E-04 1.98020E+02 8.73884E+02
 -1      1258-8.02882E+02-2.10149E+02-2.93491E+03-1.63029E+02-1.08233E+03-1.84348E+03
 -1      1259-8.02882E+02-2.10149E+02-2.93491E+03 1.63029E+02 1.08233E+03-1.84348E+03
 -1      1260-1.30784E+03-4.55735E+02-5.03264E+03-1.72183E+02-1.86310E+03-1.76873E+03
 -1      1261-1.30784E+03-4.55735E+02-5.03264E+03 1.72183E+02 1.86310E+03-1.76873E+03
 -1      1262-1.54178E+03-5.80380E+02-6.43892E+03-1.03509E+02-2.40613E+03-1.11479E+03
 -1      1263-1.54178E+03-5.80380E+02-6.43892E+03 1.03509E+02 2.40613E+03-1.11479E+03
 -1      1264-1.86824E+03-6.23428E+02-7.03422E+03-3.71736E+01-2.62779E+03-5.06971E+02
 -1      1265-1.86824E+03-6.23428E+02-7.03422E+03 3.71736E+01 2.62779E+03-5.06971E+02
 -1      1266-2.11826E+03-6.50333E+02-7.16303E+03-4.30583E+00-2.67973E+03-1.55444E+02
 -1      1267-2.11826E+03-6.50333E+02-7.16303E+03 4.30583E+00 2.67973E+03-1.55444E+02
 -1      1268-2.25227E+03-6.62866E+02-7.14908E+03 4.73067E+00-2.67530E+03-7.41899E+00
 -1      1269-2.25227E+03-6.62866E+02-7.14908E+03-4.73067E+00 2.67530E+03-7.41900E+00
 -1      1270-2.30687E+03-6.69270E+02-7.13209E+03 4.74474E+00-2.66515E+03 4.51230E+01
 -1      1271-2.30687E+03-6.69270E+02-7.13209E+03-4.74474E+00 2.66515E+03 4.51230E+01
 -1      1272-2.32559E+03-6.71584E+02-7.13265E+03 3.15183E+00-2.66057E+03 6.68622E+01
 -1      1273-2.32559E+03-6.71584E+02-7.13265E+03-3.15183E+00 2.66057E+03 6.68622E+01
 -1      1274-2.33311E+03-6.72416E+02-7.14137E+03 2.12518E+00-2.66014E+03 8.08898E+01
 -1      1275-2.33311E+03-6.72416E+02-7.14137E+03-2.12518E+00 2.66014E+03 8.08898E+01
 -1      1276-2.33727E+03-6.72773E+02-7.15003E+03 1.75038E+00-2.66115E+03 9.24158E+01
 -1      1277-2.33727E+03-6.72773E+02-7.15003E+03-1.75038E+00 2.66115E+03 9.24157E+01
 -1      1278-2.33854E+03-6.72799E+02-7.15584E+03 1.79577E+00-2.66211E+03 1.02912E+02
 -1      1279-2.33854E+03-6.72799E+02-7.15584E+03-1.79577E+00 2.66211E+03 1.02912E+02
 -1      1280-2.33501E+03-6.72297E+02-7.15755E+03 2.30878E+00-2.66204E+03 1.15166E+02
 -1      1281-2.33501E+03-6.72297E+02-7.15755E+03-2.30878E+00 2.66204E+03 1.15166E+02
 -1      1282-2.32505E+03-6.71219E+02-7.15031E+03 3.66759E+00-2.65897E+03 1.34191E+02
 -1      1283-2.32505E+03-6.71219E+02-7.15031E+03-3.66759E+00 2.65897E+03 1.34191E+02
 -1      1284-2.31250E+03-6.70100E+02-7.12053E+03 6.06177E+00-2.64886E+03 1.63555E+02
 -1      1285-2.31250E+03-6.70100E+02-7.12053E+03-6.06177E+00 2.64886E+03 1.63555E+02
 -1      1286-2.31240E+03-6.68758E+02-7.04850E+03 7.91198E+00-2.62735E+03 1.91698E+02
 -1      1287-2.31240E+03-6.68758E+02-7.04850E+03-7.91198E+00 2.62735E+03 1.91698E+02
 -1      1288-2.33472E+03-6.61844E+02-6.94464E+03 3.13334E+00-2.60033E+03 1.74094E+02
 -1      1289-2.33472E+03-6.61844E+02-6.94464E+03-3.13334E+00 2.60033E+03 1.74094E+02
 -1      1290-2.32114E+03-6.41647E+02-6.94242E+03-1.53827E+01-2.60296E+03 7.28386E+01
 -1      1291-2.32114E+03-6.41647E+02-6.94242E+03 1.53827E+01 2.60296E+03 7.28386E+01
 -1      1292-2.11145E+03-6.27725E+02-7.27909E+03-2.50841E+01-2.69894E+03 5.10337E+01
 -1      1293-2.11145E+03-6.27725E+02-7.27909E+03 2.50841E+01 2.69894E+03 5.10337E+01
 -1      1294-1.72632E+03-6.82148E+02-7.74830E+03 4.73750E+01-2.84236E+03 6.30882E+02
 -1      1295-1.72632E+03-6.82148E+02-7.74830E+03-4.73750E+01 2.84236E+03 6.30882E+02
 -1      1296-1.46632E+03-6.57284E+02-6.78480E+03 2.03895E+02-2.49978E+03 1.87212E+03
 -1      1297-1.46632E+03-6.57284E+02-6.78480E+03-2.03895E+02 2.49978E+03 1.87212E+03
 -1      1298-1.21031E+03-2.96899E+02-3.46509E+03 2.68585E+02-1.29849E+03 2.39011E+03
 -1      1299-1.21031E+03-2.96899E+02-3.46509E+03-2.68585E+02 1.29849E+03 2.39011E+03
 -1      1300-1.00224E+03-1.04480E+02-9.70446E+02 1.73375E+02-4.08376E+02 1.67178E+03
 -1      1301-1.00224E+03-1.04480E+02-9.70446E+02-1.73375E+02 4.08376E+02 1.67178E+03
 -1      1302-5.42274E+02-6.84887E+01-8.16688E+01 5.13224E+01-8.48935E+01 8.21875E+02
 -1      1303-5.42274E+02-6.84887E+01-8.16688E+01-5.13224E+01 8.48935E+01 8.21875E+02
 -1      1304 7.93827E+01 2.85806E+02-6.55758E+02-3.02424E+02-5.29897E+02-1.28364E+03
 -1      1305 7.93827E+01 2.85806E+02-6.55758E+02 3.02424E+02 5.29897E+02-1.28364E+03
 -1      1306 4.94764E+02 3.94898E+02-8.48653E+02-2.91556E+02-9.61901E+02-1.18332E+03
 -1      1307 4.94764E+02 3.94898E+02-8.48653E+02 2.91556E+02 9.61901E+02-1.18332E+03
 -1      1308 7.09618E+02 5.21966E+02-1.10220E+03-1.70558E+02-1.24354E+03-7.46324E+02
 -1      1309 7.09618E+02 5.21966E+02-1.10220E+03 1.70558E+02 1.24354E+03-7.46324E+02
 -1      1310 5.24608E+02 5.87939E+02-1.13693E+03-5.82751E+01-1.33120E+03-3.39090E+02
 -1      1311 5.24608E+02 5.87939E+02-1.13693E+03 5.82751E+01 1.33120E+03-3.39090E+02
 -1      1312 2.23071E+02 5.90444E+02-1.09533E+03-5.38481E+00-1.34268E+03-1.06830E+02
 -1      1313 2.23071E+02 5.90444E+02-1.09533E+03 5.38481E+00 1.34268E+03-1.06830E+02
 -1      1314 1.50225E+01 5.72146E+02-1.06756E+03 8.88331E+00-1.33528E+03-4.86171E+00
 -1      1315 1.50225E+01 5.72146E+02-1.06756E+03-8.88330E+00 1.33528E+03-4.86172E+00
 -1      1316-8.53283E+01 5.57545E+02-1.06814E+03 8.83824E+00-1.32924E+03 3.79415E+01
 -1      1317-8.53283E+01 5.57545E+02-1.06814E+03-8.83824E+00 1.32924E+03 3.79415E+01
 -1      1318-1.24351E+02 5.50791E+02-1.07961E+03 6.29814E+00-1.32682E+03 6.05095E+01
 -1      1319-1.24351E+02 5.50791E+02-1.07961E+03-6.29814E+00 1.32682E+03 6.05095E+01
 -1      1320-1.39335E+02 5.48708E+02-1.09027E+03 4.66231E+00-1.32644E+03 7.58793E+01
 -1      1321-1.39335E+02 5.48708E+02-1.09027E+03-4.66231E+00 1.32644E+03 7.58793E+01
 -1      1322-1.45871E+02 5.48390E+02-1.09706E+03 4.06475E+00-1.32674E+03 8.74215E+01
 -1      1323-1.45871E+02 5.48390E+02-1.09706E+03-4.06475E+00 1.32674E+03 8.74215E+01
 -1      1324-1.47250E+02 5.48693E+02-1.10094E+03 4.13789E+00-1.32709E+03 9.67317E+01
 -1      1325-1.47250E+02 5.48693E+02-1.10094E+03-4.13789E+00 1.32709E+03 9.67317E+01
 -1      1326-1.42483E+02 5.49156E+02-1.10366E+03 4.95301E+00-1.32713E+03 1.06170E+02
 -1      1327-1.42483E+02 5.49156E+02-1.10366E+03-4.95301E+00 1.32713E+03 1.06170E+02
 -1      1328-1.32066E+02 5.48649E+02-1.10543E+03 7.10830E+00-1.32610E+03 1.19589E+02
 -1      1329-1.32066E+02 5.48649E+02-1.10543E+03-7.10830E+00 1.32610E+03 1.19589E+02
 -1      1330-1.26390E+02 5.44370E+02-1.10104E+03 1.09432E+01-1.32221E+03 1.40995E+02
 -1      1331-1.26390E+02 5.44370E+02-1.10104E+03-1.09432E+01 1.32221E+03 1.40995E+02
 -1      1332-1.50766E+02 5.35019E+02-1.07514E+03 1.42134E+01-1.31232E+03 1.66647E+02
 -1      1333-1.50766E+02 5.35019E+02-1.07514E+03-1.42134E+01 1.31232E+03 1.66647E+02
 -1      1334-2.08392E+02 5.33026E+02-1.01314E+03 7.95594E+00-1.29507E+03 1.68619E+02
 -1      1335-2.08392E+02 5.33026E+02-1.01314E+03-7.95594E+00 1.29507E+03 1.68619E+02
 -1      1336-1.68693E+02 5.68101E+02-9.75430E+02-2.14848E+01-1.28368E+03 1.07489E+02
 -1      1337-1.68693E+02 5.68101E+02-9.75430E+02 2.14848E+01 1.28368E+03 1.07489E+02
 -1      1338 2.59419E+02 6.36711E+02-1.14519E+03-4.56277E+01-1.32749E+03 6.38270E+01
 -1      1339 2.59419E+02 6.36711E+02-1.14519E+03 4.56277E+01 1.32749E+03 6.38270E+01
 -1      1340 9.42146E+02 6.02547E+02-1.50383E+03 6.72502E+01-1.47515E+03 4.08056E+02
 -1      1341 9.42146E+02 6.02547E+02-1.50383E+03-6.72502E+01 1.47515E+03 4.08056E+02
 -1      1342 8.58243E+02 4.14629E+02-1.39038E+03 3.45749E+02-1.37115E+03 1.24868E+03
 -1      1343 8.58243E+02 4.14629E+02-1.39038E+03-3.45749E+02 1.37115E+03 1.24868E+03
 -1      1344-1.47112E+02 3.35509E+02-4.35888E+02 4.59202E+02-5.93778E+02 1.59614E+03
 -1      1345-1.47112E+02 3.35509E+02-4.35888E+02-4.59202E+02 5.93778E+02 1.59614E+03
 -1      1346-8.88026E+02 1.28015E+02 2.03093E+02 2.83169E+02-1.26659E+02 1.09088E+03
 -1      1347-8.88026E+02 1.28015E+02 2.03093E+02-2.83169E+02 1.26659E+02 1.09088E+03
 -1      1348-6.87841E+02-3.59202E+01 1.57809E+02 9.37221E+01-2.39400E+01 5.59050E+02
 -1      1349-6.87841E+02-3.59202E+01 1.57809E+02-9.37221E+01 2.39400E+01 5.59050E+02
 -1      1350 5.33869E+02 4.58305E+02 5.70025E+02-3.69670E+02-3.14150E+02-5.57566E+02
 -1      1351 5.33869E+02 4.58305E+02 5.70025E+02 3.69670E+02 3.14150E+02-5.57566E+02
 -1      1352 1.38031E+03 6.78585E+02 1.35862E+03-3.33554E+02-6.50439E+02-5.41836E+02
 -1      1353 1.38031E+03 6.78585E+02 1.35862E+03 3.33554E+02 6.50439E+02-5.41836E+02
 -1      1354 1.80144E+03 9.12687E+02 1.75129E+03-1.82740E+02-8.22898E+02-3.36475E+02
 -1      1355 1.80144E+03 9.12687E+02 1.75129E+03 1.82740E+02 8.22898E+02-3.36475E+02
 -1      1356 1.67280E+03 1.01645E+03 1.94675E+03-5.56684E+01-8.55862E+02-1.54815E+02
 -1      1357 1.67280E+03 1.01645E+03 1.94675E+03 5.56684E+01 8.55862E+02-1.54815E+02
 -1      1358 1.36897E+03 1.03174E+03 2.04419E+03-2.18226E-01-8.46650E+02-5.20860E+01
 -1      1359 1.36897E+03 1.03174E+03 2.04419E+03 2.18226E-01 8.46650E+02-5.20860E+01
 -1      1360 1.13749E+03 1.01402E+03 2.06556E+03 1.34061E+01-8.36750E+02-2.13715E+00
 -1      1361 1.13749E+03 1.01402E+03 2.06556E+03-1.34061E+01 8.36750E+02-2.13715E+00
 -1      1362 1.01650E+03 9.98104E+02 2.05476E+03 1.26416E+01-8.32535E+02 2.80083E+01
 -1      1363 1.01650E+03 9.98104E+02 2.05476E+03-1.26416E+01 8.32535E+02 2.80083E+01
 -1      1364 9.63718E+02 9.90606E+02 2.03958E+03 9.76529E+00-8.31557E+02 4.98569E+01
 -1      1365 9.63718E+02 9.90606E+02 2.03958E+03-9.76529E+00 8.31557E+02 4.98569E+01
 -1      1366 9.41067E+02 9.88269E+02 2.02943E+03 8.06277E+00-8.31668E+02 6.57129E+01
 -1      1367 9.41067E+02 9.88269E+02 2.02943E+03-8.06276E+00 8.31668E+02 6.57129E+01
 -1      1368 9.30808E+02 9.87964E+02 2.02435E+03 7.48681E+00-8.31964E+02 7.67086E+01
 -1      1369 9.30808E+02 9.87964E+02 2.02435E+03-7.48681E+00 8.31964E+02 7.67086E+01
 -1      1370 9.27862E+02 9.88310E+02 2.02183E+03 7.59133E+00-8.32221E+02 8.43686E+01
 -1      1371 9.27862E+02 9.88310E+02 2.02183E+03-7.59133E+00 8.32221E+02 8.43686E+01
 -1      1372 9.31932E+02 9.88650E+02 2.01918E+03 8.44614E+00-8.32416E+02 9.05043E+01
 -1      1373 9.31932E+02 9.88650E+02 2.01918E+03-8.44614E+00 8.32416E+02 9.05043E+01
 -1      1374 9.41442E+02 9.87597E+02 2.01409E+03 1.07422E+01-8.32323E+02 9.77446E+01
 -1      1375 9.41442E+02 9.87597E+02 2.01409E+03-1.07422E+01 8.32323E+02 9.77446E+01
 -1      1376 9.45519E+02 9.81892E+02 2.00719E+03 1.50405E+01-8.30904E+02 1.10470E+02
 -1      1377 9.45519E+02 9.81892E+02 2.00719E+03-1.50405E+01 8.30904E+02 1.10470E+02
 -1      1378 9.19339E+02 9.69236E+02 2.00725E+03 1.93719E+01-8.24964E+02 1.32547E+02
 -1      1379 9.19339E+02 9.69236E+02 2.00725E+03-1.93719E+01 8.24964E+02 1.32547E+02
 -1      1380 8.60130E+02 9.62312E+02 2.03228E+03 1.48887E+01-8.08915E+02 1.52491E+02
 -1      1381 8.60130E+02 9.62312E+02 2.03228E+03-1.48887E+01 8.08915E+02 1.52491E+02
 -1      1382 9.00609E+02 9.96029E+02 2.06434E+03-1.69078E+01-7.87519E+02 1.31269E+02
 -1      1383 9.00609E+02 9.96029E+02 2.06434E+03 1.69078E+01 7.87519E+02 1.31269E+02
 -1      1384 1.36582E+03 1.08740E+03 1.99538E+03-6.04392E+01-8.11898E+02 7.08251E+01
 -1      1385 1.36582E+03 1.08740E+03 1.99538E+03 6.04392E+01 8.11898E+02 7.08251E+01
 -1      1386 2.15485E+03 1.06766E+03 1.86238E+03 5.08365E+01-9.90286E+02 1.66861E+02
 -1      1387 2.15485E+03 1.06766E+03 1.86238E+03-5.08365E+01 9.90286E+02 1.66861E+02
 -1      1388 1.94124E+03 7.63842E+02 1.64609E+03 4.05072E+02-9.99672E+02 5.52945E+02
 -1      1389 1.94124E+03 7.63843E+02 1.64609E+03-4.05072E+02 9.99672E+02 5.52945E+02
 -1      1390 3.61506E+02 5.83681E+02 1.01689E+03 5.44618E+02-3.07780E+02 7.08645E+02
 -1      1391 3.61506E+02 5.83681E+02 1.01689E+03-5.44618E+02 3.07780E+02 7.08645E+02
 -1      1392-7.54068E+02 2.12101E+02 6.18150E+02 3.06843E+02 7.26463E+00 4.57899E+02
 -1      1393-7.54068E+02 2.12101E+02 6.18150E+02-3.06843E+02-7.26463E+00 4.57899E+02
 -1      1394-6.57691E+02-2.60219E+01 2.17942E+02 9.42662E+01 1.59473E+01 2.44306E+02
 -1      1395-6.57691E+02-2.60219E+01 2.17942E+02-9.42662E+01-1.59473E+01 2.44306E+02
 -1      1396 5.80197E+02 2.17655E+02 8.90927E+02-3.22214E+02-1.08155E+02 1.12573E+02
 -1      1397 5.80197E+02 2.17655E+02 8.90927E+02 3.22214E+02 1.08155E+02 1.12573E+02
 -1      1398 1.35390E+03 1.66921E+02 1.88468E+03-2.75320E+02-2.79489E+02 7.59105E+01
 -1      1399 1.35390E+03 1.66921E+02 1.88468E+03 2.75320E+02 2.79489E+02 7.59105E+01
 -1      1400 1.73930E+03 3.08849E+02 2.43522E+03-1.33941E+02-3.42674E+02 1.73844E+01
 -1      1401 1.73930E+03 3.08849E+02 2.43522E+03 1.33941E+02 3.42674E+02 1.73844E+01
 -1      1402 1.63837E+03 3.83301E+02 2.64807E+03-3.04122E+01-3.31553E+02-7.95434E+00
 -1      1403 1.63837E+03 3.83301E+02 2.64807E+03 3.04122E+01 3.31553E+02-7.95434E+00
 -1      1404 1.38653E+03 4.00568E+02 2.72538E+03 9.89052E+00-3.11584E+02-1.40805E+01
 -1      1405 1.38653E+03 4.00568E+02 2.72538E+03-9.89052E+00 3.11584E+02-1.40805E+01
 -1      1406 1.18201E+03 3.92864E+02 2.73354E+03 1.82374E+01-3.03051E+02-4.23250E+00
 -1      1407 1.18201E+03 3.92864E+02 2.73354E+03-1.82374E+01 3.03051E+02-4.23250E+00
 -1      1408 1.06233E+03 3.83414E+02 2.72050E+03 1.66471E+01-3.01490E+02 1.52671E+01
 -1      1409 1.06233E+03 3.83414E+02 2.72050E+03-1.66471E+01 3.01490E+02 1.52671E+01
 -1      1410 1.00131E+03 3.78506E+02 2.70773E+03 1.42618E+01-3.01938E+02 3.46787E+01
 -1      1411 1.00131E+03 3.78506E+02 2.70773E+03-1.42618E+01 3.01938E+02 3.46787E+01
 -1      1412 9.70983E+02 3.76578E+02 2.70017E+03 1.30859E+01-3.02468E+02 4.90985E+01
 -1      1413 9.70983E+02 3.76578E+02 2.70017E+03-1.30859E+01 3.02468E+02 4.90985E+01
 -1      1414 9.56134E+02 3.76048E+02 2.69680E+03 1.27915E+01-3.02743E+02 5.83721E+01
 -1      1415 9.56134E+02 3.76048E+02 2.69680E+03-1.27915E+01 3.02743E+02 5.83721E+01
 -1      1416 9.50579E+02 3.76047E+02 2.69529E+03 1.29453E+01-3.02892E+02 6.39383E+01
 -1      1417 9.50579E+02 3.76047E+02 2.69529E+03-1.29453E+01 3.02892E+02 6.39383E+01
 -1      1418 9.52300E+02 3.76120E+02 2.69341E+03 1.36029E+01-3.03136E+02 6.70094E+01
 -1      1419 9.52300E+02 3.76120E+02 2.69341E+03-1.36029E+01 3.03136E+02 6.70094E+01
 -1      1420 9.59165E+02 3.75444E+02 2.68890E+03 1.53793E+01-3.03678E+02 6.88610E+01
 -1      1421 9.59165E+02 3.75444E+02 2.68890E+03-1.53793E+01 3.03678E+02 6.88610E+01
 -1      1422 9.64634E+02 3.72559E+02 2.68093E+03 1.90016E+01-3.04224E+02 7.30065E+01
 -1      1423 9.64634E+02 3.72559E+02 2.68093E+03-1.90016E+01 3.04224E+02 7.30065E+01
 -1      1424 9.54933E+02 3.65714E+02 2.67172E+03 2.32683E+01-3.02374E+02 8.68792E+01
 -1      1425 9.54933E+02 3.65714E+02 2.67172E+03-2.32683E+01 3.02374E+02 8.68792E+01
 -1      1426 9.30978E+02 3.65873E+02 2.67138E+03 2.20881E+01-2.91156E+02 1.12978E+02
 -1      1427 9.30978E+02 3.65873E+02 2.67138E+03-2.20881E+01 2.91156E+02 1.12978E+02
 -1      1428 9.70649E+02 3.90606E+02 2.67705E+03-2.08626E+00-2.66311E+02 1.29391E+02
 -1      1429 9.70649E+02 3.90606E+02 2.67705E+03 2.08626E+00 2.66311E+02 1.29391E+02
 -1      1430 1.32051E+03 4.76927E+02 2.66743E+03-5.63254E+01-2.71400E+02 1.06297E+02
 -1      1431 1.32051E+03 4.76927E+02 2.66743E+03 5.63254E+01 2.71400E+02 1.06297E+02
 -1      1432 1.94512E+03 3.94099E+02 2.74349E+03 1.44767E+01-4.31991E+02 1.99044E+01
 -1      1433 1.94512E+03 3.94099E+02 2.74349E+03-1.44767E+01 4.31991E+02 1.99044E+01
 -1      1434 1.70072E+03-8.06108E+00 2.46982E+03 3.49420E+02-5.02508E+02-1.31037E+02
 -1      1435 1.70072E+03-8.06108E+00 2.46982E+03-3.49420E+02 5.02508E+02-1.31037E+02
 -1      1436 4.35929E+02 4.18317E+02 1.28556E+03 4.74946E+02-4.88999E+01-1.88541E+02
 -1      1437 4.35929E+02 4.18317E+02 1.28556E+03-4.74946E+02 4.88999E+01-1.88541E+02
 -1      1438-5.20236E+02 1.66166E+02 5.30940E+02 2.33314E+02 9.57786E+01-9.53314E+01
 -1      1439-5.20236E+02 1.66166E+02 5.30940E+02-2.33314E+02-9.57786E+01-9.53314E+01
 -1      1440-4.54297E+02-2.22119E+01 1.61298E+02 5.79999E+01 3.64013E+01 5.46732E-01
 -1      1441-4.54297E+02-2.22119E+01 1.61298E+02-5.79999E+01-3.64013E+01 5.46734E-01
 -1      1442 4.73956E+02 8.15713E+01 5.92843E+02-1.14710E+02 7.10128E+01 4.08788E+02
 -1      1443 4.73956E+02 8.15713E+01 5.92843E+02 1.14710E+02-7.10128E+01 4.08788E+02
 -1      1444 9.34818E+02-1.64335E+01 1.21655E+03-7.83300E+01 1.19938E+02 3.68718E+02
 -1      1445 9.34818E+02-1.64335E+01 1.21655E+03 7.83300E+01-1.19938E+02 3.68718E+02
 -1      1446 1.16185E+03 6.71803E+01 1.58245E+03-1.94057E+01 1.42628E+02 1.72462E+02
 -1      1447 1.16185E+03 6.71803E+01 1.58245E+03 1.94057E+01-1.42628E+02 1.72462E+02
 -1      1448 1.11831E+03 1.19800E+02 1.70693E+03 9.21879E+00 1.76571E+02 4.43449E+01
 -1      1449 1.11831E+03 1.19800E+02 1.70693E+03-9.21879E+00-1.76571E+02 4.43449E+01
 -1      1450 9.73827E+02 1.36424E+02 1.74602E+03 1.84278E+01 1.94029E+02-2.92905E+00
 -1      1451 9.73827E+02 1.36424E+02 1.74602E+03-1.84278E+01-1.94029E+02-2.92905E+00
 -1      1452 8.29620E+02 1.37753E+02 1.75003E+03 1.92376E+01 1.97059E+02-7.48747E+00
 -1      1453 8.29620E+02 1.37753E+02 1.75003E+03-1.92376E+01-1.97059E+02-7.48747E+00
 -1      1454 7.22253E+02 1.34708E+02 1.74349E+03 1.81019E+01 1.95665E+02 3.98501E+00
 -1      1455 7.22253E+02 1.34708E+02 1.74349E+03-1.81019E+01-1.95665E+02 3.98501E+00
 -1      1456 6.54779E+02 1.31929E+02 1.73654E+03 1.75042E+01 1.94101E+02 1.68785E+01
 -1      1457 6.54779E+02 1.31929E+02 1.73654E+03-1.75042E+01-1.94101E+02 1.68785E+01
 -1      1458 6.16790E+02 1.30171E+02 1.73217E+03 1.75488E+01 1.93361E+02 2.61939E+01
 -1      1459 6.16790E+02 1.30171E+02 1.73217E+03-1.75488E+01-1.93361E+02 2.61939E+01
 -1      1460 5.97347E+02 1.29301E+02 1.73009E+03 1.78148E+01 1.93145E+02 3.18264E+01
 -1      1461 5.97347E+02 1.29301E+02 1.73009E+03-1.78148E+01-1.93145E+02 3.18264E+01
 -1      1462 5.89057E+02 1.28898E+02 1.72909E+03 1.80642E+01 1.93107E+02 3.48471E+01
 -1      1463 5.89057E+02 1.28898E+02 1.72909E+03-1.80642E+01-1.93107E+02 3.48471E+01
 -1      1464 5.87504E+02 1.28591E+02 1.72790E+03 1.83355E+01 1.92927E+02 3.58725E+01
 -1      1465 5.87504E+02 1.28591E+02 1.72790E+03-1.83355E+01-1.92927E+02 3.58725E+01
 -1      1466 5.89622E+02 1.28089E+02 1.72545E+03 1.89618E+01 1.92190E+02 3.51261E+01
 -1      1467 5.89622E+02 1.28089E+02 1.72545E+03-1.89618E+01-1.92190E+02 3.51261E+01
 -1      1468 5.94614E+02 1.27534E+02 1.72169E+03 2.03614E+01 1.90459E+02 3.39074E+01
 -1      1469 5.94614E+02 1.27534E+02 1.72169E+03-2.03614E+01-1.90459E+02 3.39074E+01
 -1      1470 6.08399E+02 1.26857E+02 1.71719E+03 2.22734E+01 1.89028E+02 3.69349E+01
 -1      1471 6.08399E+02 1.26857E+02 1.71719E+03-2.22734E+01-1.89028E+02 3.69349E+01
 -1      1472 6.47906E+02 1.29618E+02 1.71087E+03 2.28503E+01 1.91760E+02 5.07196E+01
 -1      1473 6.47906E+02 1.29618E+02 1.71087E+03-2.28503E+01-1.91760E+02 5.07196E+01
 -1      1474 7.16975E+02 1.35009E+02 1.69287E+03 1.72034E+01 2.11170E+02 8.36662E+01
 -1      1475 7.16975E+02 1.35009E+02 1.69287E+03-1.72034E+01-2.11170E+02 8.36662E+01
 -1      1476 8.51273E+02 1.84944E+02 1.69254E+03-9.83827E+00 2.12760E+02 1.33377E+02
 -1      1477 8.51273E+02 1.84944E+02 1.69254E+03 9.83827E+00-2.12760E+02 1.33377E+02
 -1      1478 1.04864E+03 1.19535E+02 1.81711E+03-1.22673E+01 1.29693E+02 2.75715E+00
 -1      1479 1.04864E+03 1.19535E+02 1.81711E+03 1.22673E+01-1.29693E+02 2.75715E+00
 -1      1480 8.65278E+02-1.74083E+02 1.66287E+03 1.17105E+02 1.10403E+02-4.69644E+02
 -1      1481 8.65278E+02-1.74083E+02 1.66287E+03-1.17105E+02-1.10403E+02-4.69644E+02
 -1      1482 3.46356E+02 2.60587E+02 7.98789E+02 1.57792E+02 1.05371E+02-6.49875E+02
 -1      1483 3.46356E+02 2.60587E+02 7.98789E+02-1.57792E+02-1.05371E+02-6.49875E+02
 -1      1484-8.73181E+01 1.12840E+02 2.68244E+02 4.72275E+01 1.15279E+02-3.24350E+02
 -1      1485-8.73181E+01 1.12840E+02 2.68244E+02-4.72275E+01-1.15279E+02-3.24350E+02
 -1      1486-1.04704E+02 1.62487E+00 8.61334E+01 1.48124E+00 3.52991E+01-7.35032E+01
 -1      1487-1.04704E+02 1.62487E+00 8.61334E+01-1.48124E+00-3.52991E+01-7.35032E+01
 -1      1488 6.04916E+02 5.48887E+02 5.29702E+02 3.71012E+02 5.96601E+01 4.03338E+02
 -1      1489 6.04916E+02 5.48887E+02 5.29702E+02-3.71012E+02-5.96601E+01 4.03338E+02
 -1      1490 1.12407E+03 1.21453E+03 1.13840E+03 3.85487E+02 1.18795E+02 3.80697E+02
 -1      1491 1.12407E+03 1.21453E+03 1.13840E+03-3.85487E+02-1.18795E+02 3.80697E+02
 -1      1492 1.30816E+03 1.52474E+03 1.43285E+03 1.98516E+02 1.47476E+02 1.77920E+02
 -1      1493 1.30816E+03 1.52474E+03 1.43285E+03-1.98516E+02-1.47476E+02 1.77920E+02
 -1      1494 1.34431E+03 1.58457E+03 1.51692E+03 6.64866E+01 1.75968E+02 4.03943E+01
 -1      1495 1.34431E+03 1.58457E+03 1.51692E+03-6.64866E+01-1.75968E+02 4.03943E+01
 -1      1496 1.31358E+03 1.57884E+03 1.54705E+03 1.96707E+01 1.87396E+02-2.76885E+00
 -1      1497 1.31358E+03 1.57884E+03 1.54705E+03-1.96707E+01-1.87396E+02-2.76885E+00
 -1      1498 1.21811E+03 1.56812E+03 1.55271E+03 9.78366E+00 1.88056E+02-5.99258E+00
 -1      1499 1.21811E+03 1.56812E+03 1.55271E+03-9.78366E+00-1.88056E+02-5.99258E+00
 -1      1500 1.11253E+03 1.55979E+03 1.54752E+03 1.19275E+01 1.86245E+02 1.42002E+00
 -1      1501 1.11253E+03 1.55979E+03 1.54752E+03-1.19275E+01-1.86245E+02 1.42002E+00
 -1      1502 1.03509E+03 1.55463E+03 1.54098E+03 1.57728E+01 1.84838E+02 8.89489E+00
 -1      1503 1.03509E+03 1.55463E+03 1.54098E+03-1.57728E+01-1.84838E+02 8.89489E+00
 -1      1504 9.89998E+02 1.55206E+03 1.53685E+03 1.85302E+01 1.84237E+02 1.39353E+01
 -1      1505 9.89998E+02 1.55206E+03 1.53685E+03-1.85302E+01-1.84237E+02 1.39353E+01
 -1      1506 9.67599E+02 1.55105E+03 1.53499E+03 2.00145E+01 1.84075E+02 1.68413E+01
 -1      1507 9.67599E+02 1.55105E+03 1.53499E+03-2.00145E+01-1.84075E+02 1.68413E+01
 -1      1508 9.58074E+02 1.55071E+03 1.53416E+03 2.05293E+01 1.84062E+02 1.83007E+01
 -1      1509 9.58074E+02 1.55071E+03 1.53416E+03-2.05293E+01-1.84062E+02 1.83007E+01
 -1      1510 9.54100E+02 1.55034E+03 1.53302E+03 2.01223E+01 1.83971E+02 1.86041E+01
 -1      1511 9.54100E+02 1.55034E+03 1.53302E+03-2.01223E+01-1.83971E+02 1.86041E+01
 -1      1512 9.50208E+02 1.54938E+03 1.53059E+03 1.85016E+01 1.83457E+02 1.75649E+01
 -1      1513 9.50208E+02 1.54938E+03 1.53059E+03-1.85016E+01-1.83457E+02 1.75649E+01
 -1      1514 9.48376E+02 1.54728E+03 1.52728E+03 1.51147E+01 1.82092E+02 1.48883E+01
 -1      1515 9.48376E+02 1.54728E+03 1.52728E+03-1.51147E+01-1.82092E+02 1.48883E+01
 -1      1516 9.74480E+02 1.54301E+03 1.52657E+03 1.08179E+01 1.80451E+02 1.14813E+01
 -1      1517 9.74480E+02 1.54301E+03 1.52657E+03-1.08179E+01-1.80451E+02 1.14813E+01
 -1      1518 1.07886E+03 1.52708E+03 1.52586E+03 1.06107E+01 1.81395E+02 1.21222E+01
 -1      1519 1.07886E+03 1.52708E+03 1.52586E+03-1.06107E+01-1.81395E+02 1.21222E+01
 -1      1520 1.20706E+03 1.47920E+03 1.49744E+03 3.54918E+01 1.96077E+02 4.56963E+01
 -1      1521 1.20706E+03 1.47920E+03 1.49744E+03-3.54918E+01-1.96077E+02 4.56963E+01
 -1      1522 1.11415E+03 1.46038E+03 1.44408E+03 1.12774E+02 2.01239E+02 1.37736E+02
 -1      1523 1.11415E+03 1.46038E+03 1.44408E+03-1.12774E+02-2.01239E+02 1.37736E+02
 -1      1524 9.75469E+02 1.81538E+03 1.62961E+03 1.76667E+01 1.45583E+02 3.01211E+01
 -1      1525 9.75469E+02 1.81538E+03 1.62961E+03-1.76667E+01-1.45583E+02 3.01211E+01
 -1      1526 9.51623E+02 1.92504E+03 1.69035E+03-4.70222E+02 1.28610E+02-4.92865E+02
 -1      1527 9.51623E+02 1.92504E+03 1.69035E+03 4.70222E+02-1.28610E+02-4.92865E+02
 -1      1528 4.66375E+02 5.11748E+02 5.66502E+02-6.60644E+02 9.88693E+01-6.91332E+02
 -1      1529 4.66375E+02 5.11748E+02 5.66502E+02 6.60644E+02-9.88693E+01-6.91332E+02
 -1      1530 3.90758E+02 3.93732E+00 1.72956E+02-3.19248E+02 8.59239E+01-3.18218E+02
 -1      1531 3.90758E+02 3.93732E+00 1.72956E+02 3.19248E+02-8.59239E+01-3.18218E+02
 -1      1532 2.54472E+02 2.23364E+01 1.04416E+02-7.95079E+01 2.46104E+01-5.36739E+01
 -1      1533 2.54472E+02 2.23365E+01 1.04416E+02 7.95079E+01-2.46104E+01-5.36739E+01
 -1      1534-1.22024E+03-1.22024E+03-2.84723E+03 2.25662E-02-1.91824E+03-1.74056E+03
 -1      1535 5.96577E+02 7.30149E+02 6.44895E+01 5.49985E+02 5.97266E+01 1.13062E+02
 -1      1536-2.26513E+03-2.26509E+03-5.28526E+03 3.23291E-02-3.29045E+03-1.55626E+03
 -1      1537 1.00996E+03 1.69362E+03 3.25261E+02 5.59586E+02 1.53672E+02 8.34128E+01
 -1      1538-2.86543E+03-2.86535E+03-6.68592E+03 2.48486E-02-4.25515E+03-9.91089E+02
 -1      1539 1.06561E+03 2.07692E+03 4.00714E+02 2.78315E+02 1.82577E+02 1.99515E+01
 -1      1540-3.10299E+03-3.10289E+03-7.24021E+03 1.19304E-02-4.66116E+03-4.62924E+02
 -1      1541 1.10640E+03 2.15930E+03 4.24504E+02 1.01218E+02 2.23701E+02-6.07978E+00
 -1      1542-3.12643E+03-3.12633E+03-7.29491E+03 3.49628E-03-4.75631E+03-1.47183E+02
 -1      1543 1.12463E+03 2.16467E+03 4.56834E+02 4.31844E+01 2.34000E+02-3.07174E+00
 -1      1544-3.10017E+03-3.10007E+03-7.23363E+03-8.27974E-05-4.74752E+03-7.00254E+00
 -1      1545 1.05956E+03 2.15421E+03 4.74991E+02 3.23245E+01 2.34598E+02 4.81665E+00
 -1      1546-3.08305E+03-3.08295E+03-7.19369E+03-1.32690E-03-4.72748E+03 4.68249E+01
 -1      1547 9.64875E+02 2.14389E+03 4.77742E+02 3.50081E+01 2.33024E+02 1.10977E+01
 -1      1548-3.07960E+03-3.07950E+03-7.18564E+03-1.83630E-03-4.71786E+03 7.05181E+01
 -1      1549 8.89236E+02 2.13716E+03 4.74337E+02 3.91777E+01 2.31823E+02 1.53886E+01
 -1      1550-3.08195E+03-3.08186E+03-7.19114E+03-2.16636E-03-4.71625E+03 8.53359E+01
 -1      1551 8.43904E+02 2.13408E+03 4.71031E+02 4.21134E+01 2.31336E+02 1.82220E+01
 -1      1552-3.08508E+03-3.08499E+03-7.19843E+03-2.43883E-03-4.71762E+03 9.68962E+01
 -1      1553 8.21314E+02 2.13313E+03 4.69201E+02 4.36588E+01 2.31180E+02 2.00545E+01
 -1      1554-3.08746E+03-3.08736E+03-7.20397E+03-2.68750E-03-4.71915E+03 1.07115E+02
 -1      1555 8.11552E+02 2.13298E+03 4.68193E+02 4.41152E+01 2.31148E+02 2.12491E+01
 -1      1556-3.08865E+03-3.08856E+03-7.20676E+03-2.97758E-03-4.71894E+03 1.18698E+02
 -1      1557 8.06635E+02 2.13256E+03 4.66949E+02 4.34997E+01 2.31028E+02 2.20882E+01
 -1      1558-3.08649E+03-3.08640E+03-7.20172E+03-3.42639E-03-4.71340E+03 1.35971E+02
 -1      1559 8.00742E+02 2.13078E+03 4.65037E+02 4.13678E+01 2.30619E+02 2.27754E+01
 -1      1560-3.07403E+03-3.07393E+03-7.17264E+03-4.11601E-03-4.69521E+03 1.61742E+02
 -1      1561 7.97775E+02 2.12669E+03 4.64655E+02 3.65458E+01 2.29061E+02 2.33010E+01
 -1      1562-3.04026E+03-3.04017E+03-7.09386E+03-4.75959E-03-4.65705E+03 1.85853E+02
 -1      1563 8.29763E+02 2.11964E+03 4.72275E+02 2.81957E+01 2.27481E+02 2.29197E+01
 -1      1564-2.98999E+03-2.98990E+03-6.97655E+03-4.28178E-03-4.61142E+03 1.71171E+02
 -1      1565 9.52013E+02 2.10155E+03 4.86747E+02 2.20859E+01 2.24589E+02 2.03617E+01
 -1      1566-2.99456E+03-2.99447E+03-6.98722E+03-1.81062E-03-4.62434E+03 9.35905E+01
 -1      1567 1.10764E+03 2.06007E+03 4.76757E+02 5.16806E+01 2.40346E+02 2.37435E+01
 -1      1568-3.18064E+03-3.18054E+03-7.42139E+03-1.39955E-03-4.80335E+03 1.10418E+02
 -1      1569 9.44568E+02 2.00315E+03 3.72847E+02 1.93169E+02 2.61759E+02 7.75805E+01
 -1      1570-3.44306E+03-3.44294E+03-8.03367E+03-1.69103E-02-5.02204E+03 6.25943E+02
 -1      1571 5.81352E+02 2.42321E+03 3.85545E+02 1.05599E+02 1.73441E+02 9.93035E+01
 -1      1572-3.02058E+03-3.02050E+03-7.04794E+03-4.31751E-02-4.37281E+03 1.60930E+03
 -1      1573 6.26159E+02 2.73389E+03 6.12487E+02-6.95090E+02 1.93320E+02-1.32921E+02
 -1      1574-1.48089E+03-1.48090E+03-3.45545E+03-3.26684E-02-2.33709E+03 2.02376E+03
 -1      1575 3.90231E+02 6.26652E+02 7.53712E+01-1.00497E+03 9.67888E+01-2.18215E+02
 -1      1576-3.38908E+02-3.38930E+02-7.90832E+02-9.53578E-03-7.60186E+02 1.47787E+03
 -1      1577 5.72156E+02 5.42955E+01 1.15166E+02-4.29015E+02 1.15633E+02-2.80264E+01
 -1      1578 5.43328E+01 5.43220E+01 1.26753E+02-1.30413E-03-1.52365E+02 7.82097E+02
 -1      1579 3.57254E+02 5.96390E+01 1.17635E+02-9.14927E+01 1.58519E+01 2.85582E+01
 -1      1580-1.58833E+03-1.58833E+03-3.70610E+03 2.52628E-02-1.77789E+03-1.83411E+03
 -1      1581 7.95508E+02 9.77537E+02 6.54157E+01 8.64905E+02-7.72168E+02 1.29940E+02
 -1      1582-2.99931E+03-2.99928E+03-6.99833E+03 3.42424E-02-3.10244E+03-1.59956E+03
 -1      1583 1.25401E+03 2.37700E+03 7.10956E+02 8.73439E+02-1.92262E+03 8.47786E+01
 -1      1584-3.79048E+03-3.79041E+03-8.84431E+03 2.49996E-02-4.01134E+03-9.76213E+02
 -1      1585 1.20395E+03 2.86491E+03 7.16978E+02 4.31675E+02-2.20433E+03-1.83063E+01
 -1      1586-4.07289E+03-4.07280E+03-9.50324E+03 1.12145E-02-4.38648E+03-4.35408E+02
 -1      1587 1.34911E+03 3.04162E+03 7.55907E+02 1.90768E+02-2.18587E+03-1.55026E+01
 -1      1588-4.08758E+03-4.08749E+03-9.53754E+03 2.81045E-03-4.46819E+03-1.25851E+02
 -1      1589 1.44918E+03 3.08376E+03 7.84528E+02 1.19713E+02-2.13514E+03 1.62534E+00
 -1      1590-4.04691E+03-4.04682E+03-9.44264E+03-4.97957E-04-4.45532E+03 5.62334E+00
 -1      1591 1.42078E+03 3.07635E+03 8.01433E+02 1.09347E+02-2.10192E+03 1.35334E+01
 -1      1592-4.02102E+03-4.02093E+03-9.38223E+03-1.54575E-03-4.43385E+03 5.48937E+01
 -1      1593 1.33735E+03 3.06121E+03 8.04407E+02 1.14100E+02-2.09045E+03 2.04264E+01
 -1      1594-4.01345E+03-4.01336E+03-9.36457E+03-1.94885E-03-4.42320E+03 7.69102E+01
 -1      1595 1.26241E+03 3.05044E+03 8.00760E+02 1.19478E+02-2.08718E+03 2.41504E+01
 -1      1596-4.01408E+03-4.01400E+03-9.36605E+03-2.22248E-03-4.42064E+03 9.11315E+01
 -1      1597 1.21589E+03 3.04584E+03 7.97459E+02 1.23146E+02-2.08688E+03 2.64993E+01
 -1      1598-4.01655E+03-4.01646E+03-9.37180E+03-2.46071E-03-4.42130E+03 1.02339E+02
 -1      1599 1.19227E+03 3.04464E+03 7.95473E+02 1.25065E+02-2.08710E+03 2.80307E+01
 -1      1600-4.01874E+03-4.01866E+03-9.37692E+03-2.68396E-03-4.42242E+03 1.12185E+02
 -1      1601 1.18161E+03 3.04462E+03 7.94356E+02 1.25642E+02-2.08742E+03 2.91261E+01
 -1      1602-4.01995E+03-4.01986E+03-9.37974E+03-2.95128E-03-4.42218E+03 1.23272E+02
 -1      1603 1.17506E+03 3.04391E+03 7.92878E+02 1.24907E+02-2.08784E+03 3.00648E+01
 -1      1604-4.01754E+03-4.01745E+03-9.37411E+03-3.38117E-03-4.41726E+03 1.39995E+02
 -1      1605 1.16638E+03 3.04052E+03 7.91146E+02 1.22154E+02-2.08822E+03 3.10266E+01
 -1      1606-4.00325E+03-4.00317E+03-9.34078E+03-4.07305E-03-4.40086E+03 1.65901E+02
 -1      1607 1.15944E+03 3.03134E+03 7.89259E+02 1.15506E+02-2.08605E+03 3.22251E+01
 -1      1608-3.96320E+03-3.96311E+03-9.24732E+03-4.76754E-03-4.36590E+03 1.92544E+02
 -1      1609 1.19402E+03 3.01964E+03 7.99176E+02 1.00895E+02-2.07688E+03 3.12416E+01
 -1      1610-3.89920E+03-3.89912E+03-9.09800E+03-4.30119E-03-4.32302E+03 1.81435E+02
 -1      1611 1.32688E+03 2.99965E+03 8.01020E+02 8.59349E+01-2.03449E+03 2.83183E+01
 -1      1612-3.89418E+03-3.89409E+03-9.08628E+03-1.43642E-03-4.33421E+03 9.53697E+01
 -1      1613 1.55628E+03 3.00157E+03 8.14149E+02 1.14459E+02-1.97890E+03 7.71575E+00
 -1      1614-4.12520E+03-4.12510E+03-9.62530E+03-4.78764E-05-4.50486E+03 7.62145E+01
 -1      1615 1.31566E+03 2.90374E+03 6.29989E+02 3.54228E+02-1.83965E+03 7.58776E+01
 -1      1616-4.52234E+03-4.52223E+03-1.05519E+04-1.57114E-02-4.73102E+03 5.80740E+02
 -1      1617 4.64020E+02 3.20410E+03 5.51110E+02 3.70416E+02-2.49972E+03 2.65036E+02
 -1      1618-4.03293E+03-4.03286E+03-9.41003E+03-4.55026E-02-4.14410E+03 1.66148E+03
 -1      1619 7.89999E+02 3.98961E+03 1.64593E+03-9.98560E+02-3.42766E+03-1.61217E+02
 -1      1620-1.88932E+03-1.88933E+03-4.40844E+03-3.58375E-02-2.18060E+03 2.11058E+03
 -1      1621 4.16223E+02 7.82173E+02-3.47606E+02-1.58780E+03-7.37355E+01-3.00190E+02
 -1      1622-3.89557E+02-3.89578E+02-9.09016E+02-1.15455E-02-6.91457E+02 1.47848E+03
 -1      1623 1.06958E+03 3.13224E+02 2.06396E+02-5.47082E+02 2.23703E+02 9.37196E+01
 -1      1624 6.05170E+01 6.05075E+01 1.41183E+02-2.19834E-03-1.34506E+02 7.41033E+02
 -1      1625 5.48508E+02 1.49031E+02 1.43864E+02-9.59648E+01 1.80765E+01 6.11612E+01
 -1      1626-2.11917E+03-2.11919E+03-4.94473E+03 2.55537E-02-1.53709E+03-2.06881E+03
 -1      1627-1.33623E+03-1.86529E+03-4.77992E+03 9.67935E+02-1.57893E+03-4.69947E+02
 -1      1628-4.04450E+03-4.04449E+03-9.43704E+03 3.41444E-02-2.72364E+03-1.77065E+03
 -1      1629-4.57010E+03-4.63745E+03-1.14394E+04 9.87733E+02-4.09181E+03-3.38399E+02
 -1      1630-5.11613E+03-5.11609E+03-1.19374E+04 2.40050E-02-3.51980E+03-1.03488E+03
 -1      1631-5.56169E+03-5.20353E+03-1.30915E+04 4.90018E+02-4.72744E+03-9.03068E+01
 -1      1632-5.47675E+03-5.47670E+03-1.27788E+04 1.00327E-02-3.84472E+03-4.28570E+02
 -1      1633-5.40956E+03-5.08504E+03-1.32685E+04 2.39924E+02-4.74953E+03 6.27599E+01
 -1      1634-5.48838E+03-5.48833E+03-1.28059E+04 2.03702E-03-3.91301E+03-1.04522E+02
 -1      1635-5.12150E+03-4.87140E+03-1.30169E+04 1.74533E+02-4.67130E+03 1.15119E+02
 -1      1636-5.43181E+03-5.43176E+03-1.26740E+04-8.56325E-04-3.89964E+03 2.27795E+01
 -1      1637-5.02722E+03-4.76053E+03-1.28167E+04 1.68639E+02-4.60980E+03 1.22485E+02
 -1      1638-5.39561E+03-5.39556E+03-1.25895E+04-1.65756E-03-3.87963E+03 6.66147E+01
 -1      1639-5.06314E+03-4.73131E+03-1.27363E+04 1.74893E+02-4.58565E+03 1.20741E+02
 -1      1640-5.38338E+03-5.38333E+03-1.25610E+04-1.93360E-03-3.86951E+03 8.57296E+01
 -1      1641-5.12360E+03-4.72862E+03-1.27113E+04 1.80195E+02-4.57799E+03 1.19637E+02
 -1      1642-5.38234E+03-5.38229E+03-1.25585E+04-2.13725E-03-3.86674E+03 9.87443E+01
 -1      1643-5.16827E+03-4.73126E+03-1.27085E+04 1.83568E+02-4.57710E+03 1.19995E+02
 -1      1644-5.38435E+03-5.38430E+03-1.25632E+04-2.33056E-03-3.86699E+03 1.09441E+02
 -1      1645-5.19267E+03-4.73271E+03-1.27098E+04 1.85299E+02-4.57781E+03 1.20880E+02
 -1      1646-5.38655E+03-5.38650E+03-1.25684E+04-2.51895E-03-3.86782E+03 1.18974E+02
 -1      1647-5.20482E+03-4.73360E+03-1.27121E+04 1.85849E+02-4.57890E+03 1.21828E+02
 -1      1648-5.38780E+03-5.38775E+03-1.25713E+04-2.75273E-03-3.86758E+03 1.29877E+02
 -1      1649-5.21337E+03-4.73547E+03-1.27144E+04 1.85246E+02-4.58006E+03 1.23041E+02
 -1      1650-5.38474E+03-5.38469E+03-1.25641E+04-3.14676E-03-3.86340E+03 1.46943E+02
 -1      1651-5.22423E+03-4.73995E+03-1.27153E+04 1.82644E+02-4.58048E+03 1.25622E+02
 -1      1652-5.36725E+03-5.36720E+03-1.25233E+04-3.81278E-03-3.84943E+03 1.74835E+02
 -1      1653-5.22355E+03-4.73863E+03-1.26920E+04 1.75649E+02-4.57443E+03 1.31391E+02
 -1      1654-5.31750E+03-5.31745E+03-1.24072E+04-4.52951E-03-3.81934E+03 2.06189E+02
 -1      1655-5.15994E+03-4.71353E+03-1.26234E+04 1.57976E+02-4.55365E+03 1.41789E+02
 -1      1656-5.23405E+03-5.23401E+03-1.22126E+04-4.10333E-03-3.78201E+03 1.96966E+02
 -1      1657-4.88756E+03-4.56943E+03-1.23528E+04 1.36916E+02-4.47151E+03 1.47637E+02
 -1      1658-5.21668E+03-5.21664E+03-1.21720E+04-9.57742E-04-3.79132E+03 8.72981E+01
 -1      1659-4.48026E+03-4.38916E+03-1.21403E+04 1.61333E+02-4.38006E+03 1.11229E+02
 -1      1660-5.50997E+03-5.50991E+03-1.28563E+04 1.48711E-03-3.94060E+03 1.25738E+01
 -1      1661-4.40307E+03-4.18529E+03-1.16789E+04 4.38179E+02-4.17210E+03-9.49024E+00
 -1      1662-6.08438E+03-6.08431E+03-1.41965E+04-1.36611E-02-4.15144E+03 5.53322E+02
 -1      1663-7.30161E+03-5.92926E+03-1.47722E+04 5.82948E+02-5.22505E+03 1.54970E+02
 -1      1664-5.48667E+03-5.48663E+03-1.28020E+04-4.59225E-02-3.65644E+03 1.86547E+03
 -1      1665-9.80021E+03-7.94025E+03-1.93488E+04-1.02822E+03-7.45248E+03 6.82492E+02
 -1      1666-2.50443E+03-2.50445E+03-5.84368E+03-3.63065E-02-1.90131E+03 2.40496E+03
 -1      1667 7.86751E+01 6.06355E+01-1.11162E+03-1.79999E+03-3.21446E+02 7.08276E+02
 -1      1668-4.89758E+02-4.89785E+02-1.14283E+03-1.15677E-02-5.93365E+02 1.59887E+03
 -1      1669 1.77412E+03 7.70838E+02 5.17395E+02-5.23191E+02 2.74560E+02 3.35591E+02
 -1      1670 6.24895E+01 6.24792E+01 1.45784E+02-2.41804E-03-1.13034E+02 7.34047E+02
 -1      1671 7.17435E+02 2.57313E+02 1.55639E+02-6.82192E+01 8.86668E+00 6.90723E+01
 -1      1672-2.63092E+03-2.63095E+03-6.13878E+03 2.13226E-02-1.14075E+03-2.32575E+03
 -1      1673-3.47777E+03-4.87636E+03-9.47677E+03 7.43996E+02-7.32723E+02-1.10512E+03
 -1      1674-5.05757E+03-5.05759E+03-1.18008E+04 2.85132E-02-2.04405E+03-1.96636E+03
 -1      1675-1.07677E+04-1.24296E+04-2.40935E+04 7.68368E+02-2.19047E+03-8.10456E+02
 -1      1676-6.40455E+03-6.40455E+03-1.49436E+04 1.95822E-02-2.64130E+03-1.11379E+03
 -1      1677-1.28814E+04-1.43761E+04-2.77193E+04 3.66281E+02-2.61607E+03-1.76806E+02
 -1      1678-6.84433E+03-6.84432E+03-1.59697E+04 7.73263E-03-2.88295E+03-4.31953E+02
 -1      1679-1.27200E+04-1.43458E+04-2.80713E+04 1.65196E+02-2.63096E+03 1.44196E+02
 -1      1680-6.85498E+03-6.85498E+03-1.59945E+04 1.25212E-03-2.93281E+03-8.64162E+01
 -1      1681-1.22723E+04-1.39819E+04-2.76340E+04 1.17291E+02-2.59271E+03 2.30467E+02
 -1      1682-6.78409E+03-6.78409E+03-1.58291E+04-9.30302E-04-2.92198E+03 3.92857E+01
 -1      1683-1.20679E+04-1.37536E+04-2.72647E+04 1.14627E+02-2.56170E+03 2.34469E+02
 -1      1684-6.73846E+03-6.73846E+03-1.57227E+04-1.45384E-03-2.90651E+03 7.82916E+01
 -1      1685-1.20594E+04-1.36768E+04-2.71105E+04 1.19920E+02-2.54929E+03 2.24573E+02
 -1      1686-6.72206E+03-6.72206E+03-1.56844E+04-1.60777E-03-2.89861E+03 9.44739E+01
 -1      1687-1.21069E+04-1.36601E+04-2.70606E+04 1.23917E+02-2.54554E+03 2.18672E+02
 -1      1688-6.71963E+03-6.71963E+03-1.56787E+04-1.73594E-03-2.89631E+03 1.06225E+02
 -1      1689-1.21505E+04-1.36614E+04-2.70543E+04 1.26354E+02-2.54535E+03 2.17090E+02
 -1      1690-6.72136E+03-6.72136E+03-1.56828E+04-1.87105E-03-2.89636E+03 1.16424E+02
 -1      1691-1.21770E+04-1.36646E+04-2.70584E+04 1.27602E+02-2.54606E+03 2.17350E+02
 -1      1692-6.72364E+03-6.72364E+03-1.56881E+04-2.00837E-03-2.89692E+03 1.25722E+02
 -1      1693-1.21920E+04-1.36681E+04-2.70650E+04 1.28011E+02-2.54695E+03 2.18187E+02
 -1      1694-6.72495E+03-6.72495E+03-1.56911E+04-2.18489E-03-2.89673E+03 1.36604E+02
 -1      1695-1.22038E+04-1.36728E+04-2.70718E+04 1.27587E+02-2.54789E+03 2.19754E+02
 -1      1696-6.72122E+03-6.72122E+03-1.56825E+04-2.49510E-03-2.89366E+03 1.54331E+02
 -1      1697-1.22171E+04-1.36787E+04-2.70737E+04 1.25717E+02-2.54813E+03 2.23989E+02
 -1      1698-6.70047E+03-6.70047E+03-1.56340E+04-3.03992E-03-2.88336E+03 1.84634E+02
 -1      1699-1.22103E+04-1.36669E+04-2.70307E+04 1.20131E+02-2.54559E+03 2.34615E+02
 -1      1700-6.64113E+03-6.64114E+03-1.54956E+04-3.65570E-03-2.86108E+03 2.20811E+02
 -1      1701-1.21148E+04-1.35962E+04-2.68961E+04 1.06370E+02-2.53220E+03 2.55422E+02
 -1      1702-6.53875E+03-6.53876E+03-1.52567E+04-3.32112E-03-2.83328E+03 2.12275E+02
 -1      1703-1.17221E+04-1.32999E+04-2.63994E+04 8.73288E+01-2.49754E+03 2.70496E+02
 -1      1704-6.50947E+03-6.50947E+03-1.51884E+04-4.96748E-04-2.83990E+03 7.62979E+01
 -1      1705-1.11147E+04-1.29132E+04-2.59337E+04 1.11981E+02-2.42722E+03 2.12390E+02
 -1      1706-6.86366E+03-6.86366E+03-1.60148E+04 2.22324E-03-2.95146E+03-5.16541E+01
 -1      1707-1.08195E+04-1.25678E+04-2.50897E+04 3.41058E+02-2.38086E+03-8.24806E+01
 -1      1708-7.61019E+03-7.61017E+03-1.77566E+04-1.02202E-02-3.11683E+03 5.38962E+02
 -1      1709-1.54399E+04-1.61280E+04-3.04610E+04 4.62436E+02-2.92205E+03-2.51019E+01
 -1      1710-6.90899E+03-6.90900E+03-1.61206E+04-3.89130E-02-2.75709E+03 2.09730E+03
 -1      1711-2.17741E+04-2.19968E+04-4.29252E+04-8.19275E+02-4.38188E+03 1.54958E+03
 -1      1712-3.11086E+03-3.11092E+03-7.25869E+03-3.05447E-02-1.42180E+03 2.73491E+03
 -1      1713-5.61062E+02-1.24591E+03-2.25637E+03-1.44002E+03-3.49944E+02 1.85202E+03
 -1      1714-5.91175E+02-5.91209E+02-1.37947E+03-9.37159E-03-4.38519E+02 1.74973E+03
 -1      1715 2.47638E+03 1.22750E+03 9.24534E+02-4.20591E+02 2.16353E+02 6.07845E+02
 -1      1716 6.45341E+01 6.45224E+01 1.50552E+02-2.00112E-03-8.23781E+01 7.43665E+02
 -1      1717 8.48414E+02 3.60514E+02 1.49875E+02-3.95475E+01 1.01311E+01 7.18769E+01
 -1      1718-2.98859E+03-2.98864E+03-6.97336E+03 1.22303E-02-6.08988E+02-2.51662E+03
 -1      1719-3.10559E+03-4.82239E+03-8.62128E+03 3.56498E+02 8.55266E+01-1.07787E+03
 -1      1720-5.77083E+03-5.77088E+03-1.34650E+04 1.64154E-02-1.09844E+03-2.11365E+03
 -1      1721-1.07565E+04-1.29305E+04-2.33954E+04 3.75232E+02-9.53503E+01-8.40524E+02
 -1      1722-7.31347E+03-7.31351E+03-1.70643E+04 1.11353E-02-1.41958E+03-1.17600E+03
 -1      1723-1.31104E+04-1.52481E+04-2.72111E+04 1.70648E+02-1.93143E+02-2.22232E+02
 -1      1724-7.80967E+03-7.80971E+03-1.82220E+04 4.24543E-03-1.54881E+03-4.37356E+02
 -1      1725-1.29198E+04-1.52655E+04-2.76245E+04 6.30374E+01-1.97452E+02 1.34575E+02
 -1      1726-7.81992E+03-7.81997E+03-1.82459E+04 5.73053E-04-1.57523E+03-7.43456E+01
 -1      1727-1.24315E+04-1.48789E+04-2.72059E+04 3.87380E+01-1.94058E+02 2.34914E+02
 -1      1728-7.73914E+03-7.73918E+03-1.80575E+04-6.07667E-04-1.56921E+03 5.10176E+01
 -1      1729-1.22136E+04-1.46386E+04-2.68504E+04 3.76343E+01-1.92356E+02 2.41807E+02
 -1      1730-7.68701E+03-7.68705E+03-1.79358E+04-8.60827E-04-1.56079E+03 8.67419E+01
 -1      1731-1.22004E+04-1.45572E+04-2.66998E+04 4.02695E+01-1.91993E+02 2.32534E+02
 -1      1732-7.66777E+03-7.66781E+03-1.78909E+04-9.23783E-04-1.55645E+03 1.00823E+02
 -1      1733-1.22467E+04-1.45395E+04-2.66495E+04 4.22301E+01-1.91894E+02 2.26352E+02
 -1      1734-7.66441E+03-7.66445E+03-1.78831E+04-9.83522E-04-1.55516E+03 1.11650E+02
 -1      1735-1.22904E+04-1.45408E+04-2.66427E+04 4.34228E+01-1.92023E+02 2.24512E+02
 -1      1736-7.66597E+03-7.66602E+03-1.78868E+04-1.05257E-03-1.55515E+03 1.21498E+02
 -1      1737-1.23171E+04-1.45441E+04-2.66462E+04 4.40443E+01-1.92148E+02 2.24639E+02
 -1      1738-7.66833E+03-7.66838E+03-1.78922E+04-1.12505E-03-1.55543E+03 1.30650E+02
 -1      1739-1.23324E+04-1.45477E+04-2.66524E+04 4.42472E+01-1.92268E+02 2.25444E+02
 -1      1740-7.66970E+03-7.66974E+03-1.78954E+04-1.22062E-03-1.55533E+03 1.41565E+02
 -1      1741-1.23449E+04-1.45527E+04-2.66589E+04 4.40284E+01-1.92364E+02 2.27122E+02
 -1      1742-7.66550E+03-7.66554E+03-1.78856E+04-1.39327E-03-1.55370E+03 1.59855E+02
 -1      1743-1.23587E+04-1.45585E+04-2.66591E+04 4.31268E+01-1.92377E+02 2.31558E+02
 -1      1744-7.64244E+03-7.64249E+03-1.78319E+04-1.70362E-03-1.54822E+03 1.92004E+02
 -1      1745-1.23544E+04-1.45471E+04-2.66189E+04 4.02108E+01-1.92420E+02 2.42884E+02
 -1      1746-7.57632E+03-7.57636E+03-1.76776E+04-2.06414E-03-1.53634E+03 2.31655E+02
 -1      1747-1.22542E+04-1.44646E+04-2.64747E+04 3.36748E+01-1.90431E+02 2.62412E+02
 -1      1748-7.46055E+03-7.46060E+03-1.74075E+04-1.87759E-03-1.52147E+03 2.23186E+02
 -1      1749-1.18722E+04-1.41691E+04-2.60312E+04 2.29491E+01-1.93534E+02 2.78865E+02
 -1      1750-7.42275E+03-7.42279E+03-1.73193E+04-1.81437E-04-1.52489E+03 6.76077E+01
 -1      1751-1.11668E+04-1.36955E+04-2.54752E+04 4.08518E+01-1.68888E+02 1.91907E+02
 -1      1752-7.82042E+03-7.82046E+03-1.82471E+04 1.61521E-03-1.58473E+03-9.75589E+01
 -1      1753-1.10208E+04-1.35914E+04-2.49716E+04 1.63518E+02-2.11846E+02-1.06330E+02
 -1      1754-8.69040E+03-8.69043E+03-2.02769E+04-5.49094E-03-1.67606E+03 5.32369E+02
 -1      1755-1.59934E+04-1.74367E+04-3.01814E+04 1.98756E+02-3.08558E+02 5.60460E+01
 -1      1756-7.91922E+03-7.91927E+03-1.84777E+04-2.26332E-02-1.48667E+03 2.27089E+03
 -1      1757-2.27458E+04-2.35855E+04-4.32246E+04-4.30704E+02-5.51088E+02 1.51561E+03
 -1      1758-3.54150E+03-3.54157E+03-8.26350E+03-1.76458E-02-7.63003E+02 2.98116E+03
 -1      1759-9.55187E+02-2.13390E+03-2.94506E+03-7.27371E+02-1.69984E+02 1.84869E+03
 -1      1760-6.62250E+02-6.62289E+02-1.54532E+03-5.24846E-03-2.33583E+02 1.86660E+03
 -1      1761 2.89260E+03 1.45487E+03 1.13751E+03-2.37510E+02 9.85150E+01 7.37589E+02
 -1      1762 6.67402E+01 6.67274E+01 1.55698E+02-1.12082E-03-4.35248E+01 7.55564E+02
 -1      1763 9.53652E+02 4.53518E+02 1.70086E+02-1.76761E+01 1.23720E+01 8.68870E+01
 -1      1764-3.11635E+03-3.11640E+03-7.27145E+03 6.08631E-11-3.91941E-06-2.58644E+03
 -1      1765-2.96319E+03-4.68175E+03-8.39958E+03 1.88507E-05-1.11469E-05-1.06182E+03
 -1      1766-6.02658E+03-6.02663E+03-1.40617E+04 4.77385E-11-5.15892E-06-2.16776E+03
 -1      1767-1.07388E+04-1.28543E+04-2.33709E+04 1.21834E-05 2.93103E-06-8.44310E+02
 -1      1768-7.63975E+03-7.63980E+03-1.78256E+04 1.84637E-11-4.55005E-06-1.19922E+03
 -1      1769-1.31726E+04-1.52655E+04-2.72709E+04 2.73172E-06-2.67022E-06-2.34806E+02
 -1      1770-8.15632E+03-8.15638E+03-1.90308E+04 1.16536E-11-4.41399E-06-4.39725E+02
 -1      1771-1.29774E+04-1.53042E+04-2.77117E+04 2.39186E-06-2.67159E-06 1.30738E+02
 -1      1772-8.16648E+03-8.16654E+03-1.90545E+04 1.07695E-11-5.00165E-06-7.01167E+01
 -1      1773-1.24752E+04-1.49140E+04-2.72960E+04 1.44948E-06 4.83987E-07 2.35918E+02
 -1      1774-8.08217E+03-8.08223E+03-1.88578E+04 1.10975E-11-5.62888E-06 5.52453E+01
 -1      1775-1.22521E+04-1.46721E+04-2.69400E+04 1.61104E-06-5.17027E-06 2.43859E+02
 -1      1776-8.02773E+03-8.02779E+03-1.87308E+04 1.32593E-11-6.53412E-06 8.98125E+01
 -1      1777-1.22375E+04-1.45909E+04-2.67897E+04 2.64108E-06-3.80595E-06 2.34800E+02
 -1      1778-8.00748E+03-8.00754E+03-1.86835E+04 1.37754E-11-7.62721E-06 1.03136E+02
 -1      1779-1.22834E+04-1.45732E+04-2.67389E+04 2.76517E-06-7.71793E-06 2.28613E+02
 -1      1780-8.00380E+03-8.00386E+03-1.86750E+04 1.21419E-11-8.65011E-06 1.13628E+02
 -1      1781-1.23271E+04-1.45746E+04-2.67319E+04 2.67627E-06-1.19906E-06 2.26710E+02
 -1      1782-8.00531E+03-8.00537E+03-1.86785E+04 9.62958E-12-9.56216E-06 1.23348E+02
 -1      1783-1.23540E+04-1.45780E+04-2.67353E+04 2.71572E-06-7.45559E-06 2.26799E+02
 -1      1784-8.00770E+03-8.00776E+03-1.86841E+04 6.99971E-12-1.03560E-05 1.32451E+02
 -1      1785-1.23695E+04-1.45816E+04-2.67416E+04 2.42243E-06-6.60987E-06 2.27603E+02
 -1      1786-8.00909E+03-8.00915E+03-1.86873E+04 4.16027E-12-1.10615E-05 1.43386E+02
 -1      1787-1.23821E+04-1.45866E+04-2.67479E+04 2.26344E-06-5.48370E-06 2.29290E+02
 -1      1788-8.00472E+03-8.00478E+03-1.86771E+04 1.63692E-12-1.16206E-05 1.61891E+02
 -1      1789-1.23965E+04-1.45927E+04-2.67484E+04 2.22743E-06-9.06034E-06 2.33856E+02
 -1      1790-7.98084E+03-7.98090E+03-1.86214E+04-1.88180E-12-1.22274E-05 1.94723E+02
 -1      1791-1.23918E+04-1.45806E+04-2.67062E+04 2.42300E-06-6.04077E-06 2.45072E+02
 -1      1792-7.91227E+03-7.91233E+03-1.84614E+04-6.96777E-12-1.27073E-05 2.35625E+02
 -1      1793-1.22934E+04-1.44988E+04-2.65649E+04 2.27578E-06-6.85635E-06 2.64776E+02
 -1      1794-7.79171E+03-7.79177E+03-1.81801E+04-7.60072E-12-1.29997E-05 2.27113E+02
 -1      1795-1.19067E+04-1.41997E+04-2.61171E+04 2.34329E-06-3.75414E-06 2.80051E+02
 -1      1796-7.75084E+03-7.75090E+03-1.80848E+04 6.78498E-12-1.32442E-05 6.43633E+01
 -1      1797-1.11817E+04-1.37160E+04-2.55589E+04 3.31577E-06-9.24823E-06 1.85937E+02
 -1      1798-8.16423E+03-8.16429E+03-1.90493E+04 2.32162E-11-1.40953E-05-1.14076E+02
 -1      1799-1.10686E+04-1.36865E+04-2.50998E+04 6.02873E-06-3.95324E-06-1.13274E+02
 -1      1800-9.07895E+03-9.07900E+03-2.11834E+04-5.46183E-11-1.58658E-05 5.30494E+02
 -1      1801-1.61880E+04-1.76088E+04-3.03941E+04 4.00263E-06-1.08624E-05 7.75896E+01
 -1      1802-8.28327E+03-8.28333E+03-1.93271E+04-2.49551E-10-1.45142E-05 2.33449E+03
 -1      1803-2.30690E+04-2.37630E+04-4.37022E+04-9.92977E-06-2.78183E-06 1.50432E+03
 -1      1804-3.69670E+03-3.69678E+03-8.62564E+03-1.89654E-10-6.48383E-06 3.07133E+03
 -1      1805-1.05009E+03-2.37741E+03-3.08677E+03-1.58385E-05-1.49722E-06 1.83626E+03
 -1      1806-6.87683E+02-6.87724E+02-1.60467E+03-6.12146E-11-1.37024E-06 1.91000E+03
 -1      1807 3.01033E+03 1.50123E+03 1.17875E+03-7.34952E-06 1.56226E-06 7.69659E+02
 -1      1808 6.76616E+01 6.76485E+01 1.57847E+02-1.89417E-11-3.30742E-07 7.60580E+02
 -1      1809 9.96983E+02 4.93279E+02 1.85426E+02-1.20459E-06 4.48694E-07 9.42151E+01
 -1      1810-2.98859E+03-2.98864E+03-6.97336E+03-1.22303E-02 6.08988E+02-2.51662E+03
 -1      1811-3.10559E+03-4.82239E+03-8.62128E+03-3.56498E+02-8.55267E+01-1.07787E+03
 -1      1812-5.77083E+03-5.77088E+03-1.34650E+04-1.64154E-02 1.09844E+03-2.11365E+03
 -1      1813-1.07565E+04-1.29305E+04-2.33954E+04-3.75232E+02 9.53503E+01-8.40524E+02
 -1      1814-7.31347E+03-7.31351E+03-1.70643E+04-1.11353E-02 1.41958E+03-1.17600E+03
 -1      1815-1.31104E+04-1.52481E+04-2.72111E+04-1.70648E+02 1.93143E+02-2.22232E+02
 -1      1816-7.80967E+03-7.80971E+03-1.82220E+04-4.24543E-03 1.54881E+03-4.37356E+02
 -1      1817-1.29198E+04-1.52655E+04-2.76245E+04-6.30374E+01 1.97452E+02 1.34575E+02
 -1      1818-7.81992E+03-7.81997E+03-1.82459E+04-5.73053E-04 1.57523E+03-7.43456E+01
 -1      1819-1.24315E+04-1.48789E+04-2.72059E+04-3.87380E+01 1.94058E+02 2.34914E+02
 -1      1820-7.73914E+03-7.73918E+03-1.80575E+04 6.07667E-04 1.56921E+03 5.10176E+01
 -1      1821-1.22136E+04-1.46386E+04-2.68504E+04-3.76343E+01 1.92356E+02 2.41807E+02
 -1      1822-7.68701E+03-7.68705E+03-1.79358E+04 8.60827E-04 1.56079E+03 8.67419E+01
 -1      1823-1.22004E+04-1.45572E+04-2.66998E+04-4.02695E+01 1.91993E+02 2.32534E+02
 -1      1824-7.66777E+03-7.66781E+03-1.78909E+04 9.23783E-04 1.55645E+03 1.00823E+02
 -1      1825-1.22467E+04-1.45395E+04-2.66495E+04-4.22300E+01 1.91894E+02 2.26352E+02
 -1      1826-7.66441E+03-7.66445E+03-1.78831E+04 9.83522E-04 1.55516E+03 1.11650E+02
 -1      1827-1.22904E+04-1.45408E+04-2.66427E+04-4.34228E+01 1.92023E+02 2.24512E+02
 -1      1828-7.66597E+03-7.66602E+03-1.78868E+04 1.05257E-03 1.55515E+03 1.21498E+02
 -1      1829-1.23171E+04-1.45441E+04-2.66462E+04-4.40443E+01 1.92148E+02 2.24639E+02
 -1      1830-7.66833E+03-7.66838E+03-1.78922E+04 1.12505E-03 1.55543E+03 1.30650E+02
 -1      1831-1.23324E+04-1.45477E+04-2.66524E+04-4.42472E+01 1.92268E+02 2.25444E+02
 -1      1832-7.66970E+03-7.66974E+03-1.78954E+04 1.22062E-03 1.55533E+03 1.41565E+02
 -1      1833-1.23449E+04-1.45527E+04-2.66589E+04-4.40283E+01 1.92364E+02 2.27122E+02
 -1      1834-7.66550E+03-7.66554E+03-1.78856E+04 1.39327E-03 1.55370E+03 1.59855E+02
 -1      1835-1.23587E+04-1.45585E+04-2.66591E+04-4.31268E+01 1.92377E+02 2.31558E+02
 -1      1836-7.64244E+03-7.64249E+03-1.78319E+04 1.70362E-03 1.54822E+03 1.92004E+02
 -1      1837-1.23544E+04-1.45471E+04-2.66189E+04-4.02108E+01 1.92420E+02 2.42884E+02
 -1      1838-7.57632E+03-7.57636E+03-1.76776E+04 2.06414E-03 1.53634E+03 2.31655E+02
 -1      1839-1.22542E+04-1.44646E+04-2.64747E+04-3.36748E+01 1.90431E+02 2.62412E+02
 -1      1840-7.46055E+03-7.46060E+03-1.74075E+04 1.87759E-03 1.52147E+03 2.23186E+02
 -1      1841-1.18722E+04-1.41691E+04-2.60312E+04-2.29491E+01 1.93534E+02 2.78865E+02
 -1      1842-7.42275E+03-7.42279E+03-1.73193E+04 1.81437E-04 1.52489E+03 6.76077E+01
 -1      1843-1.11668E+04-1.36955E+04-2.54752E+04-4.08517E+01 1.68888E+02 1.91907E+02
 -1      1844-7.82042E+03-7.82046E+03-1.82471E+04-1.61521E-03 1.58473E+03-9.75589E+01
 -1      1845-1.10208E+04-1.35914E+04-2.49716E+04-1.63518E+02 2.11846E+02-1.06330E+02
 -1      1846-8.69040E+03-8.69043E+03-2.02769E+04 5.49094E-03 1.67606E+03 5.32369E+02
 -1      1847-1.59934E+04-1.74367E+04-3.01814E+04-1.98756E+02 3.08558E+02 5.60460E+01
 -1      1848-7.91922E+03-7.91927E+03-1.84777E+04 2.26332E-02 1.48667E+03 2.27089E+03
 -1      1849-2.27458E+04-2.35855E+04-4.32246E+04 4.30704E+02 5.51088E+02 1.51561E+03
 -1      1850-3.54150E+03-3.54157E+03-8.26350E+03 1.76458E-02 7.63003E+02 2.98116E+03
 -1      1851-9.55187E+02-2.13390E+03-2.94506E+03 7.27371E+02 1.69984E+02 1.84869E+03
 -1      1852-6.62250E+02-6.62289E+02-1.54532E+03 5.24846E-03 2.33583E+02 1.86660E+03
 -1      1853 2.89260E+03 1.45487E+03 1.13751E+03 2.37510E+02-9.85150E+01 7.37589E+02
 -1      1854 6.67402E+01 6.67274E+01 1.55698E+02 1.12082E-03 4.35248E+01 7.55564E+02
 -1      1855 9.53652E+02 4.53518E+02 1.70086E+02 1.76761E+01-1.23720E+01 8.68870E+01
 -1      1856-2.63092E+03-2.63095E+03-6.13878E+03-2.13226E-02 1.14075E+03-2.32575E+03
 -1      1857-3.47777E+03-4.87636E+03-9.47677E+03-7.43996E+02 7.32723E+02-1.10512E+03
 -1      1858-5.05757E+03-5.05759E+03-1.18008E+04-2.85132E-02 2.04405E+03-1.96636E+03
 -1      1859-1.07677E+04-1.24296E+04-2.40935E+04-7.68368E+02 2.19047E+03-8.10456E+02
 -1      1860-6.40455E+03-6.40455E+03-1.49436E+04-1.95822E-02 2.64130E+03-1.11379E+03
 -1      1861-1.28814E+04-1.43761E+04-2.77193E+04-3.66281E+02 2.61607E+03-1.76806E+02
 -1      1862-6.84433E+03-6.84432E+03-1.59697E+04-7.73263E-03 2.88295E+03-4.31953E+02
 -1      1863-1.27200E+04-1.43458E+04-2.80713E+04-1.65196E+02 2.63096E+03 1.44196E+02
 -1      1864-6.85498E+03-6.85498E+03-1.59945E+04-1.25212E-03 2.93281E+03-8.64162E+01
 -1      1865-1.22723E+04-1.39819E+04-2.76340E+04-1.17291E+02 2.59271E+03 2.30467E+02
 -1      1866-6.78409E+03-6.78409E+03-1.58291E+04 9.30302E-04 2.92198E+03 3.92857E+01
 -1      1867-1.20679E+04-1.37536E+04-2.72647E+04-1.14627E+02 2.56170E+03 2.34469E+02
 -1      1868-6.73846E+03-6.73846E+03-1.57227E+04 1.45384E-03 2.90651E+03 7.82916E+01
 -1      1869-1.20594E+04-1.36768E+04-2.71105E+04-1.19920E+02 2.54929E+03 2.24573E+02
 -1      1870-6.72206E+03-6.72206E+03-1.56844E+04 1.60777E-03 2.89861E+03 9.44739E+01
 -1      1871-1.21069E+04-1.36601E+04-2.70606E+04-1.23917E+02 2.54554E+03 2.18672E+02
 -1      1872-6.71963E+03-6.71963E+03-1.56787E+04 1.73594E-03 2.89631E+03 1.06225E+02
 -1      1873-1.21505E+04-1.36614E+04-2.70543E+04-1.26354E+02 2.54535E+03 2.17090E+02
 -1      1874-6.72136E+03-6.72136E+03-1.56828E+04 1.87105E-03 2.89636E+03 1.16424E+02
 -1      1875-1.21770E+04-1.36646E+04-2.70584E+04-1.27602E+02 2.54606E+03 2.17350E+02
 -1      1876-6.72364E+03-6.72364E+03-1.56881E+04 2.00837E-03 2.89692E+03 1.25722E+02
 -1      1877-1.21920E+04-1.36681E+04-2.70650E+04-1.28011E+02 2.54695E+03 2.18187E+02
 -1      1878-6.72495E+03-6.72495E+03-1.56911E+04 2.18489E-03 2.89673E+03 1.36604E+02
 -1      1879-1.22038E+04-1.36728E+04-2.70718E+04-1.27587E+02 2.54789E+03 2.19754E+02
 -1      1880-6.72122E+03-6.72122E+03-1.56825E+04 2.49510E-03 2.89366E+03 1.54331E+02
 -1      1881-1.22171E+04-1.36787E+04-2.70737E+04-1.25717E+02 2.54813E+03 2.23989E+02
 -1      1882-6.70047E+03-6.70047E+03-1.56340E+04 3.03992E-03 2.88336E+03 1.84634E+02
 -1      1883-1.22103E+04-1.36669E+04-2.70307E+04-1.20131E+02 2.54559E+03 2.34615E+02
 -1      1884-6.64113E+03-6.64114E+03-1.54956E+04 3.65570E-03 2.86108E+03 2.20811E+02
 -1      1885-1.21148E+04-1.35962E+04-2.68961E+04-1.06370E+02 2.53220E+03 2.55422E+02
 -1      1886-6.53875E+03-6.53876E+03-1.52567E+04 3.32112E-03 2.83328E+03 2.12275E+02
 -1      1887-1.17221E+04-1.32999E+04-2.63994E+04-8.73288E+01 2.49754E+03 2.70496E+02
 -1      1888-6.50947E+03-6.50947E+03-1.51884E+04 4.96748E-04 2.83990E+03 7.62979E+01
 -1      1889-1.11147E+04-1.29132E+04-2.59337E+04-1.11981E+02 2.42722E+03 2.12390E+02
 -1      1890-6.86366E+03-6.86366E+03-1.60148E+04-2.22324E-03 2.95146E+03-5.16541E+01
 -1      1891-1.08195E+04-1.25678E+04-2.50897E+04-3.41058E+02 2.38086E+03-8.24806E+01
 -1      1892-7.61019E+03-7.61017E+03-1.77566E+04 1.02202E-02 3.11683E+03 5.38962E+02
 -1      1893-1.54399E+04-1.61280E+04-3.04610E+04-4.62436E+02 2.92205E+03-2.51019E+01
 -1      1894-6.90899E+03-6.90900E+03-1.61206E+04 3.89130E-02 2.75709E+03 2.09730E+03
 -1      1895-2.17741E+04-2.19968E+04-4.29252E+04 8.19275E+02 4.38188E+03 1.54958E+03
 -1      1896-3.11086E+03-3.11092E+03-7.25869E+03 3.05447E-02 1.42180E+03 2.73491E+03
 -1      1897-5.61062E+02-1.24591E+03-2.25637E+03 1.44002E+03 3.49944E+02 1.85202E+03
 -1      1898-5.91175E+02-5.91209E+02-1.37947E+03 9.37159E-03 4.38519E+02 1.74973E+03
 -1      1899 2.47638E+03 1.22750E+03 9.24534E+02 4.20591E+02-2.16353E+02 6.07845E+02
 -1      1900 6.45341E+01 6.45224E+01 1.50552E+02 2.00112E-03 8.23781E+01 7.43665E+02
 -1      1901 8.48414E+02 3.60514E+02 1.49875E+02 3.95475E+01-1.01311E+01 7.18769E+01
 -1      1902-2.11917E+03-2.11919E+03-4.94473E+03-2.55537E-02 1.53709E+03-2.06881E+03
 -1      1903-1.33623E+03-1.86529E+03-4.77993E+03-9.67935E+02 1.57893E+03-4.69947E+02
 -1      1904-4.04450E+03-4.04449E+03-9.43704E+03-3.41444E-02 2.72364E+03-1.77065E+03
 -1      1905-4.57010E+03-4.63745E+03-1.14394E+04-9.87733E+02 4.09181E+03-3.38399E+02
 -1      1906-5.11613E+03-5.11609E+03-1.19374E+04-2.40050E-02 3.51980E+03-1.03488E+03
 -1      1907-5.56169E+03-5.20353E+03-1.30915E+04-4.90018E+02 4.72744E+03-9.03068E+01
 -1      1908-5.47675E+03-5.47670E+03-1.27788E+04-1.00327E-02 3.84472E+03-4.28570E+02
 -1      1909-5.40956E+03-5.08504E+03-1.32685E+04-2.39924E+02 4.74953E+03 6.27599E+01
 -1      1910-5.48838E+03-5.48833E+03-1.28059E+04-2.03702E-03 3.91301E+03-1.04522E+02
 -1      1911-5.12150E+03-4.87140E+03-1.30169E+04-1.74533E+02 4.67130E+03 1.15119E+02
 -1      1912-5.43181E+03-5.43176E+03-1.26740E+04 8.56325E-04 3.89964E+03 2.27795E+01
 -1      1913-5.02722E+03-4.76053E+03-1.28167E+04-1.68639E+02 4.60980E+03 1.22485E+02
 -1      1914-5.39561E+03-5.39556E+03-1.25895E+04 1.65756E-03 3.87963E+03 6.66147E+01
 -1      1915-5.06314E+03-4.73131E+03-1.27363E+04-1.74893E+02 4.58565E+03 1.20741E+02
 -1      1916-5.38338E+03-5.38333E+03-1.25610E+04 1.93360E-03 3.86951E+03 8.57296E+01
 -1      1917-5.12360E+03-4.72862E+03-1.27113E+04-1.80195E+02 4.57799E+03 1.19637E+02
 -1      1918-5.38234E+03-5.38229E+03-1.25585E+04 2.13725E-03 3.86674E+03 9.87443E+01
 -1      1919-5.16827E+03-4.73126E+03-1.27085E+04-1.83568E+02 4.57710E+03 1.19995E+02
 -1      1920-5.38435E+03-5.38430E+03-1.25632E+04 2.33056E-03 3.86699E+03 1.09441E+02
 -1      1921-5.19267E+03-4.73271E+03-1.27099E+04-1.85299E+02 4.57781E+03 1.20880E+02
 -1      1922-5.38655E+03-5.38650E+03-1.25684E+04 2.51895E-03 3.86782E+03 1.18974E+02
 -1      1923-5.20482E+03-4.73360E+03-1.27121E+04-1.85849E+02 4.57890E+03 1.21828E+02
 -1      1924-5.38780E+03-5.38775E+03-1.25713E+04 2.75273E-03 3.86758E+03 1.29877E+02
 -1      1925-5.21337E+03-4.73547E+03-1.27144E+04-1.85246E+02 4.58006E+03 1.23041E+02
 -1      1926-5.38474E+03-5.38469E+03-1.25641E+04 3.14676E-03 3.86340E+03 1.46943E+02
 -1      1927-5.22423E+03-4.73995E+03-1.27153E+04-1.82644E+02 4.58048E+03 1.25622E+02
 -1      1928-5.36725E+03-5.36720E+03-1.25233E+04 3.81278E-03 3.84943E+03 1.74835E+02
 -1      1929-5.22355E+03-4.73863E+03-1.26920E+04-1.75649E+02 4.57443E+03 1.31391E+02
 -1      1930-5.31750E+03-5.31745E+03-1.24072E+04 4.52951E-03 3.81934E+03 2.06189E+02
 -1      1931-5.15994E+03-4.71353E+03-1.26234E+04-1.57976E+02 4.55365E+03 1.41789E+02
 -1      1932-5.23405E+03-5.23401E+03-1.22126E+04 4.10333E-03 3.78201E+03 1.96966E+02
 -1      1933-4.88756E+03-4.56943E+03-1.23528E+04-1.36916E+02 4.47151E+03 1.47637E+02
 -1      1934-5.21668E+03-5.21664E+03-1.21720E+04 9.57742E-04 3.79132E+03 8.72981E+01
 -1      1935-4.48026E+03-4.38916E+03-1.21403E+04-1.61333E+02 4.38006E+03 1.11229E+02
 -1      1936-5.50997E+03-5.50991E+03-1.28563E+04-1.48711E-03 3.94060E+03 1.25738E+01
 -1      1937-4.40307E+03-4.18529E+03-1.16789E+04-4.38179E+02 4.17210E+03-9.49024E+00
 -1      1938-6.08438E+03-6.08431E+03-1.41965E+04 1.36611E-02 4.15144E+03 5.53322E+02
 -1      1939-7.30161E+03-5.92926E+03-1.47722E+04-5.82948E+02 5.22505E+03 1.54970E+02
 -1      1940-5.48667E+03-5.48663E+03-1.28020E+04 4.59225E-02 3.65644E+03 1.86547E+03
 -1      1941-9.80021E+03-7.94025E+03-1.93488E+04 1.02822E+03 7.45248E+03 6.82492E+02
 -1      1942-2.50443E+03-2.50445E+03-5.84368E+03 3.63065E-02 1.90131E+03 2.40496E+03
 -1      1943 7.86751E+01 6.06354E+01-1.11162E+03 1.79999E+03 3.21446E+02 7.08276E+02
 -1      1944-4.89758E+02-4.89785E+02-1.14283E+03 1.15677E-02 5.93365E+02 1.59887E+03
 -1      1945 1.77412E+03 7.70838E+02 5.17395E+02 5.23191E+02-2.74560E+02 3.35591E+02
 -1      1946 6.24895E+01 6.24792E+01 1.45784E+02 2.41804E-03 1.13034E+02 7.34047E+02
 -1      1947 7.17435E+02 2.57313E+02 1.55639E+02 6.82192E+01-8.86668E+00 6.90723E+01
 -1      1948-1.58833E+03-1.58833E+03-3.70610E+03-2.52628E-02 1.77789E+03-1.83411E+03
 -1      1949 7.95508E+02 9.77537E+02 6.54157E+01-8.64905E+02 7.72168E+02 1.29940E+02
 -1      1950-2.99931E+03-2.99928E+03-6.99833E+03-3.42424E-02 3.10244E+03-1.59956E+03
 -1      1951 1.25401E+03 2.37700E+03 7.10956E+02-8.73439E+02 1.92262E+03 8.47786E+01
 -1      1952-3.79048E+03-3.79041E+03-8.84431E+03-2.49996E-02 4.01134E+03-9.76213E+02
 -1      1953 1.20395E+03 2.86491E+03 7.16978E+02-4.31675E+02 2.20433E+03-1.83062E+01
 -1      1954-4.07289E+03-4.07280E+03-9.50324E+03-1.12145E-02 4.38648E+03-4.35408E+02
 -1      1955 1.34911E+03 3.04162E+03 7.55907E+02-1.90768E+02 2.18587E+03-1.55026E+01
 -1      1956-4.08758E+03-4.08749E+03-9.53754E+03-2.81045E-03 4.46819E+03-1.25851E+02
 -1      1957 1.44918E+03 3.08376E+03 7.84528E+02-1.19713E+02 2.13514E+03 1.62534E+00
 -1      1958-4.04691E+03-4.04682E+03-9.44264E+03 4.97957E-04 4.45532E+03 5.62333E+00
 -1      1959 1.42078E+03 3.07635E+03 8.01433E+02-1.09347E+02 2.10192E+03 1.35334E+01
 -1      1960-4.02102E+03-4.02093E+03-9.38223E+03 1.54575E-03 4.43385E+03 5.48937E+01
 -1      1961 1.33735E+03 3.06121E+03 8.04407E+02-1.14100E+02 2.09045E+03 2.04264E+01
 -1      1962-4.01345E+03-4.01336E+03-9.36457E+03 1.94885E-03 4.42320E+03 7.69102E+01
 -1      1963 1.26241E+03 3.05044E+03 8.00760E+02-1.19478E+02 2.08718E+03 2.41504E+01
 -1      1964-4.01408E+03-4.01400E+03-9.36605E+03 2.22248E-03 4.42064E+03 9.11315E+01
 -1      1965 1.21589E+03 3.04584E+03 7.97459E+02-1.23146E+02 2.08688E+03 2.64993E+01
 -1      1966-4.01655E+03-4.01646E+03-9.37180E+03 2.46071E-03 4.42130E+03 1.02339E+02
 -1      1967 1.19227E+03 3.04464E+03 7.95473E+02-1.25065E+02 2.08710E+03 2.80307E+01
 -1      1968-4.01874E+03-4.01866E+03-9.37692E+03 2.68396E-03 4.42242E+03 1.12185E+02
 -1      1969 1.18161E+03 3.04461E+03 7.94356E+02-1.25642E+02 2.08742E+03 2.91261E+01
 -1      1970-4.01995E+03-4.01986E+03-9.37974E+03 2.95128E-03 4.42218E+03 1.23272E+02
 -1      1971 1.17506E+03 3.04391E+03 7.92878E+02-1.24907E+02 2.08784E+03 3.00648E+01
 -1      1972-4.01754E+03-4.01745E+03-9.37411E+03 3.38117E-03 4.41726E+03 1.39995E+02
 -1      1973 1.16638E+03 3.04052E+03 7.91146E+02-1.22154E+02 2.08822E+03 3.10266E+01
 -1      1974-4.00325E+03-4.00317E+03-9.34078E+03 4.07305E-03 4.40086E+03 1.65901E+02
 -1      1975 1.15944E+03 3.03134E+03 7.89259E+02-1.15506E+02 2.08605E+03 3.22251E+01
 -1      1976-3.96320E+03-3.96311E+03-9.24732E+03 4.76754E-03 4.36590E+03 1.92544E+02
 -1      1977 1.19402E+03 3.01964E+03 7.99176E+02-1.00895E+02 2.07688E+03 3.12416E+01
 -1      1978-3.89920E+03-3.89912E+03-9.09800E+03 4.30119E-03 4.32302E+03 1.81435E+02
 -1      1979 1.32688E+03 2.99965E+03 8.01020E+02-8.59349E+01 2.03449E+03 2.83183E+01
 -1      1980-3.89418E+03-3.89409E+03-9.08628E+03 1.43641E-03 4.33421E+03 9.53697E+01
 -1      1981 1.55628E+03 3.00157E+03 8.14149E+02-1.14459E+02 1.97890E+03 7.71575E+00
 -1      1982-4.12520E+03-4.12510E+03-9.62530E+03 4.78763E-05 4.50486E+03 7.62145E+01
 -1      1983 1.31566E+03 2.90374E+03 6.29989E+02-3.54228E+02 1.83965E+03 7.58776E+01
 -1      1984-4.52234E+03-4.52223E+03-1.05519E+04 1.57114E-02 4.73102E+03 5.80740E+02
 -1      1985 4.64020E+02 3.20410E+03 5.51110E+02-3.70416E+02 2.49972E+03 2.65036E+02
 -1      1986-4.03293E+03-4.03286E+03-9.41003E+03 4.55026E-02 4.14410E+03 1.66148E+03
 -1      1987 7.89999E+02 3.98961E+03 1.64593E+03 9.98560E+02 3.42767E+03-1.61217E+02
 -1      1988-1.88932E+03-1.88933E+03-4.40844E+03 3.58375E-02 2.18060E+03 2.11058E+03
 -1      1989 4.16223E+02 7.82173E+02-3.47606E+02 1.58780E+03 7.37355E+01-3.00190E+02
 -1      1990-3.89557E+02-3.89578E+02-9.09016E+02 1.15455E-02 6.91457E+02 1.47848E+03
 -1      1991 1.06958E+03 3.13224E+02 2.06396E+02 5.47082E+02-2.23703E+02 9.37196E+01
 -1      1992 6.05170E+01 6.05075E+01 1.41183E+02 2.19834E-03 1.34506E+02 7.41033E+02
 -1      1993 5.48508E+02 1.49031E+02 1.43864E+02 9.59648E+01-1.80765E+01 6.11612E+01
 -1      1994-1.22024E+03-1.22024E+03-2.84723E+03-2.25662E-02 1.91824E+03-1.74056E+03
 -1      1995 5.96577E+02 7.30149E+02 6.44895E+01-5.49985E+02-5.97266E+01 1.13062E+02
 -1      1996-2.26513E+03-2.26509E+03-5.28526E+03-3.23291E-02 3.29045E+03-1.55626E+03
 -1      1997 1.00996E+03 1.69362E+03 3.25261E+02-5.59586E+02-1.53672E+02 8.34128E+01
 -1      1998-2.86543E+03-2.86535E+03-6.68592E+03-2.48486E-02 4.25515E+03-9.91089E+02
 -1      1999 1.06561E+03 2.07692E+03 4.00714E+02-2.78315E+02-1.82577E+02 1.99515E+01
 -1      2000-3.10299E+03-3.10289E+03-7.24021E+03-1.19304E-02 4.66116E+03-4.62924E+02
 -1      2001 1.10640E+03 2.15930E+03 4.24504E+02-1.01218E+02-2.23701E+02-6.07978E+00
 -1      2002-3.12643E+03-3.12633E+03-7.29491E+03-3.49628E-03 4.75631E+03-1.47183E+02
 -1      2003 1.12463E+03 2.16467E+03 4.56834E+02-4.31844E+01-2.34000E+02-3.07174E+00
 -1      2004-3.10017E+03-3.10007E+03-7.23363E+03 8.27973E-05 4.74752E+03-7.00254E+00
 -1      2005 1.05956E+03 2.15421E+03 4.74991E+02-3.23245E+01-2.34598E+02 4.81665E+00
 -1      2006-3.08305E+03-3.08295E+03-7.19369E+03 1.32690E-03 4.72748E+03 4.68249E+01
 -1      2007 9.64875E+02 2.14389E+03 4.77742E+02-3.50082E+01-2.33024E+02 1.10977E+01
 -1      2008-3.07960E+03-3.07950E+03-7.18564E+03 1.83630E-03 4.71786E+03 7.05181E+01
 -1      2009 8.89236E+02 2.13716E+03 4.74337E+02-3.91777E+01-2.31823E+02 1.53886E+01
 -1      2010-3.08195E+03-3.08186E+03-7.19114E+03 2.16636E-03 4.71625E+03 8.53359E+01
 -1      2011 8.43904E+02 2.13408E+03 4.71031E+02-4.21134E+01-2.31336E+02 1.82220E+01
 -1      2012-3.08508E+03-3.08499E+03-7.19843E+03 2.43883E-03 4.71762E+03 9.68962E+01
 -1      2013 8.21314E+02 2.13313E+03 4.69201E+02-4.36588E+01-2.31180E+02 2.00545E+01
 -1      2014-3.08746E+03-3.08736E+03-7.20397E+03 2.68750E-03 4.71915E+03 1.07115E+02
 -1      2015 8.11552E+02 2.13298E+03 4.68193E+02-4.41152E+01-2.31148E+02 2.12491E+01
 -1      2016-3.08865E+03-3.08856E+03-7.20676E+03 2.97758E-03 4.71894E+03 1.18698E+02
 -1      2017 8.06635E+02 2.13256E+03 4.66949E+02-4.34997E+01-2.31028E+02 2.20882E+01
 -1      2018-3.08649E+03-3.08640E+03-7.20172E+03 3.42639E-03 4.71340E+03 1.35971E+02
 -1      2019 8.00742E+02 2.13078E+03 4.65037E+02-4.13678E+01-2.30619E+02 2.27754E+01
 -1      2020-3.07403E+03-3.07393E+03-7.17264E+03 4.11601E-03 4.69521E+03 1.61742E+02
 -1      2021 7.97775E+02 2.12669E+03 4.64655E+02-3.65458E+01-2.29061E+02 2.33010E+01
 -1      2022-3.04026E+03-3.04017E+03-7.09386E+03 4.75959E-03 4.65705E+03 1.85853E+02
 -1      2023 8.29763E+02 2.11964E+03 4.72275E+02-2.81957E+01-2.27481E+02 2.29197E+01
 -1      2024-2.98999E+03-2.98990E+03-6.97655E+03 4.28178E-03 4.61142E+03 1.71171E+02
 -1      2025 9.52013E+02 2.10155E+03 4.86747E+02-2.20859E+01-2.24589E+02 2.03617E+01
 -1      2026-2.99456E+03-2.99447E+03-6.98722E+03 1.81062E-03 4.62434E+03 9.35905E+01
 -1      2027 1.10764E+03 2.06007E+03 4.76757E+02-5.16806E+01-2.40346E+02 2.37435E+01
 -1      2028-3.18064E+03-3.18054E+03-7.42139E+03 1.39955E-03 4.80335E+03 1.10418E+02
 -1      2029 9.44568E+02 2.00315E+03 3.72847E+02-1.93169E+02-2.61759E+02 7.75805E+01
 -1      2030-3.44306E+03-3.44294E+03-8.03367E+03 1.69103E-02 5.02204E+03 6.25943E+02
 -1      2031 5.81352E+02 2.42321E+03 3.85545E+02-1.05599E+02-1.73441E+02 9.93035E+01
 -1      2032-3.02058E+03-3.02050E+03-7.04794E+03 4.31751E-02 4.37281E+03 1.60930E+03
 -1      2033 6.26159E+02 2.73389E+03 6.12487E+02 6.95090E+02-1.93320E+02-1.32921E+02
 -1      2034-1.48090E+03-1.48090E+03-3.45545E+03 3.26684E-02 2.33709E+03 2.02376E+03
 -1      2035 3.90231E+02 6.26652E+02 7.53712E+01 1.00497E+03-9.67888E+01-2.18215E+02
 -1      2036-3.38908E+02-3.38930E+02-7.90832E+02 9.53578E-03 7.60186E+02 1.47787E+03
 -1      2037 5.72156E+02 5.42955E+01 1.15166E+02 4.29015E+02-1.15633E+02-2.80264E+01
 -1      2038 5.43328E+01 5.43220E+01 1.26753E+02 1.30413E-03 1.52365E+02 7.82098E+02
 -1      2039 3.57254E+02 5.96390E+01 1.17635E+02 9.14927E+01-1.58519E+01 2.85582E+01
 -1      2040-6.64076E+02-3.60795E+02-2.66534E+03-2.66586E+02-1.44486E+03-1.59041E+03
 -1      2041-1.35881E+03-8.64308E+02-4.74759E+03-2.73553E+02-2.54600E+03-1.44879E+03
 -1      2042-1.66371E+03-1.08670E+03-6.03816E+03-1.39282E+02-3.28713E+03-9.13063E+02
 -1      2043-1.93753E+03-1.15670E+03-6.52060E+03-3.63273E+01-3.57657E+03-4.22099E+02
 -1      2044-2.12823E+03-1.17127E+03-6.58127E+03 4.85111E+00-3.63454E+03-1.31860E+02
 -1      2045-2.22903E+03-1.17166E+03-6.53854E+03 1.19907E+01-3.62154E+03-4.15386E+00
 -1      2046-2.27112E+03-1.17161E+03-6.51063E+03 9.14517E+00-3.60421E+03 4.59028E+01
 -1      2047-2.28685E+03-1.17196E+03-6.50635E+03 5.94792E+00-3.59610E+03 6.90535E+01
 -1      2048-2.29398E+03-1.17256E+03-6.51202E+03 4.22164E+00-3.59438E+03 8.39654E+01
 -1      2049-2.29812E+03-1.17310E+03-6.51861E+03 3.53363E+00-3.59507E+03 9.54813E+01
 -1      2050-2.29963E+03-1.17341E+03-6.52337E+03 3.38744E+00-3.59605E+03 1.05392E+02
 -1      2051-2.29713E+03-1.17324E+03-6.52539E+03 3.78640E+00-3.59597E+03 1.16293E+02
 -1      2052-2.28920E+03-1.17222E+03-6.52047E+03 5.32052E+00-3.59222E+03 1.32389E+02
 -1      2053-2.27791E+03-1.16947E+03-6.49547E+03 8.78370E+00-3.57935E+03 1.56913E+02
 -1      2054-2.27329E+03-1.16237E+03-6.42875E+03 1.30701E+01-3.55092E+03 1.81699E+02
 -1      2055-2.28069E+03-1.14538E+03-6.32354E+03 9.35631E+00-3.51315E+03 1.71991E+02
 -1      2056-2.25676E+03-1.12427E+03-6.31039E+03-2.06358E+01-3.51409E+03 9.76915E+01
 -1      2057-2.11428E+03-1.15112E+03-6.66530E+03-6.20572E+01-3.65171E+03 9.51234E+01
 -1      2058-1.90979E+03-1.28752E+03-7.24337E+03 2.50591E+01-3.88085E+03 5.62982E+02
 -1      2059-1.68140E+03-1.21937E+03-6.40428E+03 3.17986E+02-3.43575E+03 1.50630E+03
 -1      2060-1.14081E+03-5.15237E+02-3.09761E+03 4.36108E+02-1.74142E+03 1.90077E+03
 -1      2061-7.84155E+02-1.14112E+02-7.06240E+02 2.37418E+02-5.14543E+02 1.36556E+03
 -1      2062-3.97642E+02-2.82298E+01 2.83306E+01 5.69464E+01-9.58057E+01 7.00530E+02
 -1      2063-1.07320E+03-9.28497E+02-3.67335E+03-4.65366E+02-1.78489E+03-1.73452E+03
 -1      2064-2.23066E+03-1.94981E+03-6.72480E+03-4.79436E+02-3.19580E+03-1.53855E+03
 -1      2065-2.78298E+03-2.43567E+03-8.52233E+03-2.35900E+02-4.11951E+03-9.22197E+02
 -1      2066-3.16431E+03-2.63129E+03-9.14450E+03-5.89625E+01-4.47595E+03-3.99001E+02
 -1      2067-3.36999E+03-2.67368E+03-9.19647E+03 9.85830E+00-4.54304E+03-1.09394E+02
 -1      2068-3.46031E+03-2.67265E+03-9.12258E+03 2.06139E+01-4.52413E+03 1.05862E+01
 -1      2069-3.49159E+03-2.66747E+03-9.07389E+03 1.52473E+01-4.50124E+03 5.56196E+01
 -1      2070-3.50203E+03-2.66572E+03-9.05982E+03 9.80705E+00-4.49035E+03 7.66133E+01
 -1      2071-3.50751E+03-2.66644E+03-9.06175E+03 7.02107E+00-4.48769E+03 9.06495E+01
 -1      2072-3.51144E+03-2.66780E+03-9.06719E+03 5.97433E+00-4.48824E+03 1.01694E+02
 -1      2073-3.51317E+03-2.66879E+03-9.07179E+03 5.78006E+00-4.48932E+03 1.11204E+02
 -1      2074-3.51076E+03-2.66864E+03-9.07384E+03 6.44809E+00-4.48920E+03 1.21669E+02
 -1      2075-3.50165E+03-2.66582E+03-9.06768E+03 9.03742E+00-4.48471E+03 1.37449E+02
 -1      2076-3.48540E+03-2.65711E+03-9.03658E+03 1.51042E+01-4.46914E+03 1.62614E+02
 -1      2077-3.47042E+03-2.63786E+03-8.95242E+03 2.31406E+01-4.43425E+03 1.90668E+02
 -1      2078-3.46807E+03-2.60623E+03-8.81340E+03 1.81782E+01-4.38648E+03 1.84898E+02
 -1      2079-3.45509E+03-2.58697E+03-8.77781E+03-3.34571E+01-4.38560E+03 9.84004E+01
 -1      2080-3.35725E+03-2.65625E+03-9.23545E+03-1.15064E+02-4.55785E+03 4.77540E+01
 -1      2081-3.22139E+03-2.87919E+03-1.01484E+04 2.38129E+01-4.86456E+03 5.14179E+02
 -1      2082-2.88287E+03-2.67643E+03-9.14272E+03 5.53159E+02-4.33840E+03 1.62184E+03
 -1      2083-1.70300E+03-1.20622E+03-4.20609E+03 7.66049E+02-2.15992E+03 2.07683E+03
 -1      2084-9.59860E+02-3.36526E+02-8.84769E+02 4.01516E+02-6.22143E+02 1.40463E+03
 -1      2085-4.25380E+02-6.80920E+01 2.79728E+01 9.27635E+01-1.10666E+02 6.69492E+02
 -1      2086-1.43859E+03-1.08154E+03-4.92746E+03-5.09219E+02-1.60642E+03-2.01614E+03
 -1      2087-2.98837E+03-2.27460E+03-9.17995E+03-5.13864E+02-2.93099E+03-1.75823E+03
 -1      2088-3.75867E+03-2.83595E+03-1.16313E+04-2.55640E+02-3.77523E+03-1.00160E+03
 -1      2089-4.23970E+03-3.04624E+03-1.24297E+04-6.38083E+01-4.09408E+03-3.95411E+02
 -1      2090-4.47511E+03-3.09012E+03-1.24786E+04 1.05649E+01-4.15016E+03-8.62554E+01
 -1      2091-4.56321E+03-3.08685E+03-1.23707E+04 2.23949E+01-4.13033E+03 2.99474E+01
 -1      2092-4.58669E+03-3.08027E+03-1.22993E+04 1.67199E+01-4.10835E+03 6.90736E+01
 -1      2093-4.59201E+03-3.07806E+03-1.22747E+04 1.09308E+01-4.09783E+03 8.67387E+01
 -1      2094-4.59537E+03-3.07888E+03-1.22730E+04 7.96580E+00-4.09501E+03 9.93552E+01
 -1      2095-4.59871E+03-3.08045E+03-1.22775E+04 6.86144E+00-4.09528E+03 1.09807E+02
 -1      2096-4.60037E+03-3.08161E+03-1.22821E+04 6.66871E+00-4.09615E+03 1.18992E+02
 -1      2097-4.59770E+03-3.08151E+03-1.22843E+04 7.40062E+00-4.09606E+03 1.29328E+02
 -1      2098-4.58705E+03-3.07837E+03-1.22764E+04 1.01920E+01-4.09215E+03 1.45652E+02
 -1      2099-4.56620E+03-3.06839E+03-1.22376E+04 1.67089E+01-4.07841E+03 1.73286E+02
 -1      2100-4.54393E+03-3.04642E+03-1.21317E+04 2.53697E+01-4.04705E+03 2.06897E+02
 -1      2101-4.53966E+03-3.01022E+03-1.19499E+04 2.00894E+01-4.00285E+03 2.04002E+02
 -1      2102-4.53914E+03-2.98331E+03-1.18805E+04-3.59716E+01-3.99970E+03 9.07967E+01
 -1      2103-4.45236E+03-3.05424E+03-1.24598E+04-1.23962E+02-4.15751E+03-3.09692E+01
 -1      2104-4.34374E+03-3.34713E+03-1.38081E+04 2.64699E+01-4.46244E+03 4.76085E+02
 -1      2105-3.92887E+03-3.15904E+03-1.26115E+04 5.92947E+02-4.01364E+03 1.89120E+03
 -1      2106-2.20479E+03-1.35711E+03-5.60705E+03 8.22690E+02-1.95896E+03 2.46575E+03
 -1      2107-1.16081E+03-3.50894E+02-1.10490E+03 4.33670E+02-5.44092E+02 1.56062E+03
 -1      2108-4.95214E+02-7.42578E+01 2.18025E+01 1.03153E+02-9.11506E+01 6.68154E+02
 -1      2109-1.76121E+03-1.15058E+03-6.09585E+03-4.20875E+02-1.21482E+03-2.31228E+03
 -1      2110-3.64974E+03-2.42848E+03-1.14877E+04-4.21603E+02-2.24631E+03-1.99641E+03
 -1      2111-4.61058E+03-3.02176E+03-1.45629E+04-2.10387E+02-2.89357E+03-1.09728E+03
 -1      2112-5.18241E+03-3.22887E+03-1.55295E+04-5.29797E+01-3.13431E+03-4.00602E+02
 -1      2113-5.44954E+03-3.26873E+03-1.55767E+04 8.58387E+00-3.17498E+03-6.62148E+01
 -1      2114-5.53949E+03-3.26386E+03-1.54386E+04 1.85018E+01-3.15877E+03 4.84855E+01
 -1      2115-5.55727E+03-3.25670E+03-1.53468E+04 1.39593E+01-3.14152E+03 8.23094E+01
 -1      2116-5.55824E+03-3.25438E+03-1.53130E+04 9.24784E+00-3.13323E+03 9.66940E+01
 -1      2117-5.55961E+03-3.25523E+03-1.53081E+04 6.82668E+00-3.13092E+03 1.07886E+02
 -1      2118-5.56232E+03-3.25686E+03-1.53119E+04 5.92619E+00-3.13102E+03 1.17787E+02
 -1      2119-5.56383E+03-3.25806E+03-1.53168E+04 5.77548E+00-3.13164E+03 1.26731E+02
 -1      2120-5.56081E+03-3.25799E+03-1.53190E+04 6.38628E+00-3.13158E+03 1.37086E+02
 -1      2121-5.54861E+03-3.25481E+03-1.53095E+04 8.68297E+00-3.12868E+03 1.54229E+02
 -1      2122-5.52369E+03-3.24453E+03-1.52634E+04 1.40136E+01-3.11839E+03 1.84679E+02
 -1      2123-5.49586E+03-3.22196E+03-1.51371E+04 2.10800E+01-3.09467E+03 2.23891E+02
 -1      2124-5.49222E+03-3.18341E+03-1.49148E+04 1.66395E+01-3.06074E+03 2.22822E+02
 -1      2125-5.50215E+03-3.14764E+03-1.48112E+04-2.95457E+01-3.05721E+03 8.07832E+01
 -1      2126-5.41549E+03-3.21374E+03-1.55058E+04-1.01228E+02-3.17828E+03-1.09562E+02
 -1      2127-5.31993E+03-3.56077E+03-1.72760E+04 2.19188E+01-3.42474E+03 4.48497E+02
 -1      2128-4.84709E+03-3.40923E+03-1.59193E+04 4.85232E+02-3.10001E+03 2.18007E+03
 -1      2129-2.65088E+03-1.39671E+03-6.93745E+03 6.74547E+02-1.49407E+03 2.88044E+03
 -1      2130-1.35423E+03-3.30695E+02-1.30714E+03 3.57106E+02-4.04414E+02 1.74097E+03
 -1      2131-5.73197E+02-7.63452E+01 1.75098E+01 8.64949E+01-6.50262E+01 6.80113E+02
 -1      2132-1.98229E+03-1.18436E+03-6.90886E+03-2.36002E+02-6.52790E+02-2.52854E+03
 -1      2133-4.10198E+03-2.50474E+03-1.31048E+04-2.35807E+02-1.21654E+03-2.17211E+03
 -1      2134-5.19396E+03-3.11132E+03-1.66228E+04-1.17784E+02-1.56779E+03-1.17032E+03
 -1      2135-5.82974E+03-3.31387E+03-1.77094E+04-2.98282E+01-1.69730E+03-4.06831E+02
 -1      2136-6.12053E+03-3.35036E+03-1.77564E+04 4.74965E+00-1.71873E+03-5.26893E+01
 -1      2137-6.21301E+03-3.34457E+03-1.75977E+04 1.03871E+01-1.70970E+03 6.16297E+01
 -1      2138-6.22732E+03-3.33725E+03-1.74919E+04 7.88709E+00-1.70026E+03 9.18379E+01
 -1      2139-6.22538E+03-3.33492E+03-1.74518E+04 5.26885E+00-1.69570E+03 1.03894E+02
 -1      2140-6.22537E+03-3.33580E+03-1.74448E+04 3.91847E+00-1.69440E+03 1.14065E+02
 -1      2141-6.22763E+03-3.33744E+03-1.74483E+04 3.41635E+00-1.69443E+03 1.23580E+02
 -1      2142-6.22902E+03-3.33864E+03-1.74533E+04 3.33429E+00-1.69475E+03 1.32375E+02
 -1      2143-6.22573E+03-3.33857E+03-1.74555E+04 3.67932E+00-1.69472E+03 1.42788E+02
 -1      2144-6.21240E+03-3.33540E+03-1.74450E+04 4.96483E+00-1.69318E+03 1.60593E+02
 -1      2145-6.18466E+03-3.32507E+03-1.73937E+04 7.93778E+00-1.68767E+03 1.93150E+02
 -1      2146-6.15330E+03-3.30246E+03-1.72531E+04 1.18648E+01-1.67492E+03 2.36366E+02
 -1      2147-6.15074E+03-3.26263E+03-1.70024E+04 9.32601E+00-1.65657E+03 2.36217E+02
 -1      2148-6.16770E+03-3.22073E+03-1.68745E+04-1.65119E+01-1.65435E+03 7.28817E+01
 -1      2149-6.07891E+03-3.28222E+03-1.76517E+04-5.64094E+01-1.72012E+03-1.65605E+02
 -1      2150-5.98901E+03-3.66152E+03-1.97225E+04 1.21103E+01-1.85773E+03 4.31476E+02
 -1      2151-5.47904E+03-3.53810E+03-1.82621E+04 2.70784E+02-1.68802E+03 2.39156E+03
 -1      2152-2.96125E+03-1.40466E+03-7.88211E+03 3.77072E+02-8.08454E+02 3.18430E+03
 -1      2153-1.49284E+03-3.12449E+02-1.44891E+03 2.00052E+02-2.15529E+02 1.87719E+03
 -1      2154-6.31574E+02-7.77899E+01 1.53036E+01 4.88950E+01-3.38498E+01 6.92668E+02
 -1      2155-2.05977E+03-1.19358E+03-7.19673E+03-6.48717E-07-4.83449E-06-2.60703E+03
 -1      2156-4.26059E+03-2.52605E+03-1.36795E+04 6.47566E-07-5.69835E-06-2.23614E+03
 -1      2157-5.39889E+03-3.13561E+03-1.73564E+04 4.91301E-07-4.85094E-06-1.19729E+03
 -1      2158-6.05756E+03-3.33614E+03-1.84862E+04-1.43705E-07-4.76703E-06-4.09446E+02
 -1      2159-6.35703E+03-3.37139E+03-1.85331E+04-4.81278E-07-5.58254E-06-4.79313E+01
 -1      2160-6.45061E+03-3.36532E+03-1.83672E+04-6.46484E-07-6.26710E-06 6.63590E+01
 -1      2161-6.46378E+03-3.35799E+03-1.82566E+04-8.64295E-07-7.34913E-06 9.52923E+01
 -1      2162-6.46082E+03-3.35567E+03-1.82143E+04-9.47184E-07-8.69203E-06 1.06513E+02
 -1      2163-6.46032E+03-3.35656E+03-1.82065E+04-8.99177E-07-9.93620E-06 1.16315E+02
 -1      2164-6.46241E+03-3.35821E+03-1.82098E+04-8.16755E-07-1.10384E-05 1.25693E+02
 -1      2165-6.46376E+03-3.35940E+03-1.82149E+04-7.31146E-07-1.19921E-05 1.34438E+02
 -1      2166-6.46036E+03-3.35934E+03-1.82172E+04-6.32832E-07-1.28518E-05 1.44878E+02
 -1      2167-6.44663E+03-3.35618E+03-1.82062E+04-5.85507E-07-1.35047E-05 1.62932E+02
 -1      2168-6.41789E+03-3.34586E+03-1.81531E+04-5.52059E-07-1.42736E-05 1.96260E+02
 -1      2169-6.38534E+03-3.32329E+03-1.80074E+04-4.38800E-07-1.48993E-05 2.40915E+02
 -1      2170-6.38328E+03-3.28307E+03-1.77466E+04-3.56159E-07-1.52692E-05 2.41025E+02
 -1      2171-6.40275E+03-3.23906E+03-1.76101E+04-5.76542E-07-1.55415E-05 6.99157E+01
 -1      2172-6.31292E+03-3.29866E+03-1.84172E+04-1.04226E-06-1.66272E-05-1.85742E+02
 -1      2173-6.22432E+03-3.68822E+03-2.05958E+04 9.78392E-08-1.93459E-05 4.25735E+02
 -1      2174-5.70162E+03-3.57510E+03-1.91000E+04 3.99422E-06-1.81862E-05 2.46831E+03
 -1      2175-3.07151E+03-1.40398E+03-8.22115E+03 5.58034E-06-7.45635E-06 3.29470E+03
 -1      2176-1.54280E+03-3.05371E+02-1.49950E+03 3.07378E-06-1.12756E-06 1.92734E+03
 -1      2177-6.52970E+02-7.83234E+01 1.46776E+01 8.17258E-07-1.28309E-07 6.97801E+02
 -1      2178-1.98229E+03-1.18436E+03-6.90886E+03 2.36002E+02 6.52790E+02-2.52854E+03
 -1      2179-4.10198E+03-2.50474E+03-1.31048E+04 2.35807E+02 1.21654E+03-2.17211E+03
 -1      2180-5.19396E+03-3.11132E+03-1.66228E+04 1.17784E+02 1.56779E+03-1.17032E+03
 -1      2181-5.82974E+03-3.31387E+03-1.77094E+04 2.98282E+01 1.69730E+03-4.06831E+02
 -1      2182-6.12053E+03-3.35036E+03-1.77564E+04-4.74965E+00 1.71873E+03-5.26893E+01
 -1      2183-6.21301E+03-3.34457E+03-1.75977E+04-1.03871E+01 1.70970E+03 6.16297E+01
 -1      2184-6.22732E+03-3.33725E+03-1.74919E+04-7.88709E+00 1.70026E+03 9.18379E+01
 -1      2185-6.22538E+03-3.33492E+03-1.74518E+04-5.26885E+00 1.69570E+03 1.03894E+02
 -1      2186-6.22537E+03-3.33580E+03-1.74448E+04-3.91847E+00 1.69440E+03 1.14065E+02
 -1      2187-6.22763E+03-3.33744E+03-1.74483E+04-3.41635E+00 1.69443E+03 1.23580E+02
 -1      2188-6.22902E+03-3.33864E+03-1.74533E+04-3.33429E+00 1.69475E+03 1.32375E+02
 -1      2189-6.22573E+03-3.33857E+03-1.74555E+04-3.67932E+00 1.69472E+03 1.42788E+02
 -1      2190-6.21240E+03-3.33540E+03-1.74450E+04-4.96483E+00 1.69318E+03 1.60593E+02
 -1      2191-6.18466E+03-3.32507E+03-1.73937E+04-7.93778E+00 1.68767E+03 1.93150E+02
 -1      2192-6.15330E+03-3.30246E+03-1.72531E+04-1.18648E+01 1.67492E+03 2.36366E+02
 -1      2193-6.15074E+03-3.26263E+03-1.70024E+04-9.32601E+00 1.65657E+03 2.36217E+02
 -1      2194-6.16770E+03-3.22073E+03-1.68745E+04 1.65119E+01 1.65435E+03 7.28817E+01
 -1      2195-6.07891E+03-3.28222E+03-1.76517E+04 5.64094E+01 1.72012E+03-1.65605E+02
 -1      2196-5.98901E+03-3.66152E+03-1.97225E+04-1.21103E+01 1.85773E+03 4.31476E+02
 -1      2197-5.47904E+03-3.53810E+03-1.82621E+04-2.70784E+02 1.68802E+03 2.39156E+03
 -1      2198-2.96125E+03-1.40466E+03-7.88211E+03-3.77072E+02 8.08454E+02 3.18430E+03
 -1      2199-1.49284E+03-3.12449E+02-1.44891E+03-2.00052E+02 2.15529E+02 1.87719E+03
 -1      2200-6.31574E+02-7.77899E+01 1.53036E+01-4.88950E+01 3.38498E+01 6.92668E+02
 -1      2201-1.76121E+03-1.15058E+03-6.09585E+03 4.20875E+02 1.21482E+03-2.31228E+03
 -1      2202-3.64974E+03-2.42848E+03-1.14877E+04 4.21603E+02 2.24631E+03-1.99641E+03
 -1      2203-4.61058E+03-3.02176E+03-1.45629E+04 2.10387E+02 2.89357E+03-1.09728E+03
 -1      2204-5.18241E+03-3.22887E+03-1.55295E+04 5.29797E+01 3.13431E+03-4.00602E+02
 -1      2205-5.44954E+03-3.26873E+03-1.55767E+04-8.58387E+00 3.17498E+03-6.62148E+01
 -1      2206-5.53949E+03-3.26386E+03-1.54386E+04-1.85018E+01 3.15877E+03 4.84855E+01
 -1      2207-5.55727E+03-3.25670E+03-1.53468E+04-1.39593E+01 3.14152E+03 8.23094E+01
 -1      2208-5.55824E+03-3.25438E+03-1.53130E+04-9.24784E+00 3.13323E+03 9.66940E+01
 -1      2209-5.55961E+03-3.25523E+03-1.53081E+04-6.82669E+00 3.13092E+03 1.07886E+02
 -1      2210-5.56232E+03-3.25686E+03-1.53119E+04-5.92619E+00 3.13102E+03 1.17787E+02
 -1      2211-5.56383E+03-3.25806E+03-1.53168E+04-5.77548E+00 3.13164E+03 1.26731E+02
 -1      2212-5.56081E+03-3.25799E+03-1.53190E+04-6.38628E+00 3.13158E+03 1.37086E+02
 -1      2213-5.54861E+03-3.25481E+03-1.53095E+04-8.68297E+00 3.12868E+03 1.54229E+02
 -1      2214-5.52369E+03-3.24453E+03-1.52634E+04-1.40136E+01 3.11839E+03 1.84679E+02
 -1      2215-5.49586E+03-3.22196E+03-1.51371E+04-2.10800E+01 3.09467E+03 2.23891E+02
 -1      2216-5.49222E+03-3.18341E+03-1.49148E+04-1.66395E+01 3.06074E+03 2.22822E+02
 -1      2217-5.50215E+03-3.14764E+03-1.48112E+04 2.95457E+01 3.05721E+03 8.07832E+01
 -1      2218-5.41549E+03-3.21374E+03-1.55058E+04 1.01228E+02 3.17828E+03-1.09562E+02
 -1      2219-5.31993E+03-3.56077E+03-1.72760E+04-2.19188E+01 3.42474E+03 4.48497E+02
 -1      2220-4.84709E+03-3.40923E+03-1.59193E+04-4.85232E+02 3.10001E+03 2.18007E+03
 -1      2221-2.65088E+03-1.39671E+03-6.93745E+03-6.74547E+02 1.49407E+03 2.88044E+03
 -1      2222-1.35423E+03-3.30695E+02-1.30714E+03-3.57106E+02 4.04414E+02 1.74097E+03
 -1      2223-5.73197E+02-7.63452E+01 1.75098E+01-8.64949E+01 6.50262E+01 6.80113E+02
 -1      2224-1.43859E+03-1.08154E+03-4.92746E+03 5.09219E+02 1.60642E+03-2.01614E+03
 -1      2225-2.98837E+03-2.27460E+03-9.17995E+03 5.13864E+02 2.93099E+03-1.75823E+03
 -1      2226-3.75867E+03-2.83595E+03-1.16313E+04 2.55640E+02 3.77523E+03-1.00160E+03
 -1      2227-4.23970E+03-3.04624E+03-1.24297E+04 6.38083E+01 4.09408E+03-3.95411E+02
 -1      2228-4.47511E+03-3.09012E+03-1.24786E+04-1.05649E+01 4.15016E+03-8.62554E+01
 -1      2229-4.56321E+03-3.08685E+03-1.23707E+04-2.23949E+01 4.13033E+03 2.99474E+01
 -1      2230-4.58669E+03-3.08027E+03-1.22993E+04-1.67199E+01 4.10835E+03 6.90736E+01
 -1      2231-4.59201E+03-3.07806E+03-1.22747E+04-1.09308E+01 4.09783E+03 8.67387E+01
 -1      2232-4.59537E+03-3.07888E+03-1.22730E+04-7.96580E+00 4.09501E+03 9.93552E+01
 -1      2233-4.59871E+03-3.08045E+03-1.22775E+04-6.86144E+00 4.09528E+03 1.09807E+02
 -1      2234-4.60037E+03-3.08161E+03-1.22821E+04-6.66871E+00 4.09615E+03 1.18992E+02
 -1      2235-4.59770E+03-3.08151E+03-1.22843E+04-7.40062E+00 4.09606E+03 1.29328E+02
 -1      2236-4.58705E+03-3.07837E+03-1.22764E+04-1.01920E+01 4.09215E+03 1.45652E+02
 -1      2237-4.56620E+03-3.06839E+03-1.22376E+04-1.67089E+01 4.07841E+03 1.73286E+02
 -1      2238-4.54393E+03-3.04642E+03-1.21317E+04-2.53697E+01 4.04705E+03 2.06897E+02
 -1      2239-4.53966E+03-3.01022E+03-1.19499E+04-2.00894E+01 4.00285E+03 2.04002E+02
 -1      2240-4.53914E+03-2.98331E+03-1.18805E+04 3.59716E+01 3.99970E+03 9.07967E+01
 -1      2241-4.45236E+03-3.05424E+03-1.24598E+04 1.23962E+02 4.15751E+03-3.09692E+01
 -1      2242-4.34374E+03-3.34713E+03-1.38081E+04-2.64699E+01 4.46244E+03 4.76085E+02
 -1      2243-3.92887E+03-3.15904E+03-1.26115E+04-5.92947E+02 4.01364E+03 1.89120E+03
 -1      2244-2.20479E+03-1.35711E+03-5.60705E+03-8.22690E+02 1.95896E+03 2.46575E+03
 -1      2245-1.16081E+03-3.50894E+02-1.10490E+03-4.33670E+02 5.44092E+02 1.56062E+03
 -1      2246-4.95214E+02-7.42579E+01 2.18025E+01-1.03153E+02 9.11506E+01 6.68154E+02
 -1      2247-1.07320E+03-9.28497E+02-3.67335E+03 4.65366E+02 1.78489E+03-1.73452E+03
 -1      2248-2.23066E+03-1.94981E+03-6.72480E+03 4.79436E+02 3.19580E+03-1.53855E+03
 -1      2249-2.78298E+03-2.43567E+03-8.52233E+03 2.35900E+02 4.11951E+03-9.22197E+02
 -1      2250-3.16431E+03-2.63129E+03-9.14450E+03 5.89625E+01 4.47595E+03-3.99001E+02
 -1      2251-3.37000E+03-2.67368E+03-9.19647E+03-9.85830E+00 4.54304E+03-1.09394E+02
 -1      2252-3.46031E+03-2.67265E+03-9.12258E+03-2.06139E+01 4.52413E+03 1.05862E+01
 -1      2253-3.49159E+03-2.66747E+03-9.07389E+03-1.52473E+01 4.50124E+03 5.56196E+01
 -1      2254-3.50203E+03-2.66572E+03-9.05982E+03-9.80705E+00 4.49035E+03 7.66133E+01
 -1      2255-3.50751E+03-2.66644E+03-9.06175E+03-7.02107E+00 4.48769E+03 9.06495E+01
 -1      2256-3.51144E+03-2.66780E+03-9.06719E+03-5.97433E+00 4.48824E+03 1.01694E+02
 -1      2257-3.51317E+03-2.66879E+03-9.07179E+03-5.78006E+00 4.48932E+03 1.11204E+02
 -1      2258-3.51076E+03-2.66864E+03-9.07384E+03-6.44809E+00 4.48920E+03 1.21669E+02
 -1      2259-3.50165E+03-2.66582E+03-9.06768E+03-9.03742E+00 4.48471E+03 1.37449E+02
 -1      2260-3.48540E+03-2.65711E+03-9.03658E+03-1.51042E+01 4.46914E+03 1.62614E+02
 -1      2261-3.47042E+03-2.63786E+03-8.95242E+03-2.31406E+01 4.43425E+03 1.90668E+02
 -1      2262-3.46807E+03-2.60623E+03-8.81340E+03-1.81782E+01 4.38648E+03 1.84898E+02
 -1      2263-3.45509E+03-2.58697E+03-8.77781E+03 3.34571E+01 4.38560E+03 9.84004E+01
 -1      2264-3.35725E+03-2.65625E+03-9.23545E+03 1.15064E+02 4.55785E+03 4.77540E+01
 -1      2265-3.22139E+03-2.87919E+03-1.01484E+04-2.38129E+01 4.86456E+03 5.14179E+02
 -1      2266-2.88287E+03-2.67643E+03-9.14272E+03-5.53159E+02 4.33840E+03 1.62184E+03
 -1      2267-1.70300E+03-1.20622E+03-4.20609E+03-7.66049E+02 2.15992E+03 2.07683E+03
 -1      2268-9.59860E+02-3.36526E+02-8.84769E+02-4.01516E+02 6.22143E+02 1.40463E+03
 -1      2269-4.25380E+02-6.80920E+01 2.79728E+01-9.27635E+01 1.10666E+02 6.69492E+02
 -1      2270-6.64076E+02-3.60795E+02-2.66534E+03 2.66586E+02 1.44486E+03-1.59041E+03
 -1      2271-1.35881E+03-8.64308E+02-4.74759E+03 2.73553E+02 2.54600E+03-1.44879E+03
 -1      2272-1.66371E+03-1.08670E+03-6.03816E+03 1.39282E+02 3.28713E+03-9.13063E+02
 -1      2273-1.93753E+03-1.15670E+03-6.52060E+03 3.63273E+01 3.57657E+03-4.22099E+02
 -1      2274-2.12823E+03-1.17127E+03-6.58127E+03-4.85111E+00 3.63454E+03-1.31860E+02
 -1      2275-2.22903E+03-1.17166E+03-6.53854E+03-1.19907E+01 3.62154E+03-4.15387E+00
 -1      2276-2.27112E+03-1.17161E+03-6.51063E+03-9.14517E+00 3.60421E+03 4.59028E+01
 -1      2277-2.28685E+03-1.17196E+03-6.50635E+03-5.94792E+00 3.59610E+03 6.90535E+01
 -1      2278-2.29398E+03-1.17256E+03-6.51202E+03-4.22164E+00 3.59438E+03 8.39654E+01
 -1      2279-2.29812E+03-1.17310E+03-6.51861E+03-3.53363E+00 3.59507E+03 9.54813E+01
 -1      2280-2.29963E+03-1.17341E+03-6.52337E+03-3.38744E+00 3.59605E+03 1.05392E+02
 -1      2281-2.29713E+03-1.17324E+03-6.52539E+03-3.78640E+00 3.59597E+03 1.16293E+02
 -1      2282-2.28920E+03-1.17222E+03-6.52047E+03-5.32052E+00 3.59222E+03 1.32389E+02
 -1      2283-2.27791E+03-1.16947E+03-6.49547E+03-8.78370E+00 3.57935E+03 1.56913E+02
 -1      2284-2.27329E+03-1.16237E+03-6.42875E+03-1.30701E+01 3.55092E+03 1.81699E+02
 -1      2285-2.28069E+03-1.14538E+03-6.32354E+03-9.35631E+00 3.51315E+03 1.71991E+02
 -1      2286-2.25676E+03-1.12427E+03-6.31039E+03 2.06358E+01 3.51409E+03 9.76915E+01
 -1      2287-2.11428E+03-1.15112E+03-6.66530E+03 6.20572E+01 3.65171E+03 9.51234E+01
 -1      2288-1.90979E+03-1.28752E+03-7.24337E+03-2.50591E+01 3.88085E+03 5.62982E+02
 -1      2289-1.68140E+03-1.21937E+03-6.40428E+03-3.17986E+02 3.43575E+03 1.50630E+03
 -1      2290-1.14081E+03-5.15237E+02-3.09761E+03-4.36108E+02 1.74142E+03 1.90077E+03
 -1      2291-7.84155E+02-1.14112E+02-7.06240E+02-2.37418E+02 5.14543E+02 1.36556E+03
 -1      2292-3.97642E+02-2.82298E+01 2.83306E+01-5.69464E+01 9.58057E+01 7.00530E+02
 -1      2293-4.91581E+02-2.56319E+02-2.55705E+03-5.08994E+02-1.06070E+03-1.18450E+03
 -1      2294-8.43440E+02-6.52102E+02-4.18555E+03-5.05232E+02-1.96485E+03-1.06398E+03
 -1      2295-1.10419E+03-8.29769E+02-5.37253E+03-2.58114E+02-2.51907E+03-6.54758E+02
 -1      2296-1.38031E+03-8.57245E+02-5.73070E+03-6.82215E+01-2.70283E+03-2.92878E+02
 -1      2297-1.64381E+03-8.58772E+02-5.73023E+03 7.55708E+00-2.72580E+03-8.82557E+01
 -1      2298-1.80700E+03-8.61848E+02-5.66922E+03 2.17084E+01-2.70941E+03 2.46608E+00
 -1      2299-1.88403E+03-8.65803E+02-5.63927E+03 1.72942E+01-2.69563E+03 4.26832E+01
 -1      2300-1.91575E+03-8.68305E+02-5.63577E+03 1.18548E+01-2.68978E+03 6.49413E+01
 -1      2301-1.92980E+03-8.69521E+02-5.64150E+03 8.92621E+00-2.68857E+03 8.01081E+01
 -1      2302-1.93694E+03-8.70075E+02-5.64757E+03 7.82774E+00-2.68901E+03 9.12498E+01
 -1      2303-1.93926E+03-8.70222E+02-5.65193E+03 7.69316E+00-2.68969E+03 1.00030E+02
 -1      2304-1.93573E+03-8.70012E+02-5.65448E+03 8.55376E+00-2.68977E+03 1.08662E+02
 -1      2305-1.92571E+03-8.69579E+02-5.65217E+03 1.14929E+01-2.68763E+03 1.20612E+02
 -1      2306-1.91452E+03-8.69035E+02-5.63277E+03 1.78666E+01-2.67948E+03 1.39780E+02
 -1      2307-1.91844E+03-8.66070E+02-5.57236E+03 2.56092E+01-2.65928E+03 1.64124E+02
 -1      2308-1.93989E+03-8.49630E+02-5.46206E+03 1.99147E+01-2.62546E+03 1.70080E+02
 -1      2309-1.88894E+03-8.12161E+02-5.42077E+03-3.19331E+01-2.60753E+03 1.17694E+02
 -1      2310-1.60794E+03-8.11304E+02-5.78003E+03-1.12619E+02-2.70155E+03 7.39764E+01
 -1      2311-1.25449E+03-9.92268E+02-6.49227E+03 3.86797E+01-2.98456E+03 3.76541E+02
 -1      2312-1.14329E+03-1.04576E+03-5.82047E+03 5.95193E+02-2.76336E+03 1.11786E+03
 -1      2313-9.55898E+02-3.14438E+02-2.60230E+03 8.17138E+02-1.21395E+03 1.42108E+03
 -1      2314-8.98141E+02-7.17491E+00-3.68171E+02 4.34786E+02-2.72039E+02 9.70938E+02
 -1      2315-5.79996E+02-3.46301E+01 7.62984E+01 1.08801E+02-3.97111E+01 4.91467E+02
 -1      2316-7.94102E+02-3.63229E+02-3.80810E+03-8.06330E+02-1.52295E+03-1.38926E+03
 -1      2317-1.55090E+03-9.05121E+02-6.58703E+03-7.87297E+02-2.87916E+03-1.21288E+03
 -1      2318-2.04692E+03-1.12441E+03-8.37907E+03-3.83193E+02-3.68311E+03-6.89577E+02
 -1      2319-2.41381E+03-1.16058E+03-8.88045E+03-8.97753E+01-3.94180E+03-2.72318E+02
 -1      2320-2.69011E+03-1.16681E+03-8.86656E+03 2.01863E+01-3.96905E+03-6.31025E+01
 -1      2321-2.83990E+03-1.17057E+03-8.76988E+03 3.70610E+01-3.94254E+03 2.07950E+01
 -1      2322-2.90455E+03-1.17467E+03-8.71686E+03 2.82391E+01-3.92174E+03 5.56435E+01
 -1      2323-2.93008E+03-1.17722E+03-8.70245E+03 1.94956E+01-3.91296E+03 7.53082E+01
 -1      2324-2.94202E+03-1.17868E+03-8.70401E+03 1.50910E+01-3.91107E+03 8.93270E+01
 -1      2325-2.94870E+03-1.17949E+03-8.70879E+03 1.34968E+01-3.91163E+03 9.98785E+01
 -1      2326-2.95115E+03-1.17980E+03-8.71299E+03 1.32544E+01-3.91259E+03 1.08244E+02
 -1      2327-2.94779E+03-1.17959E+03-8.71554E+03 1.43855E+01-3.91278E+03 1.16531E+02
 -1      2328-2.93687E+03-1.17879E+03-8.71180E+03 1.86331E+01-3.90987E+03 1.28419E+02
 -1      2329-2.92119E+03-1.17719E+03-8.68560E+03 2.85234E+01-3.89840E+03 1.48734E+02
 -1      2330-2.91575E+03-1.17276E+03-8.60587E+03 4.18308E+01-3.86937E+03 1.77174E+02
 -1      2331-2.93141E+03-1.15479E+03-8.45577E+03 3.59809E+01-3.81878E+03 1.88779E+02
 -1      2332-2.89749E+03-1.11217E+03-8.37353E+03-4.50773E+01-3.78942E+03 1.23046E+02
 -1      2333-2.64381E+03-1.09024E+03-8.82128E+03-1.92607E+02-3.92781E+03 9.28558E+00
 -1      2334-2.34944E+03-1.32748E+03-1.00044E+04 1.66512E+01-4.36758E+03 3.09804E+02
 -1      2335-2.20507E+03-1.47924E+03-9.24531E+03 9.27008E+02-4.08921E+03 1.32602E+03
 -1      2336-1.38826E+03-3.77164E+02-3.84204E+03 1.28928E+03-1.74618E+03 1.72913E+03
 -1      2337-1.03922E+03-1.46489E+01-5.19310E+02 6.48891E+02-3.66006E+02 1.05181E+03
 -1      2338-6.08242E+02-5.08715E+01 7.44598E+01 1.41792E+02-4.23741E+01 4.66858E+02
 -1      2339-1.23984E+03-5.40802E+02-5.41823E+03-8.65439E+02-1.52390E+03-1.72754E+03
 -1      2340-2.46058E+03-1.24024E+03-9.74916E+03-8.31641E+02-2.94415E+03-1.48948E+03
 -1      2341-3.23833E+03-1.53613E+03-1.23526E+04-4.04333E+02-3.76300E+03-7.84183E+02
 -1      2342-3.73452E+03-1.57926E+03-1.30391E+04-9.25190E+01-4.01725E+03-2.65281E+02
 -1      2343-4.05663E+03-1.58987E+03-1.30115E+04 2.34837E+01-4.03880E+03-3.48895E+01
 -1      2344-4.20617E+03-1.59491E+03-1.28729E+04 4.07384E+01-4.00941E+03 4.44657E+01
 -1      2345-4.26106E+03-1.59944E+03-1.27933E+04 3.11789E+01-3.98754E+03 7.28334E+01
 -1      2346-4.27996E+03-1.60246E+03-1.27671E+04 2.18835E+01-3.97837E+03 8.88650E+01
 -1      2347-4.28916E+03-1.60445E+03-1.27647E+04 1.72395E+01-3.97631E+03 1.01351E+02
 -1      2348-4.29513E+03-1.60569E+03-1.27686E+04 1.55689E+01-3.97680E+03 1.11279E+02
 -1      2349-4.29754E+03-1.60625E+03-1.27730E+04 1.53109E+01-3.97776E+03 1.19332E+02
 -1      2350-4.29383E+03-1.60604E+03-1.27757E+04 1.64833E+01-3.97802E+03 1.27540E+02
 -1      2351-4.28078E+03-1.60481E+03-1.27701E+04 2.09375E+01-3.97527E+03 1.40105E+02
 -1      2352-4.25887E+03-1.60184E+03-1.27348E+04 3.13801E+01-3.96403E+03 1.63280E+02
 -1      2353-4.24409E+03-1.59515E+03-1.26294E+04 4.55984E+01-3.93492E+03 1.98276E+02
 -1      2354-4.26131E+03-1.57440E+03-1.24255E+04 3.97889E+01-3.88248E+03 2.16103E+02
 -1      2355-4.25024E+03-1.51920E+03-1.22800E+04-4.71976E+01-3.84921E+03 1.25438E+02
 -1      2356-3.98741E+03-1.47550E+03-1.28326E+04-2.06570E+02-3.99135E+03-9.10221E+01
 -1      2357-3.70731E+03-1.80318E+03-1.46796E+04 1.28622E+01-4.47058E+03 2.30194E+02
 -1      2358-3.52924E+03-2.03282E+03-1.38824E+04 9.78075E+02-4.23891E+03 1.69066E+03
 -1      2359-1.97535E+03-4.89244E+02-5.46526E+03 1.36587E+03-1.75995E+03 2.26230E+03
 -1      2360-1.30909E+03-1.39701E+01-6.87016E+02 6.86609E+02-3.39916E+02 1.23392E+03
 -1      2361-7.16868E+02-7.10863E+01 7.30802E+01 1.48040E+02-2.95142E+01 4.59352E+02
 -1      2362-1.61237E+03-5.55750E+02-6.89543E+03-7.11501E+02-1.19310E+03-2.06865E+03
 -1      2363-3.21846E+03-1.26690E+03-1.27165E+04-6.78425E+02-2.34296E+03-1.77506E+03
 -1      2364-4.23153E+03-1.55349E+03-1.60947E+04-3.29958E+02-2.99816E+03-8.87624E+02
 -1      2365-4.84122E+03-1.57102E+03-1.69517E+04-7.54107E+01-3.19626E+03-2.63724E+02
 -1      2366-5.21098E+03-1.57594E+03-1.69089E+04 1.97258E+01-3.21049E+03-9.07500E+00
 -1      2367-5.36596E+03-1.58281E+03-1.67317E+04 3.39142E+01-3.18599E+03 6.72000E+01
 -1      2368-5.41420E+03-1.58931E+03-1.66281E+04 2.61808E+01-3.16827E+03 8.95740E+01
 -1      2369-5.42759E+03-1.59355E+03-1.65915E+04 1.86192E+01-3.16083E+03 1.02114E+02
 -1      2370-5.43424E+03-1.59616E+03-1.65857E+04 1.48320E+01-3.15910E+03 1.13146E+02
 -1      2371-5.43943E+03-1.59766E+03-1.65891E+04 1.34692E+01-3.15944E+03 1.22532E+02
 -1      2372-5.44168E+03-1.59831E+03-1.65938E+04 1.32603E+01-3.16019E+03 1.30357E+02
 -1      2373-5.43748E+03-1.59812E+03-1.65967E+04 1.42200E+01-3.16043E+03 1.38595E+02
 -1      2374-5.42234E+03-1.59698E+03-1.65895E+04 1.78491E+01-3.15837E+03 1.52015E+02
 -1      2375-5.39509E+03-1.59428E+03-1.65460E+04 2.63303E+01-3.14967E+03 1.78263E+02
 -1      2376-5.37372E+03-1.58875E+03-1.64168E+04 3.78673E+01-3.12679E+03 2.19781E+02
 -1      2377-5.39646E+03-1.56876E+03-1.61617E+04 3.29813E+01-3.08490E+03 2.43133E+02
 -1      2378-5.40490E+03-1.49966E+03-1.59515E+04-3.84419E+01-3.05680E+03 1.26273E+02
 -1      2379-5.11752E+03-1.42559E+03-1.66049E+04-1.68288E+02-3.17200E+03-1.90905E+02
 -1      2380-4.83075E+03-1.81217E+03-1.91069E+04 8.61933E+00-3.57128E+03 1.53520E+02
 -1      2381-4.65319E+03-2.15296E+03-1.83403E+04 7.95351E+02-3.41841E+03 2.06047E+03
 -1      2382-2.47114E+03-3.99193E+02-6.99415E+03 1.11492E+03-1.39785E+03 2.80703E+03
 -1      2383-1.56223E+03 4.97094E+01-8.15971E+02 5.61521E+02-2.53033E+02 1.42897E+03
 -1      2384-8.34683E+02-7.64781E+01 8.05807E+01 1.21882E+02-1.65067E+01 4.58449E+02
 -1      2385-1.84544E+03-5.13080E+02-7.88168E+03-3.97501E+02-6.46869E+02-2.31071E+03
 -1      2386-3.69263E+03-1.17956E+03-1.47204E+04-3.78153E+02-1.28191E+03-1.98056E+03
 -1      2387-4.85821E+03-1.42974E+03-1.86379E+04-1.84075E+02-1.64359E+03-9.64402E+02
 -1      2388-5.54520E+03-1.42041E+03-1.96147E+04-4.22087E+01-1.75174E+03-2.64444E+02
 -1      2389-5.95027E+03-1.41931E+03-1.95624E+04 1.10578E+01-1.75904E+03 8.65081E+00
 -1      2390-6.11130E+03-1.42795E+03-1.93597E+04 1.90945E+01-1.74541E+03 8.32562E+01
 -1      2391-6.15592E+03-1.43650E+03-1.92401E+04 1.48357E+01-1.73562E+03 1.01541E+02
 -1      2392-6.16575E+03-1.44186E+03-1.91965E+04 1.06384E+01-1.73149E+03 1.11641E+02
 -1      2393-6.17065E+03-1.44496E+03-1.91886E+04 8.52771E+00-1.73052E+03 1.21656E+02
 -1      2394-6.17526E+03-1.44659E+03-1.91916E+04 7.76706E+00-1.73069E+03 1.30676E+02
 -1      2395-6.17736E+03-1.44725E+03-1.91966E+04 7.65167E+00-1.73110E+03 1.38361E+02
 -1      2396-6.17277E+03-1.44707E+03-1.91998E+04 8.19041E+00-1.73124E+03 1.46655E+02
 -1      2397-6.15614E+03-1.44613E+03-1.91915E+04 1.02132E+01-1.73014E+03 1.60740E+02
 -1      2398-6.12534E+03-1.44410E+03-1.91423E+04 1.49240E+01-1.72542E+03 1.89218E+02
 -1      2399-6.10028E+03-1.44045E+03-1.89969E+04 2.13040E+01-1.71296E+03 2.35337E+02
 -1      2400-6.12859E+03-1.42227E+03-1.87073E+04 1.84472E+01-1.69008E+03 2.62239E+02
 -1      2401-6.15066E+03-1.34403E+03-1.84529E+04-2.14741E+01-1.67444E+03 1.25819E+02
 -1      2402-5.84285E+03-1.24601E+03-1.91817E+04-9.34557E+01-1.73902E+03-2.61648E+02
 -1      2403-5.53948E+03-1.65652E+03-2.21357E+04 4.32112E+00-1.96269E+03 1.00738E+02
 -1      2404-5.36890E+03-2.08065E+03-2.14066E+04 4.41847E+02-1.88790E+03 2.32240E+03
 -1      2405-2.79798E+03-2.72314E+02-8.06253E+03 6.21183E+02-7.69730E+02 3.19628E+03
 -1      2406-1.74022E+03 1.09439E+02-9.01590E+02 3.13699E+02-1.34873E+02 1.57338E+03
 -1      2407-9.22135E+02-7.74106E+01 8.82662E+01 6.85910E+01-7.22979E+00 4.60321E+02
 -1      2408-1.92174E+03-4.88939E+02-8.21846E+03 3.40009E-07-6.70467E-06-2.39655E+03
 -1      2409-3.84785E+03-1.13030E+03-1.54081E+04 1.93360E-06-6.24070E-06-2.05404E+03
 -1      2410-5.06514E+03-1.36236E+03-1.95152E+04 1.13354E-06-4.78882E-06-9.92342E+02
 -1      2411-5.77934E+03-1.34213E+03-2.05347E+04-1.00587E-07-4.76914E-06-2.65015E+02
 -1      2412-6.19740E+03-1.33866E+03-2.04796E+04-6.48162E-07-5.94005E-06 1.48904E+01
 -1      2413-6.36101E+03-1.34805E+03-2.02682E+04-9.00975E-07-6.50023E-06 8.89890E+01
 -1      2414-6.40454E+03-1.35744E+03-2.01432E+04-1.27698E-06-7.72327E-06 1.05846E+02
 -1      2415-6.41315E+03-1.36325E+03-2.00972E+04-1.40027E-06-9.32146E-06 1.15083E+02
 -1      2416-6.41743E+03-1.36653E+03-2.00886E+04-1.30987E-06-1.07357E-05 1.24736E+02
 -1      2417-6.42184E+03-1.36821E+03-2.00915E+04-1.17502E-06-1.19777E-05 1.33627E+02
 -1      2418-6.42387E+03-1.36886E+03-2.00966E+04-1.04436E-06-1.30088E-05 1.41266E+02
 -1      2419-6.41913E+03-1.36868E+03-2.00998E+04-8.85280E-07-1.39734E-05 1.49584E+02
 -1      2420-6.40196E+03-1.36783E+03-2.00911E+04-8.17889E-07-1.46106E-05 1.63915E+02
 -1      2421-6.36994E+03-1.36610E+03-2.00400E+04-7.84204E-07-1.55316E-05 1.93191E+02
 -1      2422-6.34375E+03-1.36330E+03-1.98890E+04-5.92090E-07-1.63175E-05 2.40940E+02
 -1      2423-6.37439E+03-1.34596E+03-1.95876E+04-4.07308E-07-1.66973E-05 2.69031E+02
 -1      2424-6.40147E+03-1.26470E+03-1.93181E+04-6.87506E-07-1.68620E-05 1.25353E+02
 -1      2425-6.08608E+03-1.15775E+03-2.00751E+04-1.58980E-06-1.80625E-05-2.86756E+02
 -1      2426-5.77377E+03-1.57315E+03-2.31856E+04-9.99930E-08-2.25583E-05 8.24739E+01
 -1      2427-5.60617E+03-2.02732E+03-2.24711E+04 6.25211E-06-2.24833E-05 2.41504E+03
 -1      2428-2.91018E+03-2.16572E+02-8.44022E+03 8.78346E-06-7.40867E-06 3.33476E+03
 -1      2429-1.80398E+03 1.32628E+02-9.32147E+02 4.49715E-06 8.57007E-08 1.62600E+03
 -1      2430-9.54095E+02-7.73861E+01 9.13504E+01 1.11241E-06 3.76596E-07 4.61501E+02
 -1      2431-1.84544E+03-5.13080E+02-7.88168E+03 3.97501E+02 6.46869E+02-2.31071E+03
 -1      2432-3.69263E+03-1.17956E+03-1.47204E+04 3.78153E+02 1.28191E+03-1.98056E+03
 -1      2433-4.85821E+03-1.42974E+03-1.86379E+04 1.84075E+02 1.64359E+03-9.64402E+02
 -1      2434-5.54520E+03-1.42041E+03-1.96147E+04 4.22087E+01 1.75174E+03-2.64444E+02
 -1      2435-5.95027E+03-1.41931E+03-1.95624E+04-1.10578E+01 1.75904E+03 8.65081E+00
 -1      2436-6.11130E+03-1.42795E+03-1.93597E+04-1.90945E+01 1.74541E+03 8.32562E+01
 -1      2437-6.15592E+03-1.43650E+03-1.92401E+04-1.48357E+01 1.73562E+03 1.01541E+02
 -1      2438-6.16575E+03-1.44186E+03-1.91965E+04-1.06384E+01 1.73149E+03 1.11641E+02
 -1      2439-6.17065E+03-1.44496E+03-1.91886E+04-8.52771E+00 1.73052E+03 1.21656E+02
 -1      2440-6.17526E+03-1.44659E+03-1.91916E+04-7.76706E+00 1.73069E+03 1.30676E+02
 -1      2441-6.17736E+03-1.44725E+03-1.91966E+04-7.65167E+00 1.73110E+03 1.38361E+02
 -1      2442-6.17277E+03-1.44707E+03-1.91998E+04-8.19041E+00 1.73124E+03 1.46655E+02
 -1      2443-6.15614E+03-1.44613E+03-1.91915E+04-1.02132E+01 1.73014E+03 1.60740E+02
 -1      2444-6.12534E+03-1.44410E+03-1.91423E+04-1.49240E+01 1.72542E+03 1.89218E+02
 -1      2445-6.10028E+03-1.44045E+03-1.89969E+04-2.13040E+01 1.71296E+03 2.35337E+02
 -1      2446-6.12859E+03-1.42227E+03-1.87073E+04-1.84472E+01 1.69008E+03 2.62239E+02
 -1      2447-6.15066E+03-1.34403E+03-1.84529E+04 2.14741E+01 1.67444E+03 1.25819E+02
 -1      2448-5.84285E+03-1.24601E+03-1.91817E+04 9.34557E+01 1.73902E+03-2.61648E+02
 -1      2449-5.53948E+03-1.65652E+03-2.21357E+04-4.32112E+00 1.96269E+03 1.00738E+02
 -1      2450-5.36890E+03-2.08065E+03-2.14066E+04-4.41847E+02 1.88790E+03 2.32240E+03
 -1      2451-2.79798E+03-2.72314E+02-8.06253E+03-6.21183E+02 7.69730E+02 3.19628E+03
 -1      2452-1.74022E+03 1.09439E+02-9.01590E+02-3.13699E+02 1.34873E+02 1.57338E+03
 -1      2453-9.22135E+02-7.74106E+01 8.82662E+01-6.85910E+01 7.22979E+00 4.60321E+02
 -1      2454-1.61237E+03-5.55750E+02-6.89543E+03 7.11501E+02 1.19310E+03-2.06865E+03
 -1      2455-3.21846E+03-1.26690E+03-1.27165E+04 6.78425E+02 2.34296E+03-1.77506E+03
 -1      2456-4.23153E+03-1.55349E+03-1.60947E+04 3.29958E+02 2.99816E+03-8.87624E+02
 -1      2457-4.84122E+03-1.57102E+03-1.69517E+04 7.54107E+01 3.19626E+03-2.63724E+02
 -1      2458-5.21098E+03-1.57594E+03-1.69089E+04-1.97258E+01 3.21049E+03-9.07500E+00
 -1      2459-5.36596E+03-1.58281E+03-1.67317E+04-3.39142E+01 3.18599E+03 6.72000E+01
 -1      2460-5.41420E+03-1.58931E+03-1.66281E+04-2.61808E+01 3.16827E+03 8.95740E+01
 -1      2461-5.42759E+03-1.59355E+03-1.65915E+04-1.86192E+01 3.16083E+03 1.02114E+02
 -1      2462-5.43424E+03-1.59616E+03-1.65857E+04-1.48320E+01 3.15910E+03 1.13146E+02
 -1      2463-5.43943E+03-1.59766E+03-1.65891E+04-1.34692E+01 3.15944E+03 1.22532E+02
 -1      2464-5.44168E+03-1.59831E+03-1.65938E+04-1.32603E+01 3.16019E+03 1.30357E+02
 -1      2465-5.43748E+03-1.59812E+03-1.65967E+04-1.42200E+01 3.16043E+03 1.38595E+02
 -1      2466-5.42234E+03-1.59698E+03-1.65895E+04-1.78491E+01 3.15837E+03 1.52015E+02
 -1      2467-5.39509E+03-1.59428E+03-1.65460E+04-2.63303E+01 3.14967E+03 1.78263E+02
 -1      2468-5.37372E+03-1.58875E+03-1.64168E+04-3.78673E+01 3.12679E+03 2.19781E+02
 -1      2469-5.39646E+03-1.56876E+03-1.61617E+04-3.29813E+01 3.08490E+03 2.43133E+02
 -1      2470-5.40490E+03-1.49966E+03-1.59515E+04 3.84419E+01 3.05680E+03 1.26273E+02
 -1      2471-5.11752E+03-1.42559E+03-1.66049E+04 1.68288E+02 3.17200E+03-1.90905E+02
 -1      2472-4.83075E+03-1.81217E+03-1.91069E+04-8.61933E+00 3.57128E+03 1.53520E+02
 -1      2473-4.65319E+03-2.15296E+03-1.83403E+04-7.95351E+02 3.41841E+03 2.06047E+03
 -1      2474-2.47114E+03-3.99193E+02-6.99415E+03-1.11492E+03 1.39785E+03 2.80703E+03
 -1      2475-1.56223E+03 4.97094E+01-8.15971E+02-5.61521E+02 2.53033E+02 1.42897E+03
 -1      2476-8.34683E+02-7.64781E+01 8.05807E+01-1.21882E+02 1.65067E+01 4.58449E+02
 -1      2477-1.23984E+03-5.40802E+02-5.41823E+03 8.65439E+02 1.52390E+03-1.72754E+03
 -1      2478-2.46058E+03-1.24024E+03-9.74916E+03 8.31641E+02 2.94415E+03-1.48948E+03
 -1      2479-3.23833E+03-1.53613E+03-1.23526E+04 4.04333E+02 3.76300E+03-7.84183E+02
 -1      2480-3.73452E+03-1.57926E+03-1.30391E+04 9.25190E+01 4.01725E+03-2.65281E+02
 -1      2481-4.05663E+03-1.58987E+03-1.30115E+04-2.34837E+01 4.03880E+03-3.48895E+01
 -1      2482-4.20617E+03-1.59491E+03-1.28729E+04-4.07384E+01 4.00941E+03 4.44657E+01
 -1      2483-4.26106E+03-1.59944E+03-1.27933E+04-3.11789E+01 3.98754E+03 7.28334E+01
 -1      2484-4.27996E+03-1.60246E+03-1.27671E+04-2.18835E+01 3.97837E+03 8.88650E+01
 -1      2485-4.28916E+03-1.60445E+03-1.27647E+04-1.72395E+01 3.97631E+03 1.01351E+02
 -1      2486-4.29513E+03-1.60569E+03-1.27686E+04-1.55689E+01 3.97680E+03 1.11279E+02
 -1      2487-4.29754E+03-1.60625E+03-1.27730E+04-1.53109E+01 3.97776E+03 1.19332E+02
 -1      2488-4.29383E+03-1.60604E+03-1.27757E+04-1.64833E+01 3.97802E+03 1.27540E+02
 -1      2489-4.28078E+03-1.60481E+03-1.27701E+04-2.09375E+01 3.97527E+03 1.40105E+02
 -1      2490-4.25887E+03-1.60184E+03-1.27348E+04-3.13801E+01 3.96403E+03 1.63280E+02
 -1      2491-4.24409E+03-1.59515E+03-1.26294E+04-4.55984E+01 3.93492E+03 1.98276E+02
 -1      2492-4.26131E+03-1.57440E+03-1.24255E+04-3.97889E+01 3.88248E+03 2.16103E+02
 -1      2493-4.25024E+03-1.51920E+03-1.22800E+04 4.71976E+01 3.84921E+03 1.25438E+02
 -1      2494-3.98741E+03-1.47550E+03-1.28326E+04 2.06570E+02 3.99135E+03-9.10221E+01
 -1      2495-3.70731E+03-1.80318E+03-1.46796E+04-1.28622E+01 4.47058E+03 2.30194E+02
 -1      2496-3.52924E+03-2.03282E+03-1.38824E+04-9.78075E+02 4.23891E+03 1.69066E+03
 -1      2497-1.97535E+03-4.89244E+02-5.46526E+03-1.36587E+03 1.75995E+03 2.26230E+03
 -1      2498-1.30909E+03-1.39701E+01-6.87016E+02-6.86609E+02 3.39916E+02 1.23392E+03
 -1      2499-7.16868E+02-7.10863E+01 7.30802E+01-1.48040E+02 2.95142E+01 4.59352E+02
 -1      2500-7.94102E+02-3.63229E+02-3.80810E+03 8.06330E+02 1.52295E+03-1.38926E+03
 -1      2501-1.55090E+03-9.05121E+02-6.58703E+03 7.87297E+02 2.87916E+03-1.21288E+03
 -1      2502-2.04692E+03-1.12441E+03-8.37907E+03 3.83193E+02 3.68311E+03-6.89577E+02
 -1      2503-2.41381E+03-1.16058E+03-8.88045E+03 8.97753E+01 3.94180E+03-2.72318E+02
 -1      2504-2.69011E+03-1.16681E+03-8.86656E+03-2.01863E+01 3.96905E+03-6.31025E+01
 -1      2505-2.83990E+03-1.17057E+03-8.76988E+03-3.70610E+01 3.94254E+03 2.07950E+01
 -1      2506-2.90455E+03-1.17467E+03-8.71686E+03-2.82391E+01 3.92174E+03 5.56435E+01
 -1      2507-2.93008E+03-1.17722E+03-8.70245E+03-1.94956E+01 3.91296E+03 7.53082E+01
 -1      2508-2.94202E+03-1.17868E+03-8.70401E+03-1.50910E+01 3.91107E+03 8.93270E+01
 -1      2509-2.94870E+03-1.17949E+03-8.70880E+03-1.34968E+01 3.91163E+03 9.98785E+01
 -1      2510-2.95115E+03-1.17980E+03-8.71299E+03-1.32544E+01 3.91259E+03 1.08244E+02
 -1      2511-2.94779E+03-1.17959E+03-8.71554E+03-1.43855E+01 3.91278E+03 1.16531E+02
 -1      2512-2.93687E+03-1.17879E+03-8.71180E+03-1.86331E+01 3.90987E+03 1.28419E+02
 -1      2513-2.92119E+03-1.17719E+03-8.68560E+03-2.85234E+01 3.89840E+03 1.48734E+02
 -1      2514-2.91575E+03-1.17276E+03-8.60587E+03-4.18308E+01 3.86937E+03 1.77174E+02
 -1      2515-2.93141E+03-1.15479E+03-8.45577E+03-3.59809E+01 3.81878E+03 1.88779E+02
 -1      2516-2.89749E+03-1.11217E+03-8.37353E+03 4.50773E+01 3.78942E+03 1.23046E+02
 -1      2517-2.64381E+03-1.09024E+03-8.82128E+03 1.92607E+02 3.92781E+03 9.28558E+00
 -1      2518-2.34944E+03-1.32748E+03-1.00044E+04-1.66512E+01 4.36758E+03 3.09804E+02
 -1      2519-2.20507E+03-1.47924E+03-9.24531E+03-9.27008E+02 4.08921E+03 1.32602E+03
 -1      2520-1.38826E+03-3.77164E+02-3.84204E+03-1.28928E+03 1.74618E+03 1.72913E+03
 -1      2521-1.03922E+03-1.46489E+01-5.19310E+02-6.48891E+02 3.66006E+02 1.05181E+03
 -1      2522-6.08242E+02-5.08715E+01 7.44598E+01-1.41792E+02 4.23741E+01 4.66858E+02
 -1      2523-4.91581E+02-2.56319E+02-2.55705E+03 5.08994E+02 1.06070E+03-1.18450E+03
 -1      2524-8.43440E+02-6.52102E+02-4.18555E+03 5.05232E+02 1.96485E+03-1.06398E+03
 -1      2525-1.10419E+03-8.29769E+02-5.37253E+03 2.58114E+02 2.51907E+03-6.54758E+02
 -1      2526-1.38031E+03-8.57245E+02-5.73070E+03 6.82215E+01 2.70283E+03-2.92878E+02
 -1      2527-1.64381E+03-8.58772E+02-5.73023E+03-7.55708E+00 2.72580E+03-8.82557E+01
 -1      2528-1.80700E+03-8.61848E+02-5.66922E+03-2.17084E+01 2.70941E+03 2.46608E+00
 -1      2529-1.88403E+03-8.65803E+02-5.63927E+03-1.72942E+01 2.69563E+03 4.26832E+01
 -1      2530-1.91576E+03-8.68305E+02-5.63577E+03-1.18548E+01 2.68978E+03 6.49413E+01
 -1      2531-1.92980E+03-8.69521E+02-5.64150E+03-8.92621E+00 2.68857E+03 8.01081E+01
 -1      2532-1.93694E+03-8.70075E+02-5.64757E+03-7.82774E+00 2.68901E+03 9.12498E+01
 -1      2533-1.93926E+03-8.70222E+02-5.65193E+03-7.69316E+00 2.68969E+03 1.00030E+02
 -1      2534-1.93573E+03-8.70012E+02-5.65448E+03-8.55376E+00 2.68977E+03 1.08662E+02
 -1      2535-1.92571E+03-8.69579E+02-5.65217E+03-1.14929E+01 2.68763E+03 1.20612E+02
 -1      2536-1.91452E+03-8.69035E+02-5.63277E+03-1.78666E+01 2.67948E+03 1.39780E+02
 -1      2537-1.91844E+03-8.66070E+02-5.57236E+03-2.56092E+01 2.65928E+03 1.64124E+02
 -1      2538-1.93989E+03-8.49630E+02-5.46206E+03-1.99147E+01 2.62546E+03 1.70080E+02
 -1      2539-1.88894E+03-8.12161E+02-5.42077E+03 3.19331E+01 2.60753E+03 1.17694E+02
 -1      2540-1.60794E+03-8.11304E+02-5.78003E+03 1.12619E+02 2.70155E+03 7.39764E+01
 -1      2541-1.25449E+03-9.92268E+02-6.49227E+03-3.86797E+01 2.98456E+03 3.76541E+02
 -1      2542-1.14329E+03-1.04576E+03-5.82047E+03-5.95193E+02 2.76336E+03 1.11786E+03
 -1      2543-9.55898E+02-3.14438E+02-2.60230E+03-8.17138E+02 1.21395E+03 1.42108E+03
 -1      2544-8.98141E+02-7.17491E+00-3.68171E+02-4.34786E+02 2.72039E+02 9.70938E+02
 -1      2545-5.79996E+02-3.46301E+01 7.62984E+01-1.08801E+02 3.97111E+01 4.91467E+02
 -1      2546-2.03432E+02-1.83999E+02-1.79610E+03-6.42093E+02-7.27236E+02-6.71506E+02
 -1      2547-2.79402E+02-5.87792E+02-2.84304E+03-6.06559E+02-1.48542E+03-6.53404E+02
 -1      2548-4.32522E+02-7.15306E+02-3.61600E+03-2.89584E+02-1.86782E+03-3.72422E+02
 -1      2549-6.75956E+02-7.12100E+02-3.80933E+03-6.50296E+01-1.95192E+03-1.50411E+02
 -1      2550-9.38439E+02-6.97070E+02-3.76059E+03 1.79322E+01-1.93939E+03-3.85367E+01
 -1      2551-1.11880E+03-6.96323E+02-3.70050E+03 3.12955E+01-1.91843E+03 1.05558E+01
 -1      2552-1.21315E+03-7.00134E+02-3.67608E+03 2.51459E+01-1.90759E+03 3.80308E+01
 -1      2553-1.25764E+03-7.03011E+02-3.67438E+03 1.87273E+01-1.90394E+03 5.76468E+01
 -1      2554-1.27920E+03-7.04437E+02-3.67925E+03 1.54679E+01-1.90340E+03 7.20128E+01
 -1      2555-1.29012E+03-7.05009E+02-3.68382E+03 1.43157E+01-1.90375E+03 8.21004E+01
 -1      2556-1.29412E+03-7.05153E+02-3.68706E+03 1.42033E+01-1.90423E+03 8.92515E+01
 -1      2557-1.29139E+03-7.05111E+02-3.68951E+03 1.51573E+01-1.90454E+03 9.51765E+01
 -1      2558-1.28225E+03-7.05233E+02-3.68964E+03 1.84654E+01-1.90394E+03 1.02522E+02
 -1      2559-1.27179E+03-7.05769E+02-3.67845E+03 2.59203E+01-1.89998E+03 1.15810E+02
 -1      2560-1.27379E+03-7.04373E+02-3.63605E+03 3.58039E+01-1.88687E+03 1.38902E+02
 -1      2561-1.28956E+03-6.88108E+02-3.54871E+03 3.28786E+01-1.85519E+03 1.59350E+02
 -1      2562-1.23005E+03-6.43796E+02-3.49469E+03-2.31006E+01-1.81720E+03 1.28424E+02
 -1      2563-9.23075E+02-6.21151E+02-3.77189E+03-1.44616E+02-1.86805E+03 4.01587E+01
 -1      2564-5.50490E+02-8.56083E+02-4.42942E+03-3.22451E+00-2.22472E+03 1.67209E+02
 -1      2565-5.66103E+02-1.06123E+03-4.03063E+03 7.36340E+02-2.23899E+03 7.03801E+02
 -1      2566-6.12945E+02-1.48847E+02-1.62312E+03 1.02271E+03-7.20674E+02 9.12647E+02
 -1      2567-7.71398E+02 8.79922E+01-3.08681E+01 4.88528E+02-3.38773E+01 5.47469E+02
 -1      2568-5.52399E+02-2.27560E+01 1.19395E+02 1.06348E+02 1.86910E+01 2.44317E+02
 -1      2569-6.08998E+02-2.32722E+02-3.49601E+03-1.01804E+03-1.30861E+03-9.65588E+02
 -1      2570-1.19105E+03-7.72869E+02-6.10900E+03-9.51604E+02-2.71305E+03-9.09099E+02
 -1      2571-1.63978E+03-9.10330E+02-7.67377E+03-4.29522E+02-3.40633E+03-4.48789E+02
 -1      2572-2.00482E+03-8.95360E+02-8.06304E+03-8.11193E+01-3.55933E+03-1.36661E+02
 -1      2573-2.28696E+03-8.79922E+02-8.01071E+03 3.88273E+01-3.53824E+03-9.08610E+00
 -1      2574-2.45066E+03-8.79708E+02-7.91161E+03 5.37236E+01-3.50057E+03 3.52982E+01
 -1      2575-2.52979E+03-8.84411E+02-7.86060E+03 4.18326E+01-3.48065E+03 5.68655E+01
 -1      2576-2.56701E+03-8.87922E+02-7.84683E+03 3.14518E+01-3.47373E+03 7.31261E+01
 -1      2577-2.58627E+03-8.89773E+02-7.84765E+03 2.65229E+01-3.47263E+03 8.59071E+01
 -1      2578-2.59684E+03-8.90599E+02-7.85144E+03 2.48505E+01-3.47324E+03 9.52452E+01
 -1      2579-2.60111E+03-8.90874E+02-7.85493E+03 2.46356E+01-3.47413E+03 1.01996E+02
 -1      2580-2.59863E+03-8.90857E+02-7.85738E+03 2.58896E+01-3.47472E+03 1.07777E+02
 -1      2581-2.58833E+03-8.90895E+02-7.85512E+03 3.06884E+01-3.47357E+03 1.15581E+02
 -1      2582-2.57213E+03-8.91149E+02-7.83383E+03 4.23060E+01-3.46614E+03 1.31074E+02
 -1      2583-2.56106E+03-8.89271E+02-7.76436E+03 5.90517E+01-3.44251E+03 1.59801E+02
 -1      2584-2.56725E+03-8.72506E+02-7.62625E+03 5.78347E+01-3.38617E+03 1.86943E+02
 -1      2585-2.53547E+03-8.21862E+02-7.51747E+03-2.79746E+01-3.32059E+03 1.40890E+02
 -1      2586-2.25693E+03-7.55704E+02-7.86092E+03-2.44841E+02-3.41269E+03-4.83571E+01
 -1      2587-1.94638E+03-1.06538E+03-9.16878E+03-6.63325E+01-4.04907E+03 7.18227E+01
 -1      2588-1.96252E+03-1.48375E+03-8.76691E+03 1.15904E+03-4.12081E+03 1.06938E+03
 -1      2589-1.14414E+03-9.07743E+01-3.21296E+03 1.63388E+03-1.30978E+03 1.44136E+03
 -1      2590-9.66568E+02 1.27047E+02-2.39164E+02 7.26227E+02-7.01703E+01 6.97535E+02
 -1      2591-5.92752E+02-3.61571E+01 8.64356E+01 1.28991E+02 3.39283E+01 2.31320E+02
 -1      2592-1.13285E+03-3.27946E+02-5.49299E+03-1.09682E+03-1.50346E+03-1.39208E+03
 -1      2593-2.31231E+03-9.99566E+02-1.02573E+04-1.01038E+03-3.17757E+03-1.27832E+03
 -1      2594-3.08766E+03-1.16055E+03-1.27823E+04-4.50731E+02-3.99344E+03-5.58460E+02
 -1      2595-3.59834E+03-1.11852E+03-1.33430E+04-8.01439E+01-4.17113E+03-1.20538E+02
 -1      2596-3.92800E+03-1.09884E+03-1.32573E+04 4.53250E+01-4.14625E+03 2.93312E+01
 -1      2597-4.08598E+03-1.09915E+03-1.31033E+04 5.98879E+01-4.10218E+03 6.78101E+01
 -1      2598-4.15191E+03-1.10520E+03-1.30205E+04 4.68484E+01-4.07867E+03 8.15508E+01
 -1      2599-4.18113E+03-1.10985E+03-1.29935E+04 3.57435E+01-4.07034E+03 9.36531E+01
 -1      2600-4.19723E+03-1.11234E+03-1.29902E+04 3.05257E+01-4.06892E+03 1.04708E+02
 -1      2601-4.20705E+03-1.11348E+03-1.29933E+04 2.87640E+01-4.06961E+03 1.13380E+02
 -1      2602-4.21135E+03-1.11388E+03-1.29972E+04 2.85222E+01-4.07066E+03 1.19822E+02
 -1      2603-4.20863E+03-1.11388E+03-1.30001E+04 2.98028E+01-4.07139E+03 1.25581E+02
 -1      2604-4.19612E+03-1.11394E+03-1.29960E+04 3.48086E+01-4.07008E+03 1.34227E+02
 -1      2605-4.17307E+03-1.11417E+03-1.29645E+04 4.70682E+01-4.06140E+03 1.53202E+02
 -1      2606-4.14945E+03-1.11169E+03-1.28638E+04 6.48991E+01-4.03411E+03 1.90416E+02
 -1      2607-4.15311E+03-1.09431E+03-1.26577E+04 6.43725E+01-3.96944E+03 2.27107E+02
 -1      2608-4.15624E+03-1.02866E+03-1.24522E+04-2.68232E+01-3.89390E+03 1.63041E+02
 -1      2609-3.85049E+03-9.02385E+02-1.28171E+04-2.63975E+02-4.00418E+03-1.75528E+02
 -1      2610-3.57484E+03-1.33344E+03-1.51320E+04-8.87734E+01-4.75077E+03-9.46650E+01
 -1      2611-3.70895E+03-1.99518E+03-1.51678E+04 1.23004E+03-4.89841E+03 1.59364E+03
 -1      2612-1.73961E+03-7.46590E+00-4.91291E+03 1.74856E+03-1.53923E+03 2.21704E+03
 -1      2613-1.25767E+03 2.03798E+02-2.75833E+02 7.65545E+02-7.63554E+01 8.99552E+02
 -1      2614-7.11623E+02-5.41508E+01 7.74364E+01 1.28180E+02 4.24966E+01 2.11289E+02
 -1      2615-1.61021E+03-3.50546E+02-7.34420E+03-8.98202E+02-1.22908E+03-1.81800E+03
 -1      2616-3.33521E+03-1.05482E+03-1.42481E+04-8.24410E+02-2.63862E+03-1.65438E+03
 -1      2617-4.40625E+03-1.19128E+03-1.77215E+04-3.67157E+02-3.33270E+03-6.73023E+02
 -1      2618-5.05527E+03-1.11312E+03-1.84443E+04-6.45352E+01-3.48399E+03-1.07473E+02
 -1      2619-5.43774E+03-1.08664E+03-1.83247E+04 3.81607E+01-3.46399E+03 6.59106E+01
 -1      2620-5.59682E+03-1.08890E+03-1.81191E+04 5.01520E+01-3.42751E+03 9.93301E+01
 -1      2621-5.65283E+03-1.09735E+03-1.80067E+04 3.96103E+01-3.40784E+03 1.05641E+02
 -1      2622-5.67513E+03-1.10363E+03-1.79677E+04 3.05763E+01-3.40078E+03 1.13778E+02
 -1      2623-5.68827E+03-1.10689E+03-1.79610E+04 2.63126E+01-3.39954E+03 1.23247E+02
 -1      2624-5.69731E+03-1.10832E+03-1.79638E+04 2.48698E+01-3.40010E+03 1.31364E+02
 -1      2625-5.70157E+03-1.10880E+03-1.79683E+04 2.46693E+01-3.40101E+03 1.37586E+02
 -1      2626-5.69845E+03-1.10882E+03-1.79717E+04 2.57146E+01-3.40164E+03 1.43401E+02
 -1      2627-5.68364E+03-1.10908E+03-1.79660E+04 2.97889E+01-3.40055E+03 1.53010E+02
 -1      2628-5.65432E+03-1.10989E+03-1.79252E+04 3.97068E+01-3.39333E+03 1.75584E+02
 -1      2629-5.62050E+03-1.10826E+03-1.77947E+04 5.40564E+01-3.37063E+03 2.21218E+02
 -1      2630-5.62582E+03-1.09236E+03-1.75237E+04 5.33815E+01-3.31774E+03 2.67083E+02
 -1      2631-5.66050E+03-1.01313E+03-1.72198E+04-2.17624E+01-3.25524E+03 1.83934E+02
 -1      2632-5.31759E+03-8.29377E+02-1.76129E+04-2.14553E+02-3.35636E+03-3.02842E+02
 -1      2633-5.04958E+03-1.33665E+03-2.09234E+04-7.77988E+01-3.98178E+03-2.70434E+02
 -1      2634-5.34077E+03-2.22372E+03-2.15394E+04 9.97223E+02-4.13580E+03 2.11470E+03
 -1      2635-2.29245E+03 1.61188E+02-6.56983E+03 1.42883E+03-1.31724E+03 3.00537E+03
 -1      2636-1.55006E+03 2.91913E+02-2.71602E+02 6.26415E+02-6.18754E+01 1.10809E+03
 -1      2637-8.45299E+02-6.72574E+01 7.78863E+01 1.04164E+02 3.86697E+01 1.92485E+02
 -1      2638-1.85876E+03-2.85868E+02-8.41947E+03-4.96162E+02-6.52514E+02-2.10059E+03
 -1      2639-3.87104E+03-9.19233E+02-1.66174E+04-4.56177E+02-1.41449E+03-1.91180E+03
 -1      2640-5.11719E+03-9.95642E+02-2.07035E+04-2.04038E+02-1.79949E+03-7.55284E+02
 -1      2641-5.85849E+03-8.82706E+02-2.15362E+04-3.61129E+01-1.88455E+03-1.00170E+02
 -1      2642-6.28194E+03-8.50587E+02-2.13997E+04 2.12923E+01-1.87462E+03 9.05422E+01
 -1      2643-6.44612E+03-8.55688E+02-2.11647E+04 2.81923E+01-1.85515E+03 1.20923E+02
 -1      2644-6.49718E+03-8.66905E+02-2.10348E+04 2.24569E+01-1.84453E+03 1.22372E+02
 -1      2645-6.51526E+03-8.74754E+02-2.09885E+04 1.74743E+01-1.84067E+03 1.27850E+02
 -1      2646-6.52642E+03-8.78657E+02-2.09796E+04 1.51047E+01-1.83998E+03 1.36258E+02
 -1      2647-6.53488E+03-8.80255E+02-2.09822E+04 1.42997E+01-1.84028E+03 1.44016E+02
 -1      2648-6.53904E+03-8.80717E+02-2.09872E+04 1.41883E+01-1.84079E+03 1.50107E+02
 -1      2649-6.53555E+03-8.80737E+02-2.09908E+04 1.47733E+01-1.84113E+03 1.55981E+02
 -1      2650-6.51911E+03-8.81260E+02-2.09842E+04 1.70388E+01-1.84053E+03 1.66300E+02
 -1      2651-6.48583E+03-8.83004E+02-2.09375E+04 2.24943E+01-1.83660E+03 1.91348E+02
 -1      2652-6.44674E+03-8.83431E+02-2.07890E+04 3.03230E+01-1.82426E+03 2.42527E+02
 -1      2653-6.45760E+03-8.70896E+02-2.04808E+04 2.96505E+01-1.79619E+03 2.94630E+02
 -1      2654-6.51579E+03-7.84130E+02-2.01161E+04-1.26850E+01-1.76263E+03 1.95153E+02
 -1      2655-6.14976E+03-5.62199E+02-2.05532E+04-1.17823E+02-1.82455E+03-3.90288E+02
 -1      2656-5.84693E+03-1.08360E+03-2.44677E+04-4.24484E+01-2.16334E+03-3.85432E+02
 -1      2657-6.22963E+03-2.10375E+03-2.54504E+04 5.47389E+02-2.24849E+03 2.45911E+03
 -1      2658-2.63780E+03 3.54149E+02-7.67821E+03 7.88858E+02-7.39404E+02 3.53805E+03
 -1      2659-1.75607E+03 3.64335E+02-2.69631E+02 3.49442E+02-3.48503E+01 1.26109E+03
 -1      2660-9.44134E+02-7.29467E+01 8.27181E+01 5.88125E+01 2.27025E+01 1.81363E+02
 -1      2661-1.92166E+03-2.45641E+02-8.73143E+03 2.95315E-06-9.44861E-06-2.19401E+03
 -1      2662-4.00656E+03-8.32561E+02-1.73137E+04 4.04843E-06-6.73536E-06-1.99933E+03
 -1      2663-5.30582E+03-8.79071E+02-2.15979E+04 1.94332E-06-4.74835E-06-7.84423E+02
 -1      2664-6.07884E+03-7.52287E+02-2.24689E+04 5.94960E-08-4.81410E-06-9.80011E+01
 -1      2665-6.51780E+03-7.18100E+02-2.23287E+04-5.41112E-07-6.58877E-06 9.90161E+01
 -1      2666-6.68485E+03-7.24572E+02-2.20855E+04-7.99433E-07-6.77739E-06 1.28444E+02
 -1      2667-6.73464E+03-7.37001E+02-2.19503E+04-1.33982E-06-8.32963E-06 1.28278E+02
 -1      2668-6.75137E+03-7.45496E+02-2.19018E+04-1.45473E-06-1.03394E-05 1.32853E+02
 -1      2669-6.76186E+03-7.49644E+02-2.18922E+04-1.31648E-06-1.20726E-05 1.40899E+02
 -1      2670-6.77010E+03-7.51293E+02-2.18947E+04-1.14926E-06-1.35904E-05 1.48535E+02
 -1      2671-6.77421E+03-7.51737E+02-2.18998E+04-1.00241E-06-1.47670E-05 1.54584E+02
 -1      2672-6.77056E+03-7.51746E+02-2.19035E+04-8.04701E-07-1.59470E-05 1.60481E+02
 -1      2673-6.75355E+03-7.52384E+02-2.18965E+04-7.41864E-07-1.65861E-05 1.71052E+02
 -1      2674-6.71896E+03-7.54547E+02-2.18480E+04-7.61039E-07-1.77632E-05 1.96947E+02
 -1      2675-6.67847E+03-7.55999E+02-2.16941E+04-5.04440E-07-1.89349E-05 2.49957E+02
 -1      2676-6.69255E+03-7.45201E+02-2.13754E+04-1.86271E-07-1.93549E-05 3.04201E+02
 -1      2677-6.75942E+03-6.55975E+02-2.09917E+04-3.56167E-07-1.95470E-05 1.98132E+02
 -1      2678-6.38736E+03-4.22259E+02-2.14532E+04-1.82068E-06-2.08386E-05-4.20560E+02
 -1      2679-6.06028E+03-9.39247E+02-2.55480E+04-8.82182E-07-2.77261E-05-4.21742E+02
 -1      2680-6.46370E+03-1.99522E+03-2.66316E+04 7.33822E-06-2.88821E-05 2.57298E+03
 -1      2681-2.74970E+03 4.35084E+02-8.05270E+03 1.04717E-05-8.05516E-06 3.71649E+03
 -1      2682-1.82986E+03 3.91005E+02-2.73111E+02 4.47023E-06 1.27664E-06 1.31685E+03
 -1      2683-9.79687E+02-7.39287E+01 8.61079E+01 8.09792E-07 8.55718E-07 1.77994E+02
 -1      2684-1.85876E+03-2.85868E+02-8.41947E+03 4.96162E+02 6.52514E+02-2.10059E+03
 -1      2685-3.87104E+03-9.19233E+02-1.66174E+04 4.56177E+02 1.41449E+03-1.91180E+03
 -1      2686-5.11719E+03-9.95642E+02-2.07035E+04 2.04038E+02 1.79949E+03-7.55284E+02
 -1      2687-5.85849E+03-8.82706E+02-2.15362E+04 3.61129E+01 1.88455E+03-1.00170E+02
 -1      2688-6.28194E+03-8.50587E+02-2.13997E+04-2.12923E+01 1.87462E+03 9.05422E+01
 -1      2689-6.44612E+03-8.55688E+02-2.11647E+04-2.81923E+01 1.85515E+03 1.20923E+02
 -1      2690-6.49718E+03-8.66905E+02-2.10348E+04-2.24569E+01 1.84453E+03 1.22372E+02
 -1      2691-6.51526E+03-8.74754E+02-2.09885E+04-1.74743E+01 1.84067E+03 1.27850E+02
 -1      2692-6.52642E+03-8.78657E+02-2.09796E+04-1.51047E+01 1.83998E+03 1.36258E+02
 -1      2693-6.53488E+03-8.80255E+02-2.09822E+04-1.42997E+01 1.84028E+03 1.44016E+02
 -1      2694-6.53904E+03-8.80717E+02-2.09872E+04-1.41883E+01 1.84079E+03 1.50107E+02
 -1      2695-6.53555E+03-8.80737E+02-2.09908E+04-1.47733E+01 1.84113E+03 1.55981E+02
 -1      2696-6.51911E+03-8.81260E+02-2.09842E+04-1.70388E+01 1.84053E+03 1.66300E+02
 -1      2697-6.48583E+03-8.83004E+02-2.09375E+04-2.24943E+01 1.83660E+03 1.91348E+02
 -1      2698-6.44674E+03-8.83431E+02-2.07890E+04-3.03230E+01 1.82426E+03 2.42527E+02
 -1      2699-6.45760E+03-8.70896E+02-2.04808E+04-2.96505E+01 1.79619E+03 2.94630E+02
 -1      2700-6.51579E+03-7.84130E+02-2.01161E+04 1.26850E+01 1.76263E+03 1.95153E+02
 -1      2701-6.14976E+03-5.62199E+02-2.05532E+04 1.17823E+02 1.82455E+03-3.90288E+02
 -1      2702-5.84693E+03-1.08360E+03-2.44677E+04 4.24484E+01 2.16334E+03-3.85432E+02
 -1      2703-6.22963E+03-2.10375E+03-2.54504E+04-5.47389E+02 2.24849E+03 2.45911E+03
 -1      2704-2.63780E+03 3.54149E+02-7.67821E+03-7.88858E+02 7.39404E+02 3.53805E+03
 -1      2705-1.75607E+03 3.64335E+02-2.69631E+02-3.49442E+02 3.48503E+01 1.26109E+03
 -1      2706-9.44134E+02-7.29467E+01 8.27181E+01-5.88125E+01-2.27025E+01 1.81363E+02
 -1      2707-1.61021E+03-3.50546E+02-7.34420E+03 8.98202E+02 1.22908E+03-1.81800E+03
 -1      2708-3.33521E+03-1.05482E+03-1.42481E+04 8.24410E+02 2.63862E+03-1.65438E+03
 -1      2709-4.40625E+03-1.19128E+03-1.77215E+04 3.67157E+02 3.33270E+03-6.73023E+02
 -1      2710-5.05527E+03-1.11312E+03-1.84443E+04 6.45352E+01 3.48399E+03-1.07473E+02
 -1      2711-5.43774E+03-1.08664E+03-1.83247E+04-3.81607E+01 3.46399E+03 6.59106E+01
 -1      2712-5.59682E+03-1.08890E+03-1.81191E+04-5.01520E+01 3.42751E+03 9.93301E+01
 -1      2713-5.65283E+03-1.09735E+03-1.80067E+04-3.96103E+01 3.40784E+03 1.05641E+02
 -1      2714-5.67513E+03-1.10363E+03-1.79677E+04-3.05763E+01 3.40078E+03 1.13778E+02
 -1      2715-5.68827E+03-1.10689E+03-1.79610E+04-2.63126E+01 3.39954E+03 1.23247E+02
 -1      2716-5.69731E+03-1.10832E+03-1.79638E+04-2.48698E+01 3.40010E+03 1.31364E+02
 -1      2717-5.70157E+03-1.10880E+03-1.79683E+04-2.46693E+01 3.40101E+03 1.37586E+02
 -1      2718-5.69845E+03-1.10882E+03-1.79717E+04-2.57146E+01 3.40164E+03 1.43401E+02
 -1      2719-5.68364E+03-1.10908E+03-1.79660E+04-2.97889E+01 3.40055E+03 1.53010E+02
 -1      2720-5.65432E+03-1.10989E+03-1.79252E+04-3.97068E+01 3.39333E+03 1.75584E+02
 -1      2721-5.62050E+03-1.10826E+03-1.77947E+04-5.40564E+01 3.37063E+03 2.21218E+02
 -1      2722-5.62582E+03-1.09236E+03-1.75237E+04-5.33815E+01 3.31774E+03 2.67083E+02
 -1      2723-5.66050E+03-1.01313E+03-1.72198E+04 2.17624E+01 3.25524E+03 1.83934E+02
 -1      2724-5.31759E+03-8.29377E+02-1.76129E+04 2.14553E+02 3.35636E+03-3.02842E+02
 -1      2725-5.04958E+03-1.33665E+03-2.09234E+04 7.77988E+01 3.98178E+03-2.70434E+02
 -1      2726-5.34077E+03-2.22372E+03-2.15394E+04-9.97223E+02 4.13580E+03 2.11470E+03
 -1      2727-2.29245E+03 1.61188E+02-6.56983E+03-1.42883E+03 1.31724E+03 3.00537E+03
 -1      2728-1.55006E+03 2.91913E+02-2.71602E+02-6.26415E+02 6.18754E+01 1.10809E+03
 -1      2729-8.45299E+02-6.72574E+01 7.78863E+01-1.04164E+02-3.86697E+01 1.92485E+02
 -1      2730-1.13285E+03-3.27946E+02-5.49299E+03 1.09682E+03 1.50346E+03-1.39208E+03
 -1      2731-2.31231E+03-9.99566E+02-1.02573E+04 1.01038E+03 3.17757E+03-1.27832E+03
 -1      2732-3.08766E+03-1.16055E+03-1.27823E+04 4.50731E+02 3.99344E+03-5.58460E+02
 -1      2733-3.59834E+03-1.11852E+03-1.33430E+04 8.01439E+01 4.17113E+03-1.20538E+02
 -1      2734-3.92800E+03-1.09884E+03-1.32573E+04-4.53250E+01 4.14625E+03 2.93312E+01
 -1      2735-4.08598E+03-1.09915E+03-1.31033E+04-5.98879E+01 4.10218E+03 6.78101E+01
 -1      2736-4.15191E+03-1.10520E+03-1.30205E+04-4.68484E+01 4.07867E+03 8.15508E+01
 -1      2737-4.18113E+03-1.10985E+03-1.29935E+04-3.57435E+01 4.07034E+03 9.36531E+01
 -1      2738-4.19723E+03-1.11234E+03-1.29902E+04-3.05257E+01 4.06892E+03 1.04708E+02
 -1      2739-4.20705E+03-1.11348E+03-1.29933E+04-2.87640E+01 4.06961E+03 1.13380E+02
 -1      2740-4.21135E+03-1.11388E+03-1.29972E+04-2.85222E+01 4.07066E+03 1.19822E+02
 -1      2741-4.20863E+03-1.11388E+03-1.30001E+04-2.98028E+01 4.07139E+03 1.25581E+02
 -1      2742-4.19612E+03-1.11394E+03-1.29960E+04-3.48086E+01 4.07008E+03 1.34227E+02
 -1      2743-4.17307E+03-1.11417E+03-1.29645E+04-4.70682E+01 4.06140E+03 1.53202E+02
 -1      2744-4.14945E+03-1.11169E+03-1.28638E+04-6.48991E+01 4.03411E+03 1.90416E+02
 -1      2745-4.15311E+03-1.09431E+03-1.26577E+04-6.43725E+01 3.96944E+03 2.27107E+02
 -1      2746-4.15624E+03-1.02866E+03-1.24522E+04 2.68232E+01 3.89390E+03 1.63041E+02
 -1      2747-3.85049E+03-9.02385E+02-1.28171E+04 2.63975E+02 4.00418E+03-1.75528E+02
 -1      2748-3.57484E+03-1.33344E+03-1.51320E+04 8.87734E+01 4.75077E+03-9.46650E+01
 -1      2749-3.70895E+03-1.99518E+03-1.51678E+04-1.23004E+03 4.89841E+03 1.59364E+03
 -1      2750-1.73961E+03-7.46588E+00-4.91291E+03-1.74856E+03 1.53923E+03 2.21704E+03
 -1      2751-1.25767E+03 2.03798E+02-2.75833E+02-7.65545E+02 7.63554E+01 8.99552E+02
 -1      2752-7.11623E+02-5.41508E+01 7.74364E+01-1.28180E+02-4.24966E+01 2.11289E+02
 -1      2753-6.08998E+02-2.32722E+02-3.49601E+03 1.01804E+03 1.30861E+03-9.65588E+02
 -1      2754-1.19105E+03-7.72869E+02-6.10900E+03 9.51604E+02 2.71305E+03-9.09099E+02
 -1      2755-1.63978E+03-9.10330E+02-7.67377E+03 4.29522E+02 3.40633E+03-4.48789E+02
 -1      2756-2.00482E+03-8.95360E+02-8.06304E+03 8.11193E+01 3.55933E+03-1.36661E+02
 -1      2757-2.28696E+03-8.79922E+02-8.01071E+03-3.88273E+01 3.53824E+03-9.08611E+00
 -1      2758-2.45066E+03-8.79708E+02-7.91161E+03-5.37236E+01 3.50057E+03 3.52982E+01
 -1      2759-2.52979E+03-8.84411E+02-7.86060E+03-4.18326E+01 3.48065E+03 5.68655E+01
 -1      2760-2.56701E+03-8.87922E+02-7.84683E+03-3.14518E+01 3.47373E+03 7.31261E+01
 -1      2761-2.58627E+03-8.89773E+02-7.84765E+03-2.65229E+01 3.47263E+03 8.59071E+01
 -1      2762-2.59684E+03-8.90599E+02-7.85144E+03-2.48505E+01 3.47324E+03 9.52452E+01
 -1      2763-2.60111E+03-8.90874E+02-7.85493E+03-2.46356E+01 3.47413E+03 1.01996E+02
 -1      2764-2.59863E+03-8.90857E+02-7.85738E+03-2.58896E+01 3.47472E+03 1.07777E+02
 -1      2765-2.58833E+03-8.90895E+02-7.85512E+03-3.06884E+01 3.47357E+03 1.15581E+02
 -1      2766-2.57213E+03-8.91149E+02-7.83383E+03-4.23060E+01 3.46614E+03 1.31074E+02
 -1      2767-2.56106E+03-8.89271E+02-7.76436E+03-5.90517E+01 3.44251E+03 1.59801E+02
 -1      2768-2.56725E+03-8.72506E+02-7.62625E+03-5.78347E+01 3.38617E+03 1.86943E+02
 -1      2769-2.53547E+03-8.21862E+02-7.51747E+03 2.79746E+01 3.32059E+03 1.40890E+02
 -1      2770-2.25693E+03-7.55704E+02-7.86092E+03 2.44841E+02 3.41269E+03-4.83571E+01
 -1      2771-1.94638E+03-1.06538E+03-9.16878E+03 6.63325E+01 4.04907E+03 7.18227E+01
 -1      2772-1.96252E+03-1.48375E+03-8.76691E+03-1.15904E+03 4.12081E+03 1.06938E+03
 -1      2773-1.14414E+03-9.07742E+01-3.21296E+03-1.63388E+03 1.30978E+03 1.44136E+03
 -1      2774-9.66568E+02 1.27047E+02-2.39164E+02-7.26227E+02 7.01703E+01 6.97535E+02
 -1      2775-5.92752E+02-3.61571E+01 8.64356E+01-1.28991E+02-3.39283E+01 2.31320E+02
 -1      2776-2.03432E+02-1.83999E+02-1.79610E+03 6.42093E+02 7.27236E+02-6.71506E+02
 -1      2777-2.79402E+02-5.87792E+02-2.84304E+03 6.06559E+02 1.48542E+03-6.53404E+02
 -1      2778-4.32522E+02-7.15306E+02-3.61600E+03 2.89584E+02 1.86782E+03-3.72422E+02
 -1      2779-6.75956E+02-7.12100E+02-3.80933E+03 6.50296E+01 1.95192E+03-1.50411E+02
 -1      2780-9.38439E+02-6.97070E+02-3.76059E+03-1.79322E+01 1.93939E+03-3.85368E+01
 -1      2781-1.11880E+03-6.96323E+02-3.70050E+03-3.12955E+01 1.91843E+03 1.05558E+01
 -1      2782-1.21315E+03-7.00134E+02-3.67608E+03-2.51459E+01 1.90759E+03 3.80308E+01
 -1      2783-1.25764E+03-7.03011E+02-3.67438E+03-1.87273E+01 1.90394E+03 5.76468E+01
 -1      2784-1.27920E+03-7.04437E+02-3.67925E+03-1.54679E+01 1.90340E+03 7.20128E+01
 -1      2785-1.29012E+03-7.05009E+02-3.68382E+03-1.43157E+01 1.90375E+03 8.21004E+01
 -1      2786-1.29412E+03-7.05153E+02-3.68706E+03-1.42033E+01 1.90423E+03 8.92515E+01
 -1      2787-1.29139E+03-7.05111E+02-3.68951E+03-1.51573E+01 1.90454E+03 9.51765E+01
 -1      2788-1.28225E+03-7.05233E+02-3.68964E+03-1.84654E+01 1.90394E+03 1.02522E+02
 -1      2789-1.27179E+03-7.05769E+02-3.67845E+03-2.59203E+01 1.89998E+03 1.15810E+02
 -1      2790-1.27379E+03-7.04373E+02-3.63605E+03-3.58039E+01 1.88687E+03 1.38902E+02
 -1      2791-1.28956E+03-6.88108E+02-3.54871E+03-3.28786E+01 1.85519E+03 1.59350E+02
 -1      2792-1.23005E+03-6.43796E+02-3.49469E+03 2.31006E+01 1.81720E+03 1.28424E+02
 -1      2793-9.23075E+02-6.21151E+02-3.77189E+03 1.44616E+02 1.86805E+03 4.01587E+01
 -1      2794-5.50490E+02-8.56083E+02-4.42942E+03 3.22451E+00 2.22472E+03 1.67209E+02
 -1      2795-5.66103E+02-1.06123E+03-4.03063E+03-7.36340E+02 2.23899E+03 7.03801E+02
 -1      2796-6.12945E+02-1.48847E+02-1.62312E+03-1.02271E+03 7.20674E+02 9.12647E+02
 -1      2797-7.71398E+02 8.79922E+01-3.08681E+01-4.88528E+02 3.38773E+01 5.47469E+02
 -1      2798-5.52399E+02-2.27560E+01 1.19395E+02-1.06348E+02-1.86910E+01 2.44317E+02
 -1      2799-1.44199E+01-3.30201E+02-1.00051E+03-6.02906E+02-4.09047E+02-2.06801E+02
 -1      2800-2.00555E+01-9.88893E+02-1.52586E+03-5.38012E+02-9.27773E+02-2.54917E+02
 -1      2801-1.17857E+02-1.16057E+03-1.92112E+03-2.22144E+02-1.13614E+03-1.32678E+02
 -1      2802-3.09770E+02-1.15583E+03-1.99792E+03-2.81337E+01-1.14097E+03-4.05382E+01
 -1      2803-5.18660E+02-1.12831E+03-1.94711E+03 3.45237E+01-1.10916E+03-4.72691E+00
 -1      2804-6.75251E+02-1.11613E+03-1.90354E+03 4.10789E+01-1.08993E+03 1.28599E+01
 -1      2805-7.71383E+02-1.11468E+03-1.88776E+03 3.38349E+01-1.08330E+03 2.94005E+01
 -1      2806-8.25452E+02-1.11586E+03-1.88749E+03 2.80230E+01-1.08197E+03 4.48374E+01
 -1      2807-8.54903E+02-1.11716E+03-1.89114E+03 2.53968E+01-1.08213E+03 5.66537E+01
 -1      2808-8.70243E+02-1.11792E+03-1.89423E+03 2.45899E+01-1.08247E+03 6.45958E+01
 -1      2809-8.76616E+02-1.11834E+03-1.89638E+03 2.45405E+01-1.08279E+03 6.96880E+01
 -1      2810-8.76166E+02-1.11865E+03-1.89827E+03 2.52575E+01-1.08320E+03 7.30794E+01
 -1      2811-8.70099E+02-1.11895E+03-1.89924E+03 2.79106E+01-1.08363E+03 7.64351E+01
 -1      2812-8.60158E+02-1.11819E+03-1.89366E+03 3.43838E+01-1.08289E+03 8.37070E+01
 -1      2813-8.49042E+02-1.11296E+03-1.86834E+03 4.40934E+01-1.07646E+03 1.01191E+02
 -1      2814-8.33848E+02-1.08953E+03-1.81614E+03 4.53249E+01-1.05263E+03 1.25511E+02
 -1      2815-7.72545E+02-1.04535E+03-1.77485E+03 5.09712E+00-1.00629E+03 1.16130E+02
 -1      2816-5.55120E+02-1.01157E+03-1.95155E+03-1.34518E+02-1.01244E+03 3.32734E+01
 -1      2817-3.22145E+02-1.34158E+03-2.39906E+03-7.59016E+01-1.36735E+03 3.53461E+01
 -1      2818-4.31151E+02-1.75824E+03-2.16106E+03 6.90388E+02-1.53269E+03 2.88244E+02
 -1      2819-3.50887E+02-1.67012E+02-8.31441E+02 9.71407E+02-2.76312E+02 3.79462E+02
 -1      2820-4.88862E+02 1.22322E+02 1.02931E+02 3.77541E+02 1.29313E+02 1.80949E+02
 -1      2821-3.54994E+02-4.07507E+00 1.09926E+02 5.63465E+01 4.80596E+01 6.05986E+01
 -1      2822-3.90267E+02-3.65333E+02-2.57843E+03-1.01635E+03-1.09969E+03-5.22185E+02
 -1      2823-8.53095E+02-1.17166E+03-4.58583E+03-8.93995E+02-2.50402E+03-5.45553E+02
 -1      2824-1.23432E+03-1.35420E+03-5.69592E+03-3.38864E+02-3.06043E+03-2.22477E+02
 -1      2825-1.54982E+03-1.33112E+03-5.93282E+03-2.52786E+01-3.11036E+03-2.87107E+01
 -1      2826-1.77537E+03-1.29999E+03-5.87985E+03 6.71380E+01-3.05141E+03 2.91402E+01
 -1      2827-1.91112E+03-1.28611E+03-5.80028E+03 7.24846E+01-3.00746E+03 4.44950E+01
 -1      2828-1.99118E+03-1.28532E+03-5.76093E+03 5.85602E+01-2.98950E+03 5.55591E+01
 -1      2829-2.03795E+03-1.28721E+03-5.75018E+03 4.88119E+01-2.98455E+03 6.75533E+01
 -1      2830-2.06525E+03-1.28894E+03-5.75047E+03 4.46654E+01-2.98420E+03 7.76549E+01
 -1      2831-2.08033E+03-1.28992E+03-5.75303E+03 4.34575E+01-2.98486E+03 8.48156E+01
 -1      2832-2.08703E+03-1.29042E+03-5.75546E+03 4.33350E+01-2.98566E+03 8.95627E+01
 -1      2833-2.08697E+03-1.29082E+03-5.75736E+03 4.42967E+01-2.98649E+03 9.29744E+01
 -1      2834-2.08001E+03-1.29124E+03-5.75603E+03 4.82809E+01-2.98679E+03 9.71034E+01
 -1      2835-2.06482E+03-1.29073E+03-5.74141E+03 5.87341E+01-2.98282E+03 1.06988E+02
 -1      2836-2.03998E+03-1.28460E+03-5.69051E+03 7.59304E+01-2.96498E+03 1.30468E+02
 -1      2837-2.01067E+03-1.25894E+03-5.59218E+03 8.03616E+01-2.90863E+03 1.60544E+02
 -1      2838-1.98605E+03-1.21009E+03-5.49988E+03 2.26900E+01-2.81563E+03 1.36754E+02
 -1      2839-1.80899E+03-1.13349E+03-5.68177E+03-2.32450E+02-2.82912E+03-5.04794E+01
 -1      2840-1.61623E+03-1.54777E+03-6.81149E+03-2.17378E+02-3.62164E+03-5.77089E+01
 -1      2841-1.74440E+03-2.23366E+03-6.66986E+03 1.16443E+03-4.10137E+03 7.22578E+02
 -1      2842-8.41024E+02-8.86083E+01-2.19388E+03 1.67130E+03-8.03721E+02 9.90127E+02
 -1      2843-6.82337E+02 1.81936E+02-3.46154E+01 5.64880E+02 1.90418E+02 3.57155E+02
 -1      2844-3.78329E+02-1.08181E+01 6.27989E+01 5.52595E+01 7.90843E+01 6.18499E+01
 -1      2845-1.15427E+03-5.50199E+02-5.26821E+03-1.14356E+03-1.52109E+03-1.03288E+03
 -1      2846-2.58856E+03-1.67271E+03-1.06140E+04-9.94261E+02-3.52293E+03-9.87655E+02
 -1      2847-3.38406E+03-1.89390E+03-1.28943E+04-3.65561E+02-4.31819E+03-3.25242E+02
 -1      2848-3.86917E+03-1.84131E+03-1.32948E+04-2.07527E+01-4.41206E+03 1.72159E+00
 -1      2849-4.12713E+03-1.79907E+03-1.31804E+04 7.80599E+01-4.34433E+03 8.36690E+01
 -1      2850-4.23973E+03-1.77849E+03-1.30184E+04 8.30299E+01-4.28752E+03 9.16605E+01
 -1      2851-4.30051E+03-1.77724E+03-1.29375E+04 6.74295E+01-4.26248E+03 9.39269E+01
 -1      2852-4.33725E+03-1.77969E+03-1.29103E+04 5.66849E+01-4.25489E+03 1.01467E+02
 -1      2853-4.36121E+03-1.78192E+03-1.29062E+04 5.21236E+01-4.25403E+03 1.09743E+02
 -1      2854-4.37570E+03-1.78311E+03-1.29084E+04 5.07935E+01-4.25488E+03 1.16257E+02
 -1      2855-4.38267E+03-1.78368E+03-1.29116E+04 5.06426E+01-4.25604E+03 1.20738E+02
 -1      2856-4.38271E+03-1.78416E+03-1.29142E+04 5.16646E+01-4.25716E+03 1.24167E+02
 -1      2857-4.37372E+03-1.78474E+03-1.29109E+04 5.59695E+01-4.25715E+03 1.29386E+02
 -1      2858-4.35064E+03-1.78433E+03-1.28834E+04 6.73145E+01-4.25068E+03 1.42909E+02
 -1      2859-4.30856E+03-1.77584E+03-1.27917E+04 8.61743E+01-4.22529E+03 1.77215E+02
 -1      2860-4.25263E+03-1.73999E+03-1.25872E+04 9.14122E+01-4.15164E+03 2.17321E+02
 -1      2861-4.27363E+03-1.68372E+03-1.23803E+04 3.15545E+01-4.03620E+03 1.85058E+02
 -1      2862-4.05984E+03-1.51065E+03-1.23840E+04-2.56220E+02-4.06577E+03-1.70786E+02
 -1      2863-4.00453E+03-2.11644E+03-1.50486E+04-2.84699E+02-5.08220E+03-3.35946E+02
 -1      2864-4.60663E+03-3.29991E+03-1.64943E+04 1.29662E+03-5.84594E+03 1.41277E+03
 -1      2865-1.45088E+03 6.94238E+01-3.80498E+03 1.89177E+03-1.19651E+03 2.00316E+03
 -1      2866-9.81173E+02 2.80264E+02 6.89848E+01 6.07866E+02 1.87159E+02 5.27920E+02
 -1      2867-4.71041E+02-3.00597E+01 1.12417E+01 4.91604E+01 8.67169E+01 4.12263E+01
 -1      2868-1.86063E+03-6.88452E+02-7.74205E+03-9.25291E+02-1.18961E+03-1.55139E+03
 -1      2869-4.24152E+03-2.04455E+03-1.64958E+04-8.10032E+02-2.81504E+03-1.44610E+03
 -1      2870-5.43216E+03-2.26999E+03-1.99672E+04-2.99352E+02-3.50219E+03-4.33096E+02
 -1      2871-6.07981E+03-2.18141E+03-2.05160E+04-1.69810E+01-3.59348E+03 3.10698E+01
 -1      2872-6.37818E+03-2.12935E+03-2.03431E+04 6.46417E+01-3.54448E+03 1.36828E+02
 -1      2873-6.47542E+03-2.10421E+03-2.01036E+04 6.94340E+01-3.50044E+03 1.38026E+02
 -1      2874-6.52047E+03-2.10342E+03-1.99838E+04 5.71234E+01-3.48032E+03 1.31707E+02
 -1      2875-6.54838E+03-2.10692E+03-1.99417E+04 4.84228E+01-3.47404E+03 1.34955E+02
 -1      2876-6.56923E+03-2.10981E+03-1.99339E+04 4.46764E+01-3.47329E+03 1.41544E+02
 -1      2877-6.58322E+03-2.11130E+03-1.99363E+04 4.35667E+01-3.47404E+03 1.47514E+02
 -1      2878-6.59050E+03-2.11199E+03-1.99408E+04 4.34418E+01-3.47506E+03 1.51799E+02
 -1      2879-6.59061E+03-2.11265E+03-1.99447E+04 4.42856E+01-3.47602E+03 1.55309E+02
 -1      2880-6.57957E+03-2.11356E+03-1.99398E+04 4.78269E+01-3.47585E+03 1.61656E+02
 -1      2881-6.54933E+03-2.11370E+03-1.99009E+04 5.69414E+01-3.47043E+03 1.79045E+02
 -1      2882-6.49241E+03-2.10387E+03-1.97700E+04 7.16362E+01-3.44918E+03 2.23693E+02
 -1      2883-6.41621E+03-2.06079E+03-1.94678E+04 7.55266E+01-3.39289E+03 2.74841E+02
 -1      2884-6.47794E+03-1.99936E+03-1.91412E+04 2.35945E+01-3.29942E+03 2.29784E+02
 -1      2885-6.23196E+03-1.74008E+03-1.90051E+04-2.04246E+02-3.35659E+03-2.89553E+02
 -1      2886-6.24740E+03-2.45780E+03-2.31050E+04-2.33679E+02-4.16145E+03-6.45547E+02
 -1      2887-7.45677E+03-4.15593E+03-2.65872E+04 1.03756E+03-4.78515E+03 2.09957E+03
 -1      2888-2.03834E+03 2.81860E+02-5.41393E+03 1.53893E+03-1.10023E+03 3.05904E+03
 -1      2889-1.28344E+03 3.76090E+02 2.38885E+02 5.04082E+02 1.38777E+02 7.03640E+02
 -1      2890-5.81921E+02-5.05472E+01-3.29973E+01 4.09657E+01 7.23818E+01 1.74689E+01
 -1      2891-2.05055E+03-6.33171E+02-8.58363E+03-4.85022E+02-5.35647E+02-1.83010E+03
 -1      2892-4.72036E+03-1.93433E+03-1.86897E+04-4.31756E+02-1.30128E+03-1.71579E+03
 -1      2893-6.08744E+03-2.10166E+03-2.27462E+04-1.64032E+02-1.65794E+03-5.06346E+02
 -1      2894-6.83616E+03-1.98217E+03-2.33840E+04-1.05182E+01-1.71031E+03 4.70402E+01
 -1      2895-7.17361E+03-1.92610E+03-2.32003E+04 3.50186E+01-1.68875E+03 1.68777E+02
 -1      2896-7.27173E+03-1.90227E+03-2.29351E+04 3.83148E+01-1.66837E+03 1.66553E+02
 -1      2897-7.31086E+03-1.90381E+03-2.28002E+04 3.19998E+01-1.65886E+03 1.55454E+02
 -1      2898-7.33433E+03-1.90875E+03-2.27517E+04 2.73437E+01-1.65584E+03 1.56189E+02
 -1      2899-7.35329E+03-1.91223E+03-2.27421E+04 2.53033E+01-1.65549E+03 1.61787E+02
 -1      2900-7.36680E+03-1.91384E+03-2.27443E+04 2.46896E+01-1.65587E+03 1.67439E+02
 -1      2901-7.37410E+03-1.91447E+03-2.27493E+04 2.46240E+01-1.65638E+03 1.71612E+02
 -1      2902-7.37399E+03-1.91510E+03-2.27535E+04 2.50933E+01-1.65685E+03 1.75202E+02
 -1      2903-7.36153E+03-1.91630E+03-2.27477E+04 2.70376E+01-1.65671E+03 1.82190E+02
 -1      2904-7.32765E+03-1.91736E+03-2.27037E+04 3.19096E+01-1.65403E+03 2.02089E+02
 -1      2905-7.26447E+03-1.90852E+03-2.25558E+04 3.93113E+01-1.64356E+03 2.51865E+02
 -1      2906-7.19079E+03-1.86734E+03-2.22258E+04 4.10924E+01-1.61788E+03 3.10726E+02
 -1      2907-7.28268E+03-1.80297E+03-2.18382E+04 9.41819E+00-1.57132E+03 2.50088E+02
 -1      2908-7.04913E+03-1.51073E+03-2.17335E+04-1.07187E+02-1.62209E+03-3.69073E+02
 -1      2909-6.98574E+03-2.22798E+03-2.64058E+04-1.12299E+02-2.01318E+03-8.00019E+02
 -1      2910-8.37445E+03-4.07504E+03-3.06716E+04 5.37983E+02-2.27965E+03 2.47035E+03
 -1      2911-2.37826E+03 4.63469E+02-6.39796E+03 8.08272E+02-6.12671E+02 3.65588E+03
 -1      2912-1.49094E+03 4.41320E+02 3.24971E+02 2.82523E+02 6.81380E+01 8.44586E+02
 -1      2913-6.61755E+02-5.80053E+01-4.67811E+01 2.50755E+01 4.11658E+01 3.60460E-01
 -1      2914-2.06035E+03-6.18086E+02-8.68072E+03 7.00404E-06-1.07760E-05-1.91088E+03
 -1      2915-4.76350E+03-1.90205E+03-1.90252E+04 7.31532E-06-6.02142E-06-1.80051E+03
 -1      2916-6.17214E+03-2.04717E+03-2.32264E+04 2.76327E-06-3.76865E-06-5.32074E+02
 -1      2917-6.95342E+03-1.91697E+03-2.38934E+04 4.77765E-07-3.85899E-06 5.03805E+01
 -1      2918-7.30603E+03-1.85828E+03-2.37120E+04-1.18831E-08-5.42976E-06 1.77719E+02
 -1      2919-7.40638E+03-1.83443E+03-2.34437E+04-2.32065E-07-5.45479E-06 1.74527E+02
 -1      2920-7.44432E+03-1.83667E+03-2.33063E+04-9.19080E-07-6.87585E-06 1.62000E+02
 -1      2921-7.46653E+03-1.84206E+03-2.32564E+04-9.12845E-07-9.20583E-06 1.61966E+02
 -1      2922-7.48487E+03-1.84573E+03-2.32462E+04-7.72703E-07-1.01759E-05 1.67253E+02
 -1      2923-7.49818E+03-1.84736E+03-2.32483E+04-6.06849E-07-1.22569E-05 1.72804E+02
 -1      2924-7.50543E+03-1.84795E+03-2.32533E+04-4.66101E-07-1.31726E-05 1.76945E+02
 -1      2925-7.50517E+03-1.84854E+03-2.32574E+04-2.88704E-07-1.41719E-05 1.80551E+02
 -1      2926-7.49224E+03-1.84987E+03-2.32513E+04-2.40311E-07-1.49910E-05 1.87767E+02
 -1      2927-7.45725E+03-1.85112E+03-2.32060E+04-3.78492E-07-1.58117E-05 2.08400E+02
 -1      2928-7.39286E+03-1.84282E+03-2.30550E+04-8.15260E-08-1.73111E-05 2.59744E+02
 -1      2929-7.32253E+03-1.80123E+03-2.27225E+04 3.26049E-07-1.73029E-05 3.21005E+02
 -1      2930-7.42588E+03-1.73527E+03-2.23211E+04 4.58192E-07-1.81247E-05 2.53853E+02
 -1      2931-7.19867E+03-1.43053E+03-2.22492E+04-1.27690E-06-1.85995E-05-3.95982E+02
 -1      2932-7.09621E+03-2.15842E+03-2.70421E+04-1.61939E-06-2.71806E-05-8.46628E+02
 -1      2933-8.49342E+03-4.03068E+03-3.14108E+04 6.22487E-06-2.82016E-05 2.57827E+03
 -1      2934-2.47688E+03 5.27853E+02-6.69604E+03 8.97828E-06-7.14999E-06 3.83733E+03
 -1      2935-1.56032E+03 4.65234E+02 3.43236E+02 2.69855E-06 2.23741E-06 8.93947E+02
 -1      2936-6.89949E+02-5.84769E+01-4.67591E+01 3.31413E-08 1.07838E-06-4.52432E+00
 -1      2937-2.05055E+03-6.33171E+02-8.58363E+03 4.85022E+02 5.35647E+02-1.83010E+03
 -1      2938-4.72036E+03-1.93433E+03-1.86897E+04 4.31756E+02 1.30128E+03-1.71579E+03
 -1      2939-6.08744E+03-2.10166E+03-2.27462E+04 1.64032E+02 1.65794E+03-5.06346E+02
 -1      2940-6.83616E+03-1.98217E+03-2.33840E+04 1.05182E+01 1.71031E+03 4.70402E+01
 -1      2941-7.17361E+03-1.92610E+03-2.32003E+04-3.50186E+01 1.68875E+03 1.68777E+02
 -1      2942-7.27173E+03-1.90227E+03-2.29351E+04-3.83148E+01 1.66837E+03 1.66553E+02
 -1      2943-7.31086E+03-1.90381E+03-2.28002E+04-3.19998E+01 1.65886E+03 1.55454E+02
 -1      2944-7.33433E+03-1.90875E+03-2.27517E+04-2.73437E+01 1.65584E+03 1.56189E+02
 -1      2945-7.35329E+03-1.91223E+03-2.27421E+04-2.53033E+01 1.65549E+03 1.61787E+02
 -1      2946-7.36680E+03-1.91384E+03-2.27443E+04-2.46896E+01 1.65587E+03 1.67439E+02
 -1      2947-7.37410E+03-1.91447E+03-2.27493E+04-2.46240E+01 1.65638E+03 1.71612E+02
 -1      2948-7.37399E+03-1.91510E+03-2.27535E+04-2.50933E+01 1.65685E+03 1.75202E+02
 -1      2949-7.36153E+03-1.91630E+03-2.27477E+04-2.70376E+01 1.65671E+03 1.82190E+02
 -1      2950-7.32765E+03-1.91736E+03-2.27037E+04-3.19096E+01 1.65403E+03 2.02089E+02
 -1      2951-7.26447E+03-1.90852E+03-2.25558E+04-3.93113E+01 1.64356E+03 2.51865E+02
 -1      2952-7.19079E+03-1.86734E+03-2.22258E+04-4.10924E+01 1.61788E+03 3.10726E+02
 -1      2953-7.28268E+03-1.80297E+03-2.18382E+04-9.41818E+00 1.57132E+03 2.50088E+02
 -1      2954-7.04913E+03-1.51073E+03-2.17335E+04 1.07187E+02 1.62209E+03-3.69073E+02
 -1      2955-6.98574E+03-2.22798E+03-2.64058E+04 1.12299E+02 2.01318E+03-8.00019E+02
 -1      2956-8.37445E+03-4.07504E+03-3.06716E+04-5.37983E+02 2.27965E+03 2.47035E+03
 -1      2957-2.37826E+03 4.63469E+02-6.39796E+03-8.08272E+02 6.12671E+02 3.65588E+03
 -1      2958-1.49094E+03 4.41320E+02 3.24971E+02-2.82523E+02-6.81380E+01 8.44586E+02
 -1      2959-6.61755E+02-5.80053E+01-4.67811E+01-2.50755E+01-4.11658E+01 3.60460E-01
 -1      2960-1.86063E+03-6.88452E+02-7.74205E+03 9.25291E+02 1.18961E+03-1.55139E+03
 -1      2961-4.24152E+03-2.04455E+03-1.64958E+04 8.10032E+02 2.81504E+03-1.44610E+03
 -1      2962-5.43216E+03-2.26999E+03-1.99672E+04 2.99352E+02 3.50219E+03-4.33096E+02
 -1      2963-6.07981E+03-2.18141E+03-2.05160E+04 1.69810E+01 3.59348E+03 3.10698E+01
 -1      2964-6.37818E+03-2.12935E+03-2.03431E+04-6.46417E+01 3.54448E+03 1.36828E+02
 -1      2965-6.47542E+03-2.10421E+03-2.01036E+04-6.94340E+01 3.50044E+03 1.38026E+02
 -1      2966-6.52047E+03-2.10342E+03-1.99838E+04-5.71234E+01 3.48032E+03 1.31707E+02
 -1      2967-6.54838E+03-2.10692E+03-1.99417E+04-4.84228E+01 3.47404E+03 1.34955E+02
 -1      2968-6.56923E+03-2.10981E+03-1.99339E+04-4.46764E+01 3.47329E+03 1.41544E+02
 -1      2969-6.58322E+03-2.11130E+03-1.99363E+04-4.35667E+01 3.47404E+03 1.47514E+02
 -1      2970-6.59050E+03-2.11199E+03-1.99408E+04-4.34418E+01 3.47506E+03 1.51799E+02
 -1      2971-6.59061E+03-2.11265E+03-1.99447E+04-4.42856E+01 3.47602E+03 1.55309E+02
 -1      2972-6.57957E+03-2.11356E+03-1.99398E+04-4.78269E+01 3.47585E+03 1.61656E+02
 -1      2973-6.54933E+03-2.11370E+03-1.99009E+04-5.69414E+01 3.47043E+03 1.79045E+02
 -1      2974-6.49241E+03-2.10387E+03-1.97700E+04-7.16362E+01 3.44918E+03 2.23693E+02
 -1      2975-6.41621E+03-2.06079E+03-1.94678E+04-7.55266E+01 3.39289E+03 2.74841E+02
 -1      2976-6.47794E+03-1.99936E+03-1.91412E+04-2.35945E+01 3.29942E+03 2.29784E+02
 -1      2977-6.23196E+03-1.74008E+03-1.90051E+04 2.04246E+02 3.35659E+03-2.89553E+02
 -1      2978-6.24740E+03-2.45780E+03-2.31050E+04 2.33679E+02 4.16145E+03-6.45547E+02
 -1      2979-7.45677E+03-4.15593E+03-2.65872E+04-1.03756E+03 4.78515E+03 2.09957E+03
 -1      2980-2.03834E+03 2.81860E+02-5.41393E+03-1.53893E+03 1.10023E+03 3.05904E+03
 -1      2981-1.28344E+03 3.76090E+02 2.38885E+02-5.04082E+02-1.38777E+02 7.03640E+02
 -1      2982-5.81921E+02-5.05472E+01-3.29973E+01-4.09657E+01-7.23818E+01 1.74689E+01
 -1      2983-1.15427E+03-5.50199E+02-5.26821E+03 1.14356E+03 1.52109E+03-1.03288E+03
 -1      2984-2.58856E+03-1.67271E+03-1.06140E+04 9.94261E+02 3.52293E+03-9.87655E+02
 -1      2985-3.38406E+03-1.89390E+03-1.28943E+04 3.65561E+02 4.31819E+03-3.25242E+02
 -1      2986-3.86917E+03-1.84131E+03-1.32948E+04 2.07527E+01 4.41206E+03 1.72158E+00
 -1      2987-4.12713E+03-1.79907E+03-1.31804E+04-7.80599E+01 4.34433E+03 8.36690E+01
 -1      2988-4.23973E+03-1.77849E+03-1.30184E+04-8.30299E+01 4.28752E+03 9.16605E+01
 -1      2989-4.30051E+03-1.77724E+03-1.29375E+04-6.74295E+01 4.26248E+03 9.39269E+01
 -1      2990-4.33725E+03-1.77969E+03-1.29103E+04-5.66849E+01 4.25489E+03 1.01467E+02
 -1      2991-4.36121E+03-1.78192E+03-1.29062E+04-5.21236E+01 4.25403E+03 1.09743E+02
 -1      2992-4.37570E+03-1.78311E+03-1.29084E+04-5.07935E+01 4.25488E+03 1.16257E+02
 -1      2993-4.38267E+03-1.78368E+03-1.29116E+04-5.06426E+01 4.25604E+03 1.20738E+02
 -1      2994-4.38271E+03-1.78416E+03-1.29142E+04-5.16646E+01 4.25716E+03 1.24167E+02
 -1      2995-4.37372E+03-1.78474E+03-1.29109E+04-5.59695E+01 4.25715E+03 1.29386E+02
 -1      2996-4.35064E+03-1.78433E+03-1.28834E+04-6.73145E+01 4.25068E+03 1.42909E+02
 -1      2997-4.30856E+03-1.77584E+03-1.27917E+04-8.61743E+01 4.22529E+03 1.77215E+02
 -1      2998-4.25263E+03-1.73999E+03-1.25872E+04-9.14122E+01 4.15164E+03 2.17321E+02
 -1      2999-4.27363E+03-1.68372E+03-1.23803E+04-3.15545E+01 4.03620E+03 1.85058E+02
 -1      3000-4.05984E+03-1.51065E+03-1.23840E+04 2.56220E+02 4.06577E+03-1.70786E+02
 -1      3001-4.00453E+03-2.11644E+03-1.50486E+04 2.84699E+02 5.08220E+03-3.35946E+02
 -1      3002-4.60663E+03-3.29991E+03-1.64943E+04-1.29662E+03 5.84594E+03 1.41277E+03
 -1      3003-1.45088E+03 6.94238E+01-3.80498E+03-1.89177E+03 1.19651E+03 2.00316E+03
 -1      3004-9.81173E+02 2.80264E+02 6.89848E+01-6.07866E+02-1.87159E+02 5.27920E+02
 -1      3005-4.71041E+02-3.00597E+01 1.12417E+01-4.91604E+01-8.67169E+01 4.12263E+01
 -1      3006-3.90267E+02-3.65333E+02-2.57843E+03 1.01635E+03 1.09969E+03-5.22185E+02
 -1      3007-8.53095E+02-1.17166E+03-4.58583E+03 8.93995E+02 2.50402E+03-5.45553E+02
 -1      3008-1.23432E+03-1.35420E+03-5.69592E+03 3.38864E+02 3.06043E+03-2.22477E+02
 -1      3009-1.54982E+03-1.33112E+03-5.93282E+03 2.52786E+01 3.11036E+03-2.87107E+01
 -1      3010-1.77537E+03-1.29999E+03-5.87985E+03-6.71380E+01 3.05141E+03 2.91402E+01
 -1      3011-1.91112E+03-1.28611E+03-5.80028E+03-7.24846E+01 3.00746E+03 4.44949E+01
 -1      3012-1.99118E+03-1.28532E+03-5.76093E+03-5.85602E+01 2.98950E+03 5.55591E+01
 -1      3013-2.03795E+03-1.28721E+03-5.75018E+03-4.88119E+01 2.98455E+03 6.75533E+01
 -1      3014-2.06525E+03-1.28894E+03-5.75047E+03-4.46654E+01 2.98420E+03 7.76549E+01
 -1      3015-2.08033E+03-1.28992E+03-5.75303E+03-4.34575E+01 2.98486E+03 8.48156E+01
 -1      3016-2.08703E+03-1.29042E+03-5.75546E+03-4.33350E+01 2.98566E+03 8.95627E+01
 -1      3017-2.08697E+03-1.29082E+03-5.75736E+03-4.42967E+01 2.98649E+03 9.29744E+01
 -1      3018-2.08001E+03-1.29124E+03-5.75603E+03-4.82809E+01 2.98679E+03 9.71034E+01
 -1      3019-2.06482E+03-1.29073E+03-5.74141E+03-5.87341E+01 2.98282E+03 1.06988E+02
 -1      3020-2.03998E+03-1.28460E+03-5.69051E+03-7.59304E+01 2.96498E+03 1.30468E+02
 -1      3021-2.01067E+03-1.25894E+03-5.59218E+03-8.03616E+01 2.90863E+03 1.60544E+02
 -1      3022-1.98605E+03-1.21009E+03-5.49988E+03-2.26900E+01 2.81563E+03 1.36754E+02
 -1      3023-1.80899E+03-1.13349E+03-5.68177E+03 2.32450E+02 2.82912E+03-5.04794E+01
 -1      3024-1.61623E+03-1.54777E+03-6.81149E+03 2.17378E+02 3.62164E+03-5.77089E+01
 -1      3025-1.74440E+03-2.23366E+03-6.66986E+03-1.16443E+03 4.10137E+03 7.22578E+02
 -1      3026-8.41024E+02-8.86083E+01-2.19388E+03-1.67130E+03 8.03721E+02 9.90127E+02
 -1      3027-6.82337E+02 1.81936E+02-3.46154E+01-5.64880E+02-1.90418E+02 3.57155E+02
 -1      3028-3.78329E+02-1.08181E+01 6.27989E+01-5.52595E+01-7.90843E+01 6.18499E+01
 -1      3029-1.44200E+01-3.30201E+02-1.00051E+03 6.02906E+02 4.09047E+02-2.06801E+02
 -1      3030-2.00555E+01-9.88893E+02-1.52586E+03 5.38012E+02 9.27773E+02-2.54917E+02
 -1      3031-1.17857E+02-1.16057E+03-1.92112E+03 2.22144E+02 1.13614E+03-1.32678E+02
 -1      3032-3.09770E+02-1.15583E+03-1.99792E+03 2.81337E+01 1.14097E+03-4.05382E+01
 -1      3033-5.18660E+02-1.12831E+03-1.94711E+03-3.45237E+01 1.10916E+03-4.72691E+00
 -1      3034-6.75251E+02-1.11613E+03-1.90354E+03-4.10789E+01 1.08993E+03 1.28599E+01
 -1      3035-7.71383E+02-1.11468E+03-1.88776E+03-3.38349E+01 1.08330E+03 2.94005E+01
 -1      3036-8.25452E+02-1.11586E+03-1.88749E+03-2.80230E+01 1.08197E+03 4.48374E+01
 -1      3037-8.54903E+02-1.11716E+03-1.89114E+03-2.53968E+01 1.08213E+03 5.66537E+01
 -1      3038-8.70243E+02-1.11792E+03-1.89423E+03-2.45899E+01 1.08247E+03 6.45958E+01
 -1      3039-8.76616E+02-1.11834E+03-1.89638E+03-2.45405E+01 1.08279E+03 6.96880E+01
 -1      3040-8.76166E+02-1.11865E+03-1.89827E+03-2.52575E+01 1.08320E+03 7.30794E+01
 -1      3041-8.70099E+02-1.11895E+03-1.89924E+03-2.79106E+01 1.08363E+03 7.64351E+01
 -1      3042-8.60158E+02-1.11819E+03-1.89366E+03-3.43838E+01 1.08289E+03 8.37070E+01
 -1      3043-8.49042E+02-1.11296E+03-1.86834E+03-4.40934E+01 1.07646E+03 1.01191E+02
 -1      3044-8.33848E+02-1.08953E+03-1.81614E+03-4.53249E+01 1.05263E+03 1.25511E+02
 -1      3045-7.72545E+02-1.04535E+03-1.77485E+03-5.09712E+00 1.00629E+03 1.16130E+02
 -1      3046-5.55120E+02-1.01157E+03-1.95155E+03 1.34518E+02 1.01244E+03 3.32734E+01
 -1      3047-3.22145E+02-1.34158E+03-2.39906E+03 7.59016E+01 1.36735E+03 3.53461E+01
 -1      3048-4.31151E+02-1.75824E+03-2.16106E+03-6.90388E+02 1.53269E+03 2.88244E+02
 -1      3049-3.50887E+02-1.67012E+02-8.31441E+02-9.71407E+02 2.76312E+02 3.79462E+02
 -1      3050-4.88862E+02 1.22322E+02 1.02931E+02-3.77541E+02-1.29313E+02 1.80949E+02
 -1      3051-3.54994E+02-4.07507E+00 1.09926E+02-5.63465E+01-4.80596E+01 6.05986E+01
 -1      3052 5.18883E+01-4.79693E+02-5.44704E+02-2.38774E+02-9.15727E+01 7.40274E+01
 -1      3053-9.20666E+01-1.34268E+03-9.32963E+02-1.77406E+02-2.46077E+02 1.86693E+01
 -1      3054-1.89212E+02-1.51980E+03-1.11230E+03-3.01845E+01-2.90378E+02-2.38273E+00
 -1      3055-2.98014E+02-1.51351E+03-1.14271E+03 3.48227E+01-2.49944E+02-2.05782E+00
 -1      3056-4.02015E+02-1.47222E+03-1.10790E+03 4.96197E+01-2.22870E+02 6.19417E-01
 -1      3057-5.06410E+02-1.44725E+03-1.07785E+03 4.71309E+01-2.13014E+02 6.98437E+00
 -1      3058-5.95747E+02-1.43970E+03-1.06638E+03 4.21639E+01-2.11488E+02 1.63645E+01
 -1      3059-6.58136E+02-1.43916E+03-1.06570E+03 3.96047E+01-2.12048E+02 2.53812E+01
 -1      3060-6.95435E+02-1.44039E+03-1.06794E+03 3.89081E+01-2.12580E+02 3.21116E+01
 -1      3061-7.15027E+02-1.44135E+03-1.06991E+03 3.89371E+01-2.12828E+02 3.64759E+01
 -1      3062-7.23740E+02-1.44203E+03-1.07132E+03 3.90425E+01-2.12959E+02 3.91360E+01
 -1      3063-7.26260E+02-1.44266E+03-1.07263E+03 3.92215E+01-2.13247E+02 4.06813E+01
 -1      3064-7.25296E+02-1.44330E+03-1.07339E+03 4.00714E+01-2.13973E+02 4.17850E+01
 -1      3065-7.17850E+02-1.44093E+03-1.06953E+03 4.25462E+01-2.15227E+02 4.42051E+01
 -1      3066-6.89562E+02-1.43161E+03-1.05358E+03 4.67660E+01-2.14554E+02 5.09804E+01
 -1      3067-6.16801E+02-1.39842E+03-1.02372E+03 4.78140E+01-2.05872E+02 6.19692E+01
 -1      3068-5.28534E+02-1.36490E+03-1.01137E+03 4.00543E+01-1.72478E+02 6.32756E+01
 -1      3069-4.71565E+02-1.31892E+03-1.09089E+03-2.78487E+01-1.47558E+02 5.86675E+01
 -1      3070-5.84677E+02-1.68941E+03-1.35062E+03-7.36914E+01-3.76285E+02 5.36469E+01
 -1      3071-8.50519E+02-2.36693E+03-1.37231E+03 2.72292E+02-5.11067E+02-3.91970E+01
 -1      3072-9.62076E+01-7.44135E+01-3.51386E+02 3.78592E+02 4.65710E+01-7.45121E+01
 -1      3073-3.37405E+01 1.26226E+02 7.65433E+01 6.89496E+01 1.69549E+02-5.42923E+00
 -1      3074-2.75640E+01 2.69638E+01 7.34809E+01-1.64131E+01 3.86928E+01 8.30129E+00
 -1      3075-1.37050E+02-6.30234E+02-1.33630E+03-5.64211E+02-7.39197E+02-9.33703E+01
 -1      3076-5.71887E+02-1.82862E+03-2.34688E+03-4.17963E+02-1.79257E+03-1.40322E+02
 -1      3077-8.86790E+02-2.07780E+03-2.90784E+03-5.86756E+01-2.13662E+03-6.63572E+01
 -1      3078-1.07134E+03-2.06011E+03-3.02775E+03 7.20632E+01-2.11200E+03 1.19469E+00
 -1      3079-1.16489E+03-2.00310E+03-3.00333E+03 1.00657E+02-2.05325E+03 2.26502E+01
 -1      3080-1.24306E+03-1.96942E+03-2.95756E+03 9.31043E+01-2.01796E+03 2.95865E+01
 -1      3081-1.31758E+03-1.96018E+03-2.93432E+03 8.21464E+01-2.00600E+03 3.62831E+01
 -1      3082-1.37448E+03-1.95989E+03-2.92821E+03 7.68074E+01-2.00337E+03 4.32173E+01
 -1      3083-1.41065E+03-1.96159E+03-2.92865E+03 7.52496E+01-2.00350E+03 4.88353E+01
 -1      3084-1.43041E+03-1.96287E+03-2.93044E+03 7.51919E+01-2.00402E+03 5.26743E+01
 -1      3085-1.43967E+03-1.96379E+03-2.93208E+03 7.53040E+01-2.00456E+03 5.51291E+01
 -1      3086-1.44304E+03-1.96478E+03-2.93348E+03 7.55296E+01-2.00528E+03 5.67471E+01
 -1      3087-1.44238E+03-1.96592E+03-2.93276E+03 7.72117E+01-2.00605E+03 5.84398E+01
 -1      3088-1.43238E+03-1.96397E+03-2.92451E+03 8.18754E+01-2.00489E+03 6.25826E+01
 -1      3089-1.39382E+03-1.95164E+03-2.89410E+03 9.26701E+01-1.99429E+03 7.26197E+01
 -1      3090-1.30433E+03-1.90715E+03-2.84698E+03 9.49577E+01-1.95396E+03 8.64860E+01
 -1      3091-1.23016E+03-1.85503E+03-2.81330E+03 8.99073E+01-1.87578E+03 7.04972E+01
 -1      3092-1.25767E+03-1.80628E+03-2.92380E+03-5.68035E+01-1.80350E+03 1.52587E+01
 -1      3093-1.44166E+03-2.28667E+03-3.49265E+03-2.82092E+02-2.51156E+03 7.02490E+01
 -1      3094-1.72016E+03-3.38395E+03-3.32893E+03 6.74886E+02-3.13363E+03 1.98330E+02
 -1      3095-4.34369E+02-8.42902E+01-1.19816E+03 9.65819E+02-2.96358E+02 2.33979E+02
 -1      3096-7.79610E+01 2.00050E+02-9.71566E+00 8.95928E+01 2.91492E+02 1.38049E+02
 -1      3097 2.51623E+01 5.03008E+01 4.29925E+01-3.49915E+01 5.78531E+01 2.50897E+01
 -1      3098-1.24059E+03-1.08326E+03-4.85824E+03-7.86052E+02-1.22788E+03-5.23520E+02
 -1      3099-3.29102E+03-3.04369E+03-1.08540E+04-5.89840E+02-3.02341E+03-4.81988E+02
 -1      3100-4.12524E+03-3.43219E+03-1.27026E+04-8.68397E+01-3.62967E+03-1.27900E+02
 -1      3101-4.49755E+03-3.43151E+03-1.30400E+04 8.23525E+01-3.64195E+03 6.23990E+01
 -1      3102-4.56211E+03-3.34364E+03-1.28997E+04 1.21384E+02-3.57095E+03 1.07642E+02
 -1      3103-4.58899E+03-3.28871E+03-1.27330E+04 1.13324E+02-3.51975E+03 1.09462E+02
 -1      3104-4.63503E+03-3.27338E+03-1.26545E+04 9.99434E+01-3.49982E+03 1.08832E+02
 -1      3105-4.67970E+03-3.27142E+03-1.26264E+04 9.31144E+01-3.49432E+03 1.11879E+02
 -1      3106-4.71272E+03-3.27308E+03-1.26216E+04 9.08744E+01-3.49396E+03 1.15927E+02
 -1      3107-4.73213E+03-3.27434E+03-1.26227E+04 9.06074E+01-3.49475E+03 1.19230E+02
 -1      3108-4.74198E+03-3.27523E+03-1.26251E+04 9.06837E+01-3.49573E+03 1.21506E+02
 -1      3109-4.74583E+03-3.27630E+03-1.26270E+04 9.10192E+01-3.49684E+03 1.23243E+02
 -1      3110-4.74442E+03-3.27770E+03-1.26244E+04 9.32970E+01-3.49738E+03 1.25979E+02
 -1      3111-4.72468E+03-3.27404E+03-1.25969E+04 9.91592E+01-3.49364E+03 1.33613E+02
 -1      3112-4.66715E+03-3.25564E+03-1.25199E+04 1.12893E+02-3.47476E+03 1.52393E+02
 -1      3113-4.50771E+03-3.17581E+03-1.22949E+04 1.16053E+02-3.41309E+03 1.74881E+02
 -1      3114-4.44073E+03-3.10862E+03-1.21474E+04 1.10837E+02-3.31062E+03 1.44692E+02
 -1      3115-4.48306E+03-3.00313E+03-1.18798E+04-6.26066E+01-3.22450E+03-6.11439E+01
 -1      3116-5.02820E+03-3.76354E+03-1.43904E+04-4.47656E+02-4.21423E+03-4.75299E+01
 -1      3117-6.42606E+03-5.67529E+03-1.77934E+04 9.38537E+02-5.30749E+03 8.29704E+02
 -1      3118-9.53245E+02-3.18909E+01-2.23191E+03 1.39457E+03-6.63507E+02 1.04990E+03
 -1      3119-3.11163E+02 2.46082E+02 3.31730E+01 1.06245E+02 3.21888E+02 3.30222E+02
 -1      3120 6.11562E+01 7.17130E+01-3.15906E+00-3.22365E+01 5.66552E+01 1.60833E+01
 -1      3121-2.32645E+03-1.59396E+03-8.18555E+03-5.67990E+02-8.47685E+02-9.72437E+02
 -1      3122-6.06423E+03-4.35637E+03-1.94620E+04-4.43447E+02-2.19259E+03-8.50518E+02
 -1      3123-7.45016E+03-4.91839E+03-2.27323E+04-7.17369E+01-2.69810E+03-1.98271E+02
 -1      3124-8.00375E+03-4.92932E+03-2.32531E+04 6.32785E+01-2.72069E+03 1.24044E+02
 -1      3125-8.05539E+03-4.81559E+03-2.30161E+04 9.59858E+01-2.67303E+03 1.93704E+02
 -1      3126-8.04000E+03-4.73983E+03-2.27383E+04 9.22665E+01-2.63724E+03 1.90858E+02
 -1      3127-8.06160E+03-4.71837E+03-2.26081E+04 8.28541E+01-2.62274E+03 1.83047E+02
 -1      3128-8.09562E+03-4.71519E+03-2.25610E+04 7.76445E+01-2.61869E+03 1.82245E+02
 -1      3129-8.12609E+03-4.71722E+03-2.25526E+04 7.58369E+01-2.61848E+03 1.84782E+02
 -1      3130-8.14577E+03-4.71898E+03-2.25550E+04 7.55758E+01-2.61920E+03 1.87605E+02
 -1      3131-8.15678E+03-4.72036E+03-2.25601E+04 7.56259E+01-2.62007E+03 1.89752E+02
 -1      3132-8.16164E+03-4.72202E+03-2.25646E+04 7.59770E+01-2.62099E+03 1.91664E+02
 -1      3133-8.15961E+03-4.72408E+03-2.25614E+04 7.77088E+01-2.62134E+03 1.95520E+02
 -1      3134-8.13181E+03-4.71911E+03-2.25183E+04 8.24885E+01-2.61840E+03 2.06834E+02
 -1      3135-8.05545E+03-4.69381E+03-2.23930E+04 9.05068E+01-2.60373E+03 2.34141E+02
 -1      3136-7.84018E+03-4.58150E+03-2.20161E+04 9.34381E+01-2.56194E+03 2.65615E+02
 -1      3137-7.76267E+03-4.49498E+03-2.17254E+04 7.88698E+01-2.48130E+03 2.18052E+02
 -1      3138-7.86898E+03-4.36407E+03-2.12246E+04-3.55222E+01-2.46143E+03-1.39752E+02
 -1      3139-8.59434E+03-5.30320E+03-2.52480E+04-3.04773E+02-3.17921E+03-2.01062E+02
 -1      3140-1.15091E+04-8.19180E+03-3.34844E+04 6.60375E+02-4.01889E+03 1.47706E+03
 -1      3141-1.52006E+03-2.79748E+01-3.38406E+03 1.02597E+03-6.48948E+02 1.93272E+03
 -1      3142-5.67863E+02 2.82661E+02 1.53440E+02 1.14884E+02 2.43883E+02 5.39728E+02
 -1      3143 7.21752E+01 9.03315E+01-5.50857E+01-2.31824E+01 4.92611E+01 3.89960E+00
 -1      3144-2.33383E+03-1.76617E+03-8.15923E+03-2.20378E+02-2.43214E+02-1.13028E+03
 -1      3145-6.30787E+03-4.82503E+03-2.01349E+04-1.84810E+02-7.19847E+02-1.01748E+03
 -1      3146-7.84089E+03-5.45208E+03-2.37178E+04-3.47856E+01-9.42471E+02-2.56875E+02
 -1      3147-8.47999E+03-5.47052E+03-2.43210E+04 2.96368E+01-9.55860E+02 1.31476E+02
 -1      3148-8.54540E+03-5.34025E+03-2.40959E+04 4.70148E+01-9.38535E+02 2.15513E+02
 -1      3149-8.52496E+03-5.25475E+03-2.38145E+04 4.66012E+01-9.26208E+02 2.11679E+02
 -1      3150-8.54057E+03-5.23064E+03-2.36795E+04 4.27491E+01-9.21211E+02 2.01265E+02
 -1      3151-8.57098E+03-5.22712E+03-2.36292E+04 4.03701E+01-9.19887E+02 1.98892E+02
 -1      3152-8.60015E+03-5.22930E+03-2.36195E+04 3.95133E+01-9.19907E+02 2.00770E+02
 -1      3153-8.61955E+03-5.23104E+03-2.36215E+04 3.93908E+01-9.20229E+02 2.03367E+02
 -1      3154-8.63063E+03-5.23235E+03-2.36264E+04 3.94259E+01-9.20591E+02 2.05449E+02
 -1      3155-8.63554E+03-5.23404E+03-2.36308E+04 3.96261E+01-9.20948E+02 2.07442E+02
 -1      3156-8.63258E+03-5.23621E+03-2.36262E+04 4.04400E+01-9.21107E+02 2.11790E+02
 -1      3157-8.60346E+03-5.23109E+03-2.35818E+04 4.27297E+01-9.20059E+02 2.24726E+02
 -1      3158-8.52040E+03-5.20104E+03-2.34441E+04 4.49057E+01-9.14553E+02 2.55009E+02
 -1      3159-8.30898E+03-5.07756E+03-2.30807E+04 4.60001E+01-9.01522E+02 2.90890E+02
 -1      3160-8.22821E+03-4.96851E+03-2.27330E+04 3.25213E+01-8.64587E+02 2.25033E+02
 -1      3161-8.43497E+03-4.85820E+03-2.23971E+04-1.24359E+01-8.90267E+02-1.94009E+02
 -1      3162-9.10156E+03-5.91022E+03-2.65138E+04-9.34090E+01-1.17490E+03-2.59080E+02
 -1      3163-1.22332E+04-9.04811E+03-3.55112E+04 2.44695E+02-1.45718E+03 1.69156E+03
 -1      3164-1.81649E+03-8.84212E+01-4.04948E+03 3.98930E+02-3.43568E+02 2.28354E+03
 -1      3165-6.63167E+02 3.33089E+02 2.30560E+02 7.68076E+01 1.15929E+02 6.69583E+02
 -1      3166 6.57444E+01 1.10994E+02-7.38599E+01-1.11220E+01 3.17655E+01 9.74574E-01
 -1      3167-2.42884E+03-2.09489E+03-8.18147E+03 1.39585E-05-1.12096E-05-1.14733E+03
 -1      3168-6.61858E+03-5.61856E+03-2.04754E+04 1.08043E-05-1.90543E-06-1.04939E+03
 -1      3169-8.22867E+03-6.35412E+03-2.41746E+04 3.23344E-06-2.38079E-06-2.72847E+02
 -1      3170-8.89769E+03-6.38262E+03-2.48092E+04 1.79903E-06-2.76051E-06 1.31619E+02
 -1      3171-8.96373E+03-6.23633E+03-2.45859E+04 8.26527E-07-3.55530E-06 2.20054E+02
 -1      3172-8.93833E+03-6.13845E+03-2.43006E+04 5.38700E-07-3.67852E-06 2.16277E+02
 -1      3173-8.95072E+03-6.10965E+03-2.41635E+04 2.44711E-07-4.38214E-06 2.05446E+02
 -1      3174-8.97952E+03-6.10481E+03-2.41118E+04 7.28338E-07-6.03211E-06 2.02779E+02
 -1      3175-9.00823E+03-6.10691E+03-2.41017E+04 6.46008E-07-5.47987E-06 2.04518E+02
 -1      3176-9.02759E+03-6.10882E+03-2.41036E+04 2.86759E-07-7.32385E-06 2.07061E+02
 -1      3177-9.03881E+03-6.11037E+03-2.41086E+04 8.89344E-07-7.40212E-06 2.09128E+02
 -1      3178-9.04375E+03-6.11225E+03-2.41129E+04 5.53822E-07-7.51550E-06 2.11134E+02
 -1      3179-9.04077E+03-6.11477E+03-2.41083E+04 7.22497E-07-8.19980E-06 2.15601E+02
 -1      3180-9.01026E+03-6.10803E+03-2.40619E+04 7.44317E-07-7.93849E-06 2.28811E+02
 -1      3181-8.92551E+03-6.07460E+03-2.39233E+04 9.74300E-07-9.09787E-06 2.59585E+02
 -1      3182-8.70760E+03-5.93138E+03-2.35529E+04 9.58341E-07-8.26341E-06 2.96192E+02
 -1      3183-8.62691E+03-5.80942E+03-2.31992E+04 1.65942E-06-9.54325E-06 2.23101E+02
 -1      3184-8.84369E+03-5.67088E+03-2.28847E+04 9.47647E-07-8.51162E-06-2.07700E+02
 -1      3185-9.56086E+03-6.89173E+03-2.71083E+04-8.89476E-07-1.43103E-05-2.62585E+02
 -1      3186-1.28660E+04-1.03920E+04-3.64060E+04 1.15494E-06-1.17927E-05 1.72152E+03
 -1      3187-1.90561E+03-1.43785E+02-4.22462E+03 8.23034E-07-3.93525E-06 2.34272E+03
 -1      3188-6.92199E+02 3.51109E+02 2.41814E+02-1.39531E-06 2.24888E-06 7.07901E+02
 -1      3189 6.48764E+01 1.21848E+02-7.38761E+01-8.20765E-07 8.09464E-07 1.75689E+00
 -1      3190-2.33383E+03-1.76617E+03-8.15923E+03 2.20378E+02 2.43214E+02-1.13028E+03
 -1      3191-6.30787E+03-4.82503E+03-2.01349E+04 1.84810E+02 7.19847E+02-1.01748E+03
 -1      3192-7.84089E+03-5.45208E+03-2.37178E+04 3.47856E+01 9.42471E+02-2.56875E+02
 -1      3193-8.47999E+03-5.47052E+03-2.43210E+04-2.96368E+01 9.55860E+02 1.31476E+02
 -1      3194-8.54540E+03-5.34025E+03-2.40959E+04-4.70148E+01 9.38535E+02 2.15513E+02
 -1      3195-8.52496E+03-5.25475E+03-2.38145E+04-4.66012E+01 9.26208E+02 2.11679E+02
 -1      3196-8.54057E+03-5.23064E+03-2.36795E+04-4.27491E+01 9.21211E+02 2.01265E+02
 -1      3197-8.57098E+03-5.22712E+03-2.36292E+04-4.03701E+01 9.19887E+02 1.98892E+02
 -1      3198-8.60015E+03-5.22930E+03-2.36195E+04-3.95133E+01 9.19907E+02 2.00770E+02
 -1      3199-8.61955E+03-5.23104E+03-2.36215E+04-3.93908E+01 9.20229E+02 2.03367E+02
 -1      3200-8.63063E+03-5.23235E+03-2.36264E+04-3.94259E+01 9.20591E+02 2.05449E+02
 -1      3201-8.63554E+03-5.23404E+03-2.36308E+04-3.96261E+01 9.20948E+02 2.07442E+02
 -1      3202-8.63258E+03-5.23621E+03-2.36262E+04-4.04400E+01 9.21107E+02 2.11790E+02
 -1      3203-8.60346E+03-5.23109E+03-2.35818E+04-4.27297E+01 9.20059E+02 2.24726E+02
 -1      3204-8.52040E+03-5.20104E+03-2.34441E+04-4.49057E+01 9.14553E+02 2.55009E+02
 -1      3205-8.30898E+03-5.07756E+03-2.30807E+04-4.60001E+01 9.01522E+02 2.90890E+02
 -1      3206-8.22821E+03-4.96851E+03-2.27330E+04-3.25213E+01 8.64587E+02 2.25033E+02
 -1      3207-8.43497E+03-4.85820E+03-2.23971E+04 1.24359E+01 8.90267E+02-1.94009E+02
 -1      3208-9.10156E+03-5.91022E+03-2.65138E+04 9.34090E+01 1.17490E+03-2.59080E+02
 -1      3209-1.22332E+04-9.04811E+03-3.55112E+04-2.44695E+02 1.45718E+03 1.69156E+03
 -1      3210-1.81649E+03-8.84212E+01-4.04948E+03-3.98930E+02 3.43568E+02 2.28354E+03
 -1      3211-6.63167E+02 3.33089E+02 2.30560E+02-7.68076E+01-1.15929E+02 6.69583E+02
 -1      3212 6.57444E+01 1.10994E+02-7.38599E+01 1.11220E+01-3.17655E+01 9.74574E-01
 -1      3213-2.32645E+03-1.59396E+03-8.18555E+03 5.67990E+02 8.47685E+02-9.72437E+02
 -1      3214-6.06423E+03-4.35637E+03-1.94620E+04 4.43447E+02 2.19259E+03-8.50518E+02
 -1      3215-7.45016E+03-4.91839E+03-2.27323E+04 7.17369E+01 2.69810E+03-1.98271E+02
 -1      3216-8.00375E+03-4.92932E+03-2.32531E+04-6.32785E+01 2.72069E+03 1.24044E+02
 -1      3217-8.05539E+03-4.81559E+03-2.30161E+04-9.59858E+01 2.67303E+03 1.93704E+02
 -1      3218-8.04000E+03-4.73983E+03-2.27383E+04-9.22665E+01 2.63724E+03 1.90858E+02
 -1      3219-8.06160E+03-4.71837E+03-2.26081E+04-8.28541E+01 2.62274E+03 1.83047E+02
 -1      3220-8.09562E+03-4.71519E+03-2.25610E+04-7.76445E+01 2.61869E+03 1.82245E+02
 -1      3221-8.12609E+03-4.71722E+03-2.25526E+04-7.58369E+01 2.61848E+03 1.84782E+02
 -1      3222-8.14577E+03-4.71898E+03-2.25550E+04-7.55758E+01 2.61920E+03 1.87605E+02
 -1      3223-8.15678E+03-4.72036E+03-2.25601E+04-7.56259E+01 2.62007E+03 1.89752E+02
 -1      3224-8.16164E+03-4.72202E+03-2.25646E+04-7.59770E+01 2.62099E+03 1.91664E+02
 -1      3225-8.15961E+03-4.72408E+03-2.25614E+04-7.77088E+01 2.62134E+03 1.95520E+02
 -1      3226-8.13181E+03-4.71911E+03-2.25183E+04-8.24885E+01 2.61840E+03 2.06834E+02
 -1      3227-8.05545E+03-4.69381E+03-2.23930E+04-9.05067E+01 2.60373E+03 2.34141E+02
 -1      3228-7.84018E+03-4.58150E+03-2.20161E+04-9.34381E+01 2.56194E+03 2.65615E+02
 -1      3229-7.76267E+03-4.49498E+03-2.17254E+04-7.88698E+01 2.48130E+03 2.18052E+02
 -1      3230-7.86898E+03-4.36407E+03-2.12246E+04 3.55222E+01 2.46143E+03-1.39752E+02
 -1      3231-8.59434E+03-5.30320E+03-2.52480E+04 3.04773E+02 3.17921E+03-2.01062E+02
 -1      3232-1.15091E+04-8.19180E+03-3.34844E+04-6.60375E+02 4.01889E+03 1.47706E+03
 -1      3233-1.52006E+03-2.79748E+01-3.38406E+03-1.02597E+03 6.48948E+02 1.93272E+03
 -1      3234-5.67863E+02 2.82661E+02 1.53440E+02-1.14884E+02-2.43883E+02 5.39728E+02
 -1      3235 7.21752E+01 9.03315E+01-5.50857E+01 2.31824E+01-4.92611E+01 3.89960E+00
 -1      3236-1.24059E+03-1.08326E+03-4.85824E+03 7.86052E+02 1.22788E+03-5.23520E+02
 -1      3237-3.29102E+03-3.04369E+03-1.08540E+04 5.89840E+02 3.02341E+03-4.81988E+02
 -1      3238-4.12524E+03-3.43219E+03-1.27026E+04 8.68397E+01 3.62967E+03-1.27900E+02
 -1      3239-4.49755E+03-3.43151E+03-1.30400E+04-8.23525E+01 3.64195E+03 6.23990E+01
 -1      3240-4.56211E+03-3.34364E+03-1.28997E+04-1.21384E+02 3.57095E+03 1.07642E+02
 -1      3241-4.58899E+03-3.28871E+03-1.27330E+04-1.13324E+02 3.51975E+03 1.09462E+02
 -1      3242-4.63503E+03-3.27338E+03-1.26545E+04-9.99434E+01 3.49982E+03 1.08832E+02
 -1      3243-4.67970E+03-3.27142E+03-1.26264E+04-9.31144E+01 3.49432E+03 1.11879E+02
 -1      3244-4.71272E+03-3.27308E+03-1.26216E+04-9.08744E+01 3.49396E+03 1.15927E+02
 -1      3245-4.73213E+03-3.27434E+03-1.26227E+04-9.06074E+01 3.49475E+03 1.19230E+02
 -1      3246-4.74198E+03-3.27523E+03-1.26251E+04-9.06837E+01 3.49573E+03 1.21506E+02
 -1      3247-4.74583E+03-3.27630E+03-1.26270E+04-9.10192E+01 3.49684E+03 1.23243E+02
 -1      3248-4.74442E+03-3.27770E+03-1.26244E+04-9.32970E+01 3.49738E+03 1.25979E+02
 -1      3249-4.72468E+03-3.27404E+03-1.25969E+04-9.91592E+01 3.49364E+03 1.33613E+02
 -1      3250-4.66715E+03-3.25564E+03-1.25199E+04-1.12893E+02 3.47476E+03 1.52393E+02
 -1      3251-4.50771E+03-3.17581E+03-1.22949E+04-1.16053E+02 3.41309E+03 1.74881E+02
 -1      3252-4.44073E+03-3.10862E+03-1.21474E+04-1.10837E+02 3.31062E+03 1.44692E+02
 -1      3253-4.48306E+03-3.00313E+03-1.18798E+04 6.26066E+01 3.22450E+03-6.11439E+01
 -1      3254-5.02820E+03-3.76354E+03-1.43904E+04 4.47656E+02 4.21423E+03-4.75299E+01
 -1      3255-6.42606E+03-5.67529E+03-1.77934E+04-9.38537E+02 5.30749E+03 8.29704E+02
 -1      3256-9.53245E+02-3.18909E+01-2.23191E+03-1.39457E+03 6.63507E+02 1.04990E+03
 -1      3257-3.11163E+02 2.46082E+02 3.31730E+01-1.06245E+02-3.21888E+02 3.30222E+02
 -1      3258 6.11562E+01 7.17130E+01-3.15906E+00 3.22365E+01-5.66552E+01 1.60833E+01
 -1      3259-1.37050E+02-6.30234E+02-1.33630E+03 5.64211E+02 7.39197E+02-9.33703E+01
 -1      3260-5.71887E+02-1.82862E+03-2.34688E+03 4.17963E+02 1.79257E+03-1.40322E+02
 -1      3261-8.86790E+02-2.07780E+03-2.90784E+03 5.86756E+01 2.13662E+03-6.63572E+01
 -1      3262-1.07134E+03-2.06011E+03-3.02775E+03-7.20632E+01 2.11200E+03 1.19469E+00
 -1      3263-1.16489E+03-2.00310E+03-3.00333E+03-1.00657E+02 2.05325E+03 2.26502E+01
 -1      3264-1.24306E+03-1.96942E+03-2.95756E+03-9.31043E+01 2.01796E+03 2.95865E+01
 -1      3265-1.31758E+03-1.96018E+03-2.93432E+03-8.21464E+01 2.00600E+03 3.62831E+01
 -1      3266-1.37448E+03-1.95989E+03-2.92821E+03-7.68074E+01 2.00337E+03 4.32173E+01
 -1      3267-1.41065E+03-1.96159E+03-2.92865E+03-7.52496E+01 2.00350E+03 4.88353E+01
 -1      3268-1.43041E+03-1.96287E+03-2.93044E+03-7.51919E+01 2.00402E+03 5.26743E+01
 -1      3269-1.43967E+03-1.96379E+03-2.93208E+03-7.53040E+01 2.00456E+03 5.51290E+01
 -1      3270-1.44304E+03-1.96478E+03-2.93348E+03-7.55296E+01 2.00528E+03 5.67471E+01
 -1      3271-1.44238E+03-1.96592E+03-2.93276E+03-7.72117E+01 2.00605E+03 5.84398E+01
 -1      3272-1.43238E+03-1.96397E+03-2.92451E+03-8.18754E+01 2.00489E+03 6.25826E+01
 -1      3273-1.39382E+03-1.95164E+03-2.89410E+03-9.26701E+01 1.99429E+03 7.26197E+01
 -1      3274-1.30433E+03-1.90715E+03-2.84698E+03-9.49577E+01 1.95396E+03 8.64860E+01
 -1      3275-1.23016E+03-1.85503E+03-2.81330E+03-8.99073E+01 1.87578E+03 7.04972E+01
 -1      3276-1.25767E+03-1.80628E+03-2.92380E+03 5.68035E+01 1.80350E+03 1.52587E+01
 -1      3277-1.44166E+03-2.28667E+03-3.49265E+03 2.82092E+02 2.51156E+03 7.02490E+01
 -1      3278-1.72016E+03-3.38395E+03-3.32893E+03-6.74886E+02 3.13363E+03 1.98330E+02
 -1      3279-4.34369E+02-8.42902E+01-1.19816E+03-9.65819E+02 2.96358E+02 2.33979E+02
 -1      3280-7.79610E+01 2.00050E+02-9.71566E+00-8.95928E+01-2.91492E+02 1.38049E+02
 -1      3281 2.51623E+01 5.03008E+01 4.29925E+01 3.49915E+01-5.78531E+01 2.50897E+01
 -1      3282 5.18883E+01-4.79693E+02-5.44704E+02 2.38774E+02 9.15727E+01 7.40274E+01
 -1      3283-9.20666E+01-1.34268E+03-9.32963E+02 1.77406E+02 2.46077E+02 1.86693E+01
 -1      3284-1.89212E+02-1.51980E+03-1.11230E+03 3.01845E+01 2.90378E+02-2.38273E+00
 -1      3285-2.98014E+02-1.51351E+03-1.14271E+03-3.48227E+01 2.49944E+02-2.05781E+00
 -1      3286-4.02015E+02-1.47222E+03-1.10790E+03-4.96197E+01 2.22870E+02 6.19417E-01
 -1      3287-5.06410E+02-1.44725E+03-1.07785E+03-4.71309E+01 2.13014E+02 6.98437E+00
 -1      3288-5.95747E+02-1.43970E+03-1.06638E+03-4.21639E+01 2.11488E+02 1.63645E+01
 -1      3289-6.58136E+02-1.43916E+03-1.06570E+03-3.96047E+01 2.12048E+02 2.53812E+01
 -1      3290-6.95435E+02-1.44039E+03-1.06794E+03-3.89081E+01 2.12580E+02 3.21116E+01
 -1      3291-7.15027E+02-1.44135E+03-1.06991E+03-3.89371E+01 2.12828E+02 3.64759E+01
 -1      3292-7.23740E+02-1.44203E+03-1.07132E+03-3.90425E+01 2.12959E+02 3.91360E+01
 -1      3293-7.26260E+02-1.44266E+03-1.07263E+03-3.92215E+01 2.13247E+02 4.06813E+01
 -1      3294-7.25296E+02-1.44330E+03-1.07339E+03-4.00714E+01 2.13973E+02 4.17850E+01
 -1      3295-7.17850E+02-1.44093E+03-1.06953E+03-4.25462E+01 2.15227E+02 4.42051E+01
 -1      3296-6.89562E+02-1.43161E+03-1.05358E+03-4.67660E+01 2.14554E+02 5.09804E+01
 -1      3297-6.16801E+02-1.39842E+03-1.02372E+03-4.78140E+01 2.05872E+02 6.19692E+01
 -1      3298-5.28534E+02-1.36490E+03-1.01137E+03-4.00543E+01 1.72479E+02 6.32756E+01
 -1      3299-4.71565E+02-1.31892E+03-1.09089E+03 2.78488E+01 1.47558E+02 5.86675E+01
 -1      3300-5.84677E+02-1.68941E+03-1.35062E+03 7.36914E+01 3.76285E+02 5.36469E+01
 -1      3301-8.50519E+02-2.36693E+03-1.37231E+03-2.72292E+02 5.11067E+02-3.91970E+01
 -1      3302-9.62076E+01-7.44135E+01-3.51386E+02-3.78592E+02-4.65710E+01-7.45121E+01
 -1      3303-3.37405E+01 1.26226E+02 7.65433E+01-6.89496E+01-1.69549E+02-5.42923E+00
 -1      3304-2.75640E+01 2.69638E+01 7.34809E+01 1.64130E+01-3.86928E+01 8.30129E+00
 -3
    1PSTEP                        15           5           1          
  100CL  105 9.12500E-01        3304                     0    5           1
 -4  ERROR       1    1
 -5  STR(%)      1    1    0    0
 -1         1 1.54901E+01
 -1         2 2.19234E+01
 -1         3 1.54901E+01
 -1         4 2.19234E+01
 -1         5 1.37329E+01
 -1         6 1.34061E+01
 -1         7 1.30389E+01
 -1         8 1.28865E+01
 -1         9 1.37329E+01
 -1        10 1.34061E+01
 -1        11 1.54901E+01
 -1        12 2.19234E+01
 -1        13 1.54901E+01
 -1        14 2.19234E+01
 -1        15 1.69191E+01
 -1        16 2.19234E+01
 -1        17 1.69191E+01
 -1        18 2.19234E+01
 -1        19 1.50913E+01
 -1        20 1.72353E+01
 -1        21 1.44444E+01
 -1        22 1.72353E+01
 -1        23 1.50913E+01
 -1        24 1.72353E+01
 -1        25 1.69191E+01
 -1        26 2.19234E+01
 -1        27 1.69191E+01
 -1        28 2.19234E+01
 -1        29 1.89201E+01
 -1        30 1.43096E+01
 -1        31 1.89201E+01
 -1        32 2.30518E+01
 -1        33 1.73123E+01
 -1        34 2.33939E+01
 -1        35 1.64128E+01
 -1        36 2.33939E+01
 -1        37 1.73123E+01
 -1        38 2.33939E+01
 -1        39 1.89201E+01
 -1        40 2.30518E+01
 -1        41 1.89201E+01
 -1        42 1.43096E+01
 -1        43 2.20057E+01
 -1        44 1.81080E+01
 -1        45 2.20057E+01
 -1        46 3.07991E+01
 -1        47 2.03959E+01
 -1        48 3.07991E+01
 -1        49 1.90114E+01
 -1        50 2.92443E+01
 -1        51 2.03959E+01
 -1        52 3.07991E+01
 -1        53 2.20057E+01
 -1        54 3.07991E+01
 -1        55 2.20057E+01
 -1        56 1.81080E+01
 -1        57 2.84510E+01
 -1        58 3.95342E+01
 -1        59 2.84510E+01
 -1        60 3.95342E+01
 -1        61 2.41614E+01
 -1        62 3.72292E+01
 -1        63 2.28157E+01
 -1        64 2.92443E+01
 -1        65 2.41614E+01
 -1        66 3.72292E+01
 -1        67 2.84510E+01
 -1        68 3.95342E+01
 -1        69 2.84510E+01
 -1        70 3.95342E+01
 -1        71 3.86943E+01
 -1        72 3.95342E+01
 -1        73 3.86943E+01
 -1        74 3.95342E+01
 -1        75 2.95215E+01
 -1        76 3.72292E+01
 -1        77 2.78466E+01
 -1        78 2.77209E+01
 -1        79 2.95215E+01
 -1        80 3.72292E+01
 -1        81 3.86943E+01
 -1        82 3.95342E+01
 -1        83 3.86943E+01
 -1        84 3.95342E+01
 -1        85 3.86943E+01
 -1        86 3.78648E+01
 -1        87 3.86943E+01
 -1        88 3.78648E+01
 -1        89 2.95215E+01
 -1        90 3.02603E+01
 -1        91 2.78466E+01
 -1        92 2.77209E+01
 -1        93 2.95215E+01
 -1        94 3.02603E+01
 -1        95 3.86943E+01
 -1        96 3.78648E+01
 -1        97 3.86943E+01
 -1        98 3.78648E+01
 -1        99 1.54901E+01
 -1       100 1.54901E+01
 -1       101 3.21387E+00
 -1       102 3.21387E+00
 -1       103 9.19485E-01
 -1       104 9.19485E-01
 -1       105 3.08924E-01
 -1       106 3.08924E-01
 -1       107 2.40445E-01
 -1       108 2.40445E-01
 -1       109 1.04832E-01
 -1       110 1.04832E-01
 -1       111 3.90867E-02
 -1       112 3.90867E-02
 -1       113 4.65835E-02
 -1       114 4.65835E-02
 -1       115 4.74093E-02
 -1       116 4.74093E-02
 -1       117 4.74093E-02
 -1       118 4.74093E-02
 -1       119 4.72385E-02
 -1       120 4.72385E-02
 -1       121 4.71567E-02
 -1       122 4.71568E-02
 -1       123 4.47390E-02
 -1       124 4.47390E-02
 -1       125 7.23230E-02
 -1       126 7.23230E-02
 -1       127 2.07983E-01
 -1       128 2.07983E-01
 -1       129 4.38167E-01
 -1       130 4.38167E-01
 -1       131 4.38167E-01
 -1       132 4.38167E-01
 -1       133 3.39275E+00
 -1       134 3.39275E+00
 -1       135 2.19234E+01
 -1       136 2.19234E+01
 -1       137 1.69191E+01
 -1       138 1.69191E+01
 -1       139 3.49129E+00
 -1       140 3.49129E+00
 -1       141 9.19485E-01
 -1       142 9.19485E-01
 -1       143 3.90015E-01
 -1       144 3.90015E-01
 -1       145 2.82662E-01
 -1       146 2.82662E-01
 -1       147 1.28653E-01
 -1       148 1.28653E-01
 -1       149 1.11226E-01
 -1       150 1.11226E-01
 -1       151 1.17071E-01
 -1       152 1.17071E-01
 -1       153 1.17071E-01
 -1       154 1.17071E-01
 -1       155 1.16080E-01
 -1       156 1.16080E-01
 -1       157 1.14391E-01
 -1       158 1.14391E-01
 -1       159 1.12382E-01
 -1       160 1.12382E-01
 -1       161 1.08273E-01
 -1       162 1.08273E-01
 -1       163 1.35289E-01
 -1       164 1.35289E-01
 -1       165 2.98391E-01
 -1       166 2.98391E-01
 -1       167 6.98427E-01
 -1       168 6.98427E-01
 -1       169 9.62799E-01
 -1       170 9.62799E-01
 -1       171 3.39275E+00
 -1       172 3.39275E+00
 -1       173 2.19234E+01
 -1       174 2.19234E+01
 -1       175 1.89201E+01
 -1       176 1.89201E+01
 -1       177 3.72424E+00
 -1       178 3.72424E+00
 -1       179 7.65313E-01
 -1       180 7.65313E-01
 -1       181 7.62680E-01
 -1       182 7.62680E-01
 -1       183 4.96677E-01
 -1       184 4.96677E-01
 -1       185 3.91879E-01
 -1       186 3.91879E-01
 -1       187 4.15675E-01
 -1       188 4.15675E-01
 -1       189 4.17417E-01
 -1       190 4.17417E-01
 -1       191 4.17417E-01
 -1       192 4.17417E-01
 -1       193 4.14504E-01
 -1       194 4.14504E-01
 -1       195 4.11132E-01
 -1       196 4.11132E-01
 -1       197 4.07247E-01
 -1       198 4.07247E-01
 -1       199 4.01620E-01
 -1       200 4.01620E-01
 -1       201 4.17451E-01
 -1       202 4.17451E-01
 -1       203 5.50370E-01
 -1       204 5.50370E-01
 -1       205 1.03059E+00
 -1       206 1.03059E+00
 -1       207 1.55680E+00
 -1       208 1.55680E+00
 -1       209 2.18010E+00
 -1       210 2.18010E+00
 -1       211 1.43096E+01
 -1       212 1.43096E+01
 -1       213 2.20057E+01
 -1       214 2.20057E+01
 -1       215 3.83790E+00
 -1       216 3.83790E+00
 -1       217 1.42125E+00
 -1       218 1.42125E+00
 -1       219 1.42125E+00
 -1       220 1.42125E+00
 -1       221 1.07407E+00
 -1       222 1.07407E+00
 -1       223 1.13575E+00
 -1       224 1.13575E+00
 -1       225 1.14181E+00
 -1       226 1.14181E+00
 -1       227 1.14181E+00
 -1       228 1.14181E+00
 -1       229 1.13812E+00
 -1       230 1.13812E+00
 -1       231 1.13194E+00
 -1       232 1.13194E+00
 -1       233 1.12619E+00
 -1       234 1.12619E+00
 -1       235 1.11968E+00
 -1       236 1.11968E+00
 -1       237 1.11081E+00
 -1       238 1.11081E+00
 -1       239 1.10827E+00
 -1       240 1.10827E+00
 -1       241 1.18477E+00
 -1       242 1.18477E+00
 -1       243 1.50833E+00
 -1       244 1.50833E+00
 -1       245 2.73722E+00
 -1       246 2.73722E+00
 -1       247 2.73722E+00
 -1       248 2.73722E+00
 -1       249 1.81080E+01
 -1       250 1.81080E+01
 -1       251 2.84510E+01
 -1       252 2.84510E+01
 -1       253 4.22609E+00
 -1       254 4.22609E+00
 -1       255 4.22609E+00
 -1       256 4.22609E+00
 -1       257 3.23318E+00
 -1       258 3.23318E+00
 -1       259 2.86446E+00
 -1       260 2.86446E+00
 -1       261 2.84566E+00
 -1       262 2.84566E+00
 -1       263 2.83705E+00
 -1       264 2.83705E+00
 -1       265 2.82447E+00
 -1       266 2.82447E+00
 -1       267 2.81083E+00
 -1       268 2.81083E+00
 -1       269 2.79981E+00
 -1       270 2.79981E+00
 -1       271 2.78970E+00
 -1       272 2.78970E+00
 -1       273 2.77842E+00
 -1       274 2.77842E+00
 -1       275 2.76471E+00
 -1       276 2.76471E+00
 -1       277 2.74899E+00
 -1       278 2.74899E+00
 -1       279 2.80594E+00
 -1       280 2.80594E+00
 -1       281 3.02167E+00
 -1       282 3.02167E+00
 -1       283 3.93379E+00
 -1       284 3.93379E+00
 -1       285 8.56506E+00
 -1       286 8.56506E+00
 -1       287 3.95342E+01
 -1       288 3.95342E+01
 -1       289 3.86943E+01
 -1       290 3.86943E+01
 -1       291 3.69684E+01
 -1       292 3.69684E+01
 -1       293 1.29968E+01
 -1       294 1.29968E+01
 -1       295 1.17278E+01
 -1       296 1.17278E+01
 -1       297 1.17278E+01
 -1       298 1.17278E+01
 -1       299 1.13452E+01
 -1       300 1.13452E+01
 -1       301 1.11591E+01
 -1       302 1.11591E+01
 -1       303 1.10476E+01
 -1       304 1.10476E+01
 -1       305 1.09810E+01
 -1       306 1.09810E+01
 -1       307 1.09261E+01
 -1       308 1.09261E+01
 -1       309 1.08731E+01
 -1       310 1.08731E+01
 -1       311 1.08178E+01
 -1       312 1.08178E+01
 -1       313 1.07556E+01
 -1       314 1.07556E+01
 -1       315 1.06860E+01
 -1       316 1.06860E+01
 -1       317 1.05948E+01
 -1       318 1.05948E+01
 -1       319 1.05735E+01
 -1       320 1.05735E+01
 -1       321 1.20411E+01
 -1       322 1.20411E+01
 -1       323 1.86756E+01
 -1       324 1.86756E+01
 -1       325 3.95342E+01
 -1       326 3.95342E+01
 -1       327 3.86943E+01
 -1       328 3.86943E+01
 -1       329 3.69684E+01
 -1       330 3.69684E+01
 -1       331 1.29968E+01
 -1       332 1.29968E+01
 -1       333 1.17278E+01
 -1       334 1.17278E+01
 -1       335 1.17278E+01
 -1       336 1.17278E+01
 -1       337 1.13452E+01
 -1       338 1.13452E+01
 -1       339 1.11591E+01
 -1       340 1.11591E+01
 -1       341 1.10476E+01
 -1       342 1.10476E+01
 -1       343 1.09810E+01
 -1       344 1.09810E+01
 -1       345 1.09261E+01
 -1       346 1.09261E+01
 -1       347 1.08731E+01
 -1       348 1.08731E+01
 -1       349 1.08178E+01
 -1       350 1.08178E+01
 -1       351 1.07556E+01
 -1       352 1.07556E+01
 -1       353 1.06860E+01
 -1       354 1.06860E+01
 -1       355 1.05948E+01
 -1       356 1.05948E+01
 -1       357 1.05735E+01
 -1       358 1.05735E+01
 -1       359 1.20411E+01
 -1       360 1.20411E+01
 -1       361 1.86756E+01
 -1       362 1.86756E+01
 -1       363 3.78648E+01
 -1       364 3.78648E+01
 -1       365 1.54901E+01
 -1       366 3.86943E+01
 -1       367 3.21387E+00
 -1       368 3.69684E+01
 -1       369 9.19485E-01
 -1       370 1.29968E+01
 -1       371 3.08924E-01
 -1       372 1.17278E+01
 -1       373 3.02505E-01
 -1       374 1.17278E+01
 -1       375 1.98045E-01
 -1       376 1.13452E+01
 -1       377 1.34713E-01
 -1       378 1.11591E+01
 -1       379 1.34429E-01
 -1       380 1.10476E+01
 -1       381 1.35419E-01
 -1       382 1.09810E+01
 -1       383 1.35684E-01
 -1       384 1.09261E+01
 -1       385 1.36092E-01
 -1       386 1.08731E+01
 -1       387 1.36092E-01
 -1       388 1.08178E+01
 -1       389 1.34100E-01
 -1       390 1.07556E+01
 -1       391 1.46948E-01
 -1       392 1.06860E+01
 -1       393 2.24793E-01
 -1       394 1.05948E+01
 -1       395 4.74707E-01
 -1       396 1.05735E+01
 -1       397 4.74707E-01
 -1       398 1.20411E+01
 -1       399 3.39275E+00
 -1       400 1.86756E+01
 -1       401 2.19234E+01
 -1       402 3.78648E+01
 -1       403 1.37329E+01
 -1       404 2.95215E+01
 -1       405 2.77687E+00
 -1       406 8.03104E+00
 -1       407 7.64009E-01
 -1       408 2.49240E+00
 -1       409 3.02505E-01
 -1       410 2.52270E+00
 -1       411 3.02505E-01
 -1       412 2.52270E+00
 -1       413 1.98045E-01
 -1       414 2.47341E+00
 -1       415 1.34713E-01
 -1       416 2.43987E+00
 -1       417 1.34429E-01
 -1       418 2.42090E+00
 -1       419 1.35419E-01
 -1       420 2.41004E+00
 -1       421 1.35684E-01
 -1       422 2.40260E+00
 -1       423 1.36092E-01
 -1       424 2.39559E+00
 -1       425 1.36092E-01
 -1       426 2.38725E+00
 -1       427 1.34100E-01
 -1       428 2.37569E+00
 -1       429 1.46948E-01
 -1       430 2.36279E+00
 -1       431 2.24793E-01
 -1       432 2.42296E+00
 -1       433 4.74707E-01
 -1       434 2.52753E+00
 -1       435 4.74707E-01
 -1       436 2.96040E+00
 -1       437 2.43847E+00
 -1       438 1.09961E+01
 -1       439 1.34061E+01
 -1       440 3.02603E+01
 -1       441 1.30389E+01
 -1       442 2.78466E+01
 -1       443 2.72786E+00
 -1       444 8.03104E+00
 -1       445 6.21710E-01
 -1       446 1.40177E+00
 -1       447 2.75098E-01
 -1       448 1.61296E+00
 -1       449 2.75098E-01
 -1       450 1.61296E+00
 -1       451 1.90179E-01
 -1       452 1.56181E+00
 -1       453 1.23888E-01
 -1       454 1.53208E+00
 -1       455 1.25059E-01
 -1       456 1.51152E+00
 -1       457 1.26233E-01
 -1       458 1.50179E+00
 -1       459 1.26580E-01
 -1       460 1.49618E+00
 -1       461 1.27059E-01
 -1       462 1.49138E+00
 -1       463 1.27059E-01
 -1       464 1.48494E+00
 -1       465 1.25117E-01
 -1       466 1.47477E+00
 -1       467 1.39868E-01
 -1       468 1.45947E+00
 -1       469 2.00934E-01
 -1       470 1.50137E+00
 -1       471 3.44222E-01
 -1       472 1.78314E+00
 -1       473 3.44222E-01
 -1       474 2.36328E+00
 -1       475 1.91226E+00
 -1       476 8.19126E+00
 -1       477 1.28865E+01
 -1       478 2.77209E+01
 -1       479 1.37329E+01
 -1       480 2.95215E+01
 -1       481 2.77687E+00
 -1       482 8.03104E+00
 -1       483 7.64009E-01
 -1       484 2.49240E+00
 -1       485 3.02505E-01
 -1       486 2.52270E+00
 -1       487 3.02505E-01
 -1       488 2.52270E+00
 -1       489 1.98045E-01
 -1       490 2.47341E+00
 -1       491 1.34713E-01
 -1       492 2.43987E+00
 -1       493 1.34429E-01
 -1       494 2.42090E+00
 -1       495 1.35419E-01
 -1       496 2.41004E+00
 -1       497 1.35684E-01
 -1       498 2.40260E+00
 -1       499 1.36092E-01
 -1       500 2.39559E+00
 -1       501 1.36092E-01
 -1       502 2.38725E+00
 -1       503 1.34100E-01
 -1       504 2.37569E+00
 -1       505 1.46948E-01
 -1       506 2.36279E+00
 -1       507 2.24793E-01
 -1       508 2.42296E+00
 -1       509 4.74707E-01
 -1       510 2.52753E+00
 -1       511 4.74707E-01
 -1       512 2.96040E+00
 -1       513 2.43847E+00
 -1       514 1.09961E+01
 -1       515 1.34061E+01
 -1       516 3.02603E+01
 -1       517 1.54901E+01
 -1       518 3.86943E+01
 -1       519 3.21387E+00
 -1       520 3.69684E+01
 -1       521 9.19485E-01
 -1       522 1.29968E+01
 -1       523 3.08924E-01
 -1       524 1.17278E+01
 -1       525 3.02505E-01
 -1       526 1.17278E+01
 -1       527 1.98045E-01
 -1       528 1.13452E+01
 -1       529 1.34713E-01
 -1       530 1.11591E+01
 -1       531 1.34429E-01
 -1       532 1.10476E+01
 -1       533 1.35419E-01
 -1       534 1.09810E+01
 -1       535 1.35684E-01
 -1       536 1.09261E+01
 -1       537 1.36092E-01
 -1       538 1.08731E+01
 -1       539 1.36092E-01
 -1       540 1.08178E+01
 -1       541 1.34100E-01
 -1       542 1.07556E+01
 -1       543 1.46948E-01
 -1       544 1.06860E+01
 -1       545 2.24793E-01
 -1       546 1.05948E+01
 -1       547 4.74707E-01
 -1       548 1.05735E+01
 -1       549 4.74707E-01
 -1       550 1.20411E+01
 -1       551 3.39275E+00
 -1       552 1.86756E+01
 -1       553 2.19234E+01
 -1       554 3.78648E+01
 -1       555 1.69191E+01
 -1       556 3.49129E+00
 -1       557 9.19485E-01
 -1       558 5.32407E-01
 -1       559 5.29815E-01
 -1       560 3.77033E-01
 -1       561 3.01617E-01
 -1       562 2.98014E-01
 -1       563 2.99074E-01
 -1       564 2.99685E-01
 -1       565 3.00675E-01
 -1       566 3.00675E-01
 -1       567 2.99558E-01
 -1       568 2.89137E-01
 -1       569 3.04817E-01
 -1       570 7.08145E-01
 -1       571 9.62799E-01
 -1       572 3.39275E+00
 -1       573 2.19234E+01
 -1       574 1.50913E+01
 -1       575 2.97502E+00
 -1       576 8.65101E-01
 -1       577 5.86092E-01
 -1       578 5.29815E-01
 -1       579 3.77033E-01
 -1       580 3.01617E-01
 -1       581 2.98014E-01
 -1       582 2.99074E-01
 -1       583 2.99685E-01
 -1       584 3.00675E-01
 -1       585 3.00675E-01
 -1       586 2.99558E-01
 -1       587 2.89137E-01
 -1       588 3.04817E-01
 -1       589 7.08145E-01
 -1       590 7.97614E-01
 -1       591 2.43847E+00
 -1       592 1.72353E+01
 -1       593 1.44444E+01
 -1       594 2.80757E+00
 -1       595 7.22266E-01
 -1       596 5.86092E-01
 -1       597 4.89699E-01
 -1       598 3.58430E-01
 -1       599 2.80874E-01
 -1       600 2.79141E-01
 -1       601 2.80422E-01
 -1       602 2.81123E-01
 -1       603 2.82187E-01
 -1       604 2.82187E-01
 -1       605 2.81130E-01
 -1       606 2.74946E-01
 -1       607 2.74946E-01
 -1       608 4.32974E-01
 -1       609 5.40906E-01
 -1       610 1.91226E+00
 -1       611 1.72353E+01
 -1       612 1.50913E+01
 -1       613 2.97502E+00
 -1       614 8.65101E-01
 -1       615 5.86092E-01
 -1       616 5.29815E-01
 -1       617 3.77033E-01
 -1       618 3.01617E-01
 -1       619 2.98014E-01
 -1       620 2.99074E-01
 -1       621 2.99685E-01
 -1       622 3.00675E-01
 -1       623 3.00675E-01
 -1       624 2.99558E-01
 -1       625 2.89137E-01
 -1       626 3.04817E-01
 -1       627 7.08145E-01
 -1       628 7.97614E-01
 -1       629 2.43847E+00
 -1       630 1.72353E+01
 -1       631 1.69191E+01
 -1       632 3.49129E+00
 -1       633 9.19485E-01
 -1       634 5.32407E-01
 -1       635 5.29815E-01
 -1       636 3.77033E-01
 -1       637 3.01617E-01
 -1       638 2.98014E-01
 -1       639 2.99074E-01
 -1       640 2.99685E-01
 -1       641 3.00675E-01
 -1       642 3.00675E-01
 -1       643 2.99558E-01
 -1       644 2.89137E-01
 -1       645 3.04817E-01
 -1       646 7.08145E-01
 -1       647 9.62799E-01
 -1       648 3.39275E+00
 -1       649 2.19234E+01
 -1       650 1.89201E+01
 -1       651 3.72424E+00
 -1       652 1.12708E+00
 -1       653 9.88334E-01
 -1       654 8.27243E-01
 -1       655 6.65042E-01
 -1       656 5.92941E-01
 -1       657 5.90263E-01
 -1       658 5.90826E-01
 -1       659 5.91181E-01
 -1       660 5.91964E-01
 -1       661 5.91964E-01
 -1       662 5.91914E-01
 -1       663 5.80184E-01
 -1       664 5.55082E-01
 -1       665 1.03059E+00
 -1       666 1.55680E+00
 -1       667 2.18010E+00
 -1       668 2.30518E+01
 -1       669 1.73123E+01
 -1       670 3.05549E+00
 -1       671 1.12708E+00
 -1       672 9.88334E-01
 -1       673 8.27243E-01
 -1       674 6.65042E-01
 -1       675 5.92941E-01
 -1       676 5.90263E-01
 -1       677 5.90826E-01
 -1       678 5.91181E-01
 -1       679 5.91964E-01
 -1       680 5.91964E-01
 -1       681 5.91914E-01
 -1       682 5.80184E-01
 -1       683 5.55082E-01
 -1       684 9.13356E-01
 -1       685 1.35165E+00
 -1       686 2.06219E+00
 -1       687 2.33939E+01
 -1       688 1.64128E+01
 -1       689 2.80757E+00
 -1       690 9.02799E-01
 -1       691 9.02799E-01
 -1       692 6.51314E-01
 -1       693 5.12602E-01
 -1       694 4.40159E-01
 -1       695 4.40291E-01
 -1       696 4.41496E-01
 -1       697 4.42318E-01
 -1       698 4.43532E-01
 -1       699 4.44021E-01
 -1       700 4.44021E-01
 -1       701 4.32823E-01
 -1       702 4.13594E-01
 -1       703 4.61116E-01
 -1       704 9.31063E-01
 -1       705 1.55435E+00
 -1       706 2.33939E+01
 -1       707 1.73123E+01
 -1       708 3.05549E+00
 -1       709 1.12708E+00
 -1       710 9.88334E-01
 -1       711 8.27243E-01
 -1       712 6.65042E-01
 -1       713 5.92941E-01
 -1       714 5.90263E-01
 -1       715 5.90826E-01
 -1       716 5.91181E-01
 -1       717 5.91964E-01
 -1       718 5.91964E-01
 -1       719 5.91914E-01
 -1       720 5.80184E-01
 -1       721 5.55082E-01
 -1       722 9.13356E-01
 -1       723 1.35165E+00
 -1       724 2.06219E+00
 -1       725 2.33939E+01
 -1       726 1.89201E+01
 -1       727 3.72424E+00
 -1       728 1.12708E+00
 -1       729 9.88334E-01
 -1       730 8.27243E-01
 -1       731 6.65042E-01
 -1       732 5.92941E-01
 -1       733 5.90263E-01
 -1       734 5.90826E-01
 -1       735 5.91181E-01
 -1       736 5.91964E-01
 -1       737 5.91964E-01
 -1       738 5.91914E-01
 -1       739 5.80184E-01
 -1       740 5.55082E-01
 -1       741 1.03059E+00
 -1       742 1.55680E+00
 -1       743 2.18010E+00
 -1       744 2.30518E+01
 -1       745 2.20057E+01
 -1       746 3.83790E+00
 -1       747 1.98000E+00
 -1       748 1.50949E+00
 -1       749 1.17385E+00
 -1       750 1.13575E+00
 -1       751 1.14181E+00
 -1       752 1.14181E+00
 -1       753 1.13812E+00
 -1       754 1.13194E+00
 -1       755 1.12619E+00
 -1       756 1.11968E+00
 -1       757 1.11081E+00
 -1       758 1.10827E+00
 -1       759 1.18477E+00
 -1       760 1.50833E+00
 -1       761 2.73722E+00
 -1       762 2.73722E+00
 -1       763 3.07991E+01
 -1       764 2.03959E+01
 -1       765 3.05549E+00
 -1       766 1.98000E+00
 -1       767 1.50949E+00
 -1       768 1.17385E+00
 -1       769 1.03329E+00
 -1       770 9.79758E-01
 -1       771 9.68497E-01
 -1       772 9.67694E-01
 -1       773 9.67576E-01
 -1       774 9.67116E-01
 -1       775 9.67224E-01
 -1       776 9.67224E-01
 -1       777 9.62560E-01
 -1       778 9.19956E-01
 -1       779 1.03648E+00
 -1       780 2.07267E+00
 -1       781 2.07267E+00
 -1       782 3.07991E+01
 -1       783 1.90114E+01
 -1       784 2.70649E+00
 -1       785 1.33614E+00
 -1       786 9.23675E-01
 -1       787 6.51314E-01
 -1       788 5.12602E-01
 -1       789 4.40159E-01
 -1       790 4.40291E-01
 -1       791 4.41496E-01
 -1       792 4.42318E-01
 -1       793 4.43532E-01
 -1       794 4.44021E-01
 -1       795 4.44021E-01
 -1       796 4.32823E-01
 -1       797 4.13594E-01
 -1       798 5.72859E-01
 -1       799 1.49959E+00
 -1       800 1.92545E+00
 -1       801 2.92443E+01
 -1       802 2.03959E+01
 -1       803 3.05549E+00
 -1       804 1.98000E+00
 -1       805 1.50949E+00
 -1       806 1.17385E+00
 -1       807 1.03329E+00
 -1       808 9.79758E-01
 -1       809 9.68497E-01
 -1       810 9.67694E-01
 -1       811 9.67576E-01
 -1       812 9.67116E-01
 -1       813 9.67224E-01
 -1       814 9.67224E-01
 -1       815 9.62560E-01
 -1       816 9.19956E-01
 -1       817 1.03648E+00
 -1       818 2.07267E+00
 -1       819 2.07267E+00
 -1       820 3.07991E+01
 -1       821 2.20057E+01
 -1       822 3.83790E+00
 -1       823 1.98000E+00
 -1       824 1.50949E+00
 -1       825 1.17385E+00
 -1       826 1.13575E+00
 -1       827 1.14181E+00
 -1       828 1.14181E+00
 -1       829 1.13812E+00
 -1       830 1.13194E+00
 -1       831 1.12619E+00
 -1       832 1.11968E+00
 -1       833 1.11081E+00
 -1       834 1.10827E+00
 -1       835 1.18477E+00
 -1       836 1.50833E+00
 -1       837 2.73722E+00
 -1       838 2.73722E+00
 -1       839 3.07991E+01
 -1       840 2.84510E+01
 -1       841 4.22609E+00
 -1       842 4.22609E+00
 -1       843 3.23318E+00
 -1       844 2.86446E+00
 -1       845 2.84566E+00
 -1       846 2.83705E+00
 -1       847 2.82447E+00
 -1       848 2.81083E+00
 -1       849 2.79981E+00
 -1       850 2.78970E+00
 -1       851 2.77842E+00
 -1       852 2.76471E+00
 -1       853 2.74899E+00
 -1       854 2.80594E+00
 -1       855 3.02167E+00
 -1       856 3.93379E+00
 -1       857 8.56506E+00
 -1       858 3.95342E+01
 -1       859 2.41614E+01
 -1       860 2.74107E+00
 -1       861 2.74107E+00
 -1       862 1.50949E+00
 -1       863 1.17385E+00
 -1       864 1.03329E+00
 -1       865 9.79758E-01
 -1       866 9.68497E-01
 -1       867 9.67694E-01
 -1       868 9.67576E-01
 -1       869 9.67116E-01
 -1       870 9.67224E-01
 -1       871 9.67224E-01
 -1       872 9.62560E-01
 -1       873 9.19956E-01
 -1       874 1.10555E+00
 -1       875 2.07267E+00
 -1       876 5.32717E+00
 -1       877 3.72292E+01
 -1       878 2.28157E+01
 -1       879 2.18969E+00
 -1       880 1.33614E+00
 -1       881 9.23675E-01
 -1       882 6.91727E-01
 -1       883 7.03308E-01
 -1       884 7.03308E-01
 -1       885 7.02208E-01
 -1       886 6.96931E-01
 -1       887 6.92806E-01
 -1       888 6.89043E-01
 -1       889 6.84004E-01
 -1       890 6.76290E-01
 -1       891 6.78229E-01
 -1       892 7.79078E-01
 -1       893 1.01537E+00
 -1       894 1.66731E+00
 -1       895 5.32717E+00
 -1       896 2.92443E+01
 -1       897 2.41614E+01
 -1       898 2.74107E+00
 -1       899 2.74107E+00
 -1       900 1.50949E+00
 -1       901 1.17385E+00
 -1       902 1.03329E+00
 -1       903 9.79758E-01
 -1       904 9.68497E-01
 -1       905 9.67694E-01
 -1       906 9.67576E-01
 -1       907 9.67116E-01
 -1       908 9.67224E-01
 -1       909 9.67224E-01
 -1       910 9.62560E-01
 -1       911 9.19956E-01
 -1       912 1.10555E+00
 -1       913 2.07267E+00
 -1       914 5.32717E+00
 -1       915 3.72292E+01
 -1       916 2.84510E+01
 -1       917 4.22609E+00
 -1       918 4.22609E+00
 -1       919 3.23318E+00
 -1       920 2.86446E+00
 -1       921 2.84566E+00
 -1       922 2.83705E+00
 -1       923 2.82447E+00
 -1       924 2.81083E+00
 -1       925 2.79981E+00
 -1       926 2.78970E+00
 -1       927 2.77842E+00
 -1       928 2.76471E+00
 -1       929 2.74899E+00
 -1       930 2.80594E+00
 -1       931 3.02167E+00
 -1       932 3.93379E+00
 -1       933 8.56506E+00
 -1       934 3.95342E+01
 -1       935 3.86943E+01
 -1       936 3.69684E+01
 -1       937 1.29968E+01
 -1       938 1.17278E+01
 -1       939 1.17278E+01
 -1       940 1.13452E+01
 -1       941 1.11591E+01
 -1       942 1.10476E+01
 -1       943 1.09810E+01
 -1       944 1.09261E+01
 -1       945 1.08731E+01
 -1       946 1.08178E+01
 -1       947 1.07556E+01
 -1       948 1.06860E+01
 -1       949 1.05948E+01
 -1       950 1.05735E+01
 -1       951 1.20411E+01
 -1       952 1.86756E+01
 -1       953 3.95342E+01
 -1       954 2.95215E+01
 -1       955 8.03104E+00
 -1       956 2.74107E+00
 -1       957 2.52270E+00
 -1       958 2.52270E+00
 -1       959 2.47341E+00
 -1       960 2.43987E+00
 -1       961 2.42090E+00
 -1       962 2.41004E+00
 -1       963 2.40260E+00
 -1       964 2.39559E+00
 -1       965 2.38725E+00
 -1       966 2.37569E+00
 -1       967 2.36279E+00
 -1       968 2.42296E+00
 -1       969 2.52753E+00
 -1       970 2.96040E+00
 -1       971 1.09961E+01
 -1       972 3.72292E+01
 -1       973 2.78466E+01
 -1       974 8.03104E+00
 -1       975 1.40177E+00
 -1       976 1.61296E+00
 -1       977 1.61296E+00
 -1       978 1.56181E+00
 -1       979 1.53208E+00
 -1       980 1.51152E+00
 -1       981 1.50179E+00
 -1       982 1.49618E+00
 -1       983 1.49138E+00
 -1       984 1.48494E+00
 -1       985 1.47477E+00
 -1       986 1.45947E+00
 -1       987 1.50137E+00
 -1       988 1.78314E+00
 -1       989 2.36328E+00
 -1       990 8.19126E+00
 -1       991 2.77209E+01
 -1       992 2.95215E+01
 -1       993 8.03104E+00
 -1       994 2.74107E+00
 -1       995 2.52270E+00
 -1       996 2.52270E+00
 -1       997 2.47341E+00
 -1       998 2.43987E+00
 -1       999 2.42090E+00
 -1      1000 2.41004E+00
 -1      1001 2.40260E+00
 -1      1002 2.39559E+00
 -1      1003 2.38725E+00
 -1      1004 2.37569E+00
 -1      1005 2.36279E+00
 -1      1006 2.42296E+00
 -1      1007 2.52753E+00
 -1      1008 2.96040E+00
 -1      1009 1.09961E+01
 -1      1010 3.72292E+01
 -1      1011 3.86943E+01
 -1      1012 3.69684E+01
 -1      1013 1.29968E+01
 -1      1014 1.17278E+01
 -1      1015 1.17278E+01
 -1      1016 1.13452E+01
 -1      1017 1.11591E+01
 -1      1018 1.10476E+01
 -1      1019 1.09810E+01
 -1      1020 1.09261E+01
 -1      1021 1.08731E+01
 -1      1022 1.08178E+01
 -1      1023 1.07556E+01
 -1      1024 1.06860E+01
 -1      1025 1.05948E+01
 -1      1026 1.05735E+01
 -1      1027 1.20411E+01
 -1      1028 1.86756E+01
 -1      1029 3.95342E+01
 -1      1030 1.89581E+01
 -1      1031 1.34680E+01
 -1      1032 1.89581E+01
 -1      1033 1.48247E+01
 -1      1034 5.34217E+00
 -1      1035 1.48247E+01
 -1      1036 5.34217E+00
 -1      1037 1.44826E+01
 -1      1038 4.70552E+00
 -1      1039 1.33122E+01
 -1      1040 4.00249E+00
 -1      1041 1.24128E+01
 -1      1042 3.26011E+00
 -1      1043 1.18661E+01
 -1      1044 4.00249E+00
 -1      1045 1.24128E+01
 -1      1046 4.70552E+00
 -1      1047 1.33122E+01
 -1      1048 5.34217E+00
 -1      1049 1.44826E+01
 -1      1050 5.34217E+00
 -1      1051 1.48247E+01
 -1      1052 1.89581E+01
 -1      1053 1.48247E+01
 -1      1054 1.89581E+01
 -1      1055 1.34680E+01
 -1      1056 2.97658E+01
 -1      1057 1.60502E+01
 -1      1058 2.97658E+01
 -1      1059 1.60502E+01
 -1      1060 2.05569E+01
 -1      1061 1.48247E+01
 -1      1062 2.11066E+01
 -1      1063 1.55124E+01
 -1      1064 2.11066E+01
 -1      1065 1.75481E+01
 -1      1066 2.03438E+01
 -1      1067 1.87255E+01
 -1      1068 1.88126E+01
 -1      1069 1.87255E+01
 -1      1070 2.03438E+01
 -1      1071 1.87255E+01
 -1      1072 2.11066E+01
 -1      1073 1.75481E+01
 -1      1074 2.11066E+01
 -1      1075 1.55124E+01
 -1      1076 2.05569E+01
 -1      1077 1.48247E+01
 -1      1078 2.97658E+01
 -1      1079 1.60502E+01
 -1      1080 2.97658E+01
 -1      1081 1.60502E+01
 -1      1082 6.39085E+01
 -1      1083 2.04247E+01
 -1      1084 6.39085E+01
 -1      1085 2.04247E+01
 -1      1086 4.50453E+01
 -1      1087 2.50574E+01
 -1      1088 4.02934E+01
 -1      1089 3.15267E+01
 -1      1090 3.95390E+01
 -1      1091 3.55727E+01
 -1      1092 3.77584E+01
 -1      1093 3.73023E+01
 -1      1094 3.56057E+01
 -1      1095 3.73023E+01
 -1      1096 3.77584E+01
 -1      1097 3.73023E+01
 -1      1098 3.95390E+01
 -1      1099 3.55727E+01
 -1      1100 4.02934E+01
 -1      1101 3.15267E+01
 -1      1102 4.50453E+01
 -1      1103 2.50574E+01
 -1      1104 6.39085E+01
 -1      1105 2.04247E+01
 -1      1106 6.39085E+01
 -1      1107 2.04247E+01
 -1      1108 7.75805E+01
 -1      1109 4.19355E+01
 -1      1110 7.75805E+01
 -1      1111 4.29319E+01
 -1      1112 6.14669E+01
 -1      1113 5.00860E+01
 -1      1114 5.61925E+01
 -1      1115 6.06767E+01
 -1      1116 5.26765E+01
 -1      1117 6.67683E+01
 -1      1118 4.96487E+01
 -1      1119 6.95218E+01
 -1      1120 4.77559E+01
 -1      1121 6.95218E+01
 -1      1122 4.96487E+01
 -1      1123 6.95218E+01
 -1      1124 5.26765E+01
 -1      1125 6.67683E+01
 -1      1126 5.61925E+01
 -1      1127 6.06767E+01
 -1      1128 6.14669E+01
 -1      1129 5.00860E+01
 -1      1130 7.75805E+01
 -1      1131 4.29319E+01
 -1      1132 7.75805E+01
 -1      1133 4.19355E+01
 -1      1134 7.75805E+01
 -1      1135 5.80921E+01
 -1      1136 7.75805E+01
 -1      1137 5.80921E+01
 -1      1138 6.74261E+01
 -1      1139 5.33276E+01
 -1      1140 6.74261E+01
 -1      1141 6.06767E+01
 -1      1142 6.19584E+01
 -1      1143 6.67683E+01
 -1      1144 5.67502E+01
 -1      1145 6.95218E+01
 -1      1146 5.60373E+01
 -1      1147 6.95218E+01
 -1      1148 5.67502E+01
 -1      1149 6.95218E+01
 -1      1150 6.19584E+01
 -1      1151 6.67683E+01
 -1      1152 6.74261E+01
 -1      1153 6.06767E+01
 -1      1154 6.74261E+01
 -1      1155 5.33276E+01
 -1      1156 7.75805E+01
 -1      1157 5.80921E+01
 -1      1158 7.75805E+01
 -1      1159 5.80921E+01
 -1      1160 6.83343E+01
 -1      1161 6.46086E+01
 -1      1162 6.83343E+01
 -1      1163 6.46086E+01
 -1      1164 7.21049E+01
 -1      1165 5.77784E+01
 -1      1166 7.21049E+01
 -1      1167 5.56053E+01
 -1      1168 6.47490E+01
 -1      1169 5.84076E+01
 -1      1170 5.93515E+01
 -1      1171 6.01015E+01
 -1      1172 5.81112E+01
 -1      1173 6.01015E+01
 -1      1174 5.93515E+01
 -1      1175 6.01015E+01
 -1      1176 6.47490E+01
 -1      1177 5.84076E+01
 -1      1178 7.21049E+01
 -1      1179 5.56053E+01
 -1      1180 7.21049E+01
 -1      1181 5.77784E+01
 -1      1182 6.83343E+01
 -1      1183 6.46086E+01
 -1      1184 6.83343E+01
 -1      1185 6.46086E+01
 -1      1186 4.49940E+01
 -1      1187 6.46086E+01
 -1      1188 6.64317E+01
 -1      1189 6.46086E+01
 -1      1190 7.21049E+01
 -1      1191 5.77784E+01
 -1      1192 7.21049E+01
 -1      1193 4.53304E+01
 -1      1194 6.47490E+01
 -1      1195 3.23211E+01
 -1      1196 5.93515E+01
 -1      1197 2.07432E+01
 -1      1198 5.81112E+01
 -1      1199 1.83591E+01
 -1      1200 5.93515E+01
 -1      1201 2.07432E+01
 -1      1202 6.47490E+01
 -1      1203 3.23211E+01
 -1      1204 7.21049E+01
 -1      1205 4.53304E+01
 -1      1206 7.21049E+01
 -1      1207 5.77784E+01
 -1      1208 6.64317E+01
 -1      1209 6.46086E+01
 -1      1210 4.49940E+01
 -1      1211 6.46086E+01
 -1      1212 3.11221E+01
 -1      1213 3.11221E+01
 -1      1214 3.11221E+01
 -1      1215 3.11221E+01
 -1      1216 2.67315E+01
 -1      1217 2.67315E+01
 -1      1218 2.35706E+01
 -1      1219 2.35706E+01
 -1      1220 2.18165E+01
 -1      1221 2.18165E+01
 -1      1222 2.16968E+01
 -1      1223 2.16968E+01
 -1      1224 2.16833E+01
 -1      1225 2.16833E+01
 -1      1226 2.15792E+01
 -1      1227 2.15792E+01
 -1      1228 2.15594E+01
 -1      1229 2.15594E+01
 -1      1230 2.15594E+01
 -1      1231 2.15594E+01
 -1      1232 2.15556E+01
 -1      1233 2.15556E+01
 -1      1234 2.15618E+01
 -1      1235 2.15618E+01
 -1      1236 2.16566E+01
 -1      1237 2.16566E+01
 -1      1238 2.18398E+01
 -1      1239 2.18398E+01
 -1      1240 2.19635E+01
 -1      1241 2.19635E+01
 -1      1242 2.19635E+01
 -1      1243 2.19635E+01
 -1      1244 2.30855E+01
 -1      1245 2.30855E+01
 -1      1246 2.36664E+01
 -1      1247 2.36664E+01
 -1      1248 2.45876E+01
 -1      1249 2.45876E+01
 -1      1250 3.38801E+01
 -1      1251 3.38801E+01
 -1      1252 3.61437E+01
 -1      1253 3.61437E+01
 -1      1254 4.17568E+01
 -1      1255 4.17568E+01
 -1      1256 4.17568E+01
 -1      1257 4.17568E+01
 -1      1258 3.11221E+01
 -1      1259 3.11221E+01
 -1      1260 3.11221E+01
 -1      1261 3.11221E+01
 -1      1262 3.01100E+01
 -1      1263 3.01100E+01
 -1      1264 2.68892E+01
 -1      1265 2.68892E+01
 -1      1266 2.73277E+01
 -1      1267 2.73277E+01
 -1      1268 2.73277E+01
 -1      1269 2.73277E+01
 -1      1270 2.70657E+01
 -1      1271 2.70657E+01
 -1      1272 2.68000E+01
 -1      1273 2.68000E+01
 -1      1274 2.66909E+01
 -1      1275 2.66909E+01
 -1      1276 2.66586E+01
 -1      1277 2.66586E+01
 -1      1278 2.66260E+01
 -1      1279 2.66260E+01
 -1      1280 2.66046E+01
 -1      1281 2.66046E+01
 -1      1282 2.66279E+01
 -1      1283 2.66279E+01
 -1      1284 2.69803E+01
 -1      1285 2.69803E+01
 -1      1286 2.75303E+01
 -1      1287 2.75303E+01
 -1      1288 2.75303E+01
 -1      1289 2.75303E+01
 -1      1290 2.91969E+01
 -1      1291 2.91969E+01
 -1      1292 3.02085E+01
 -1      1293 3.02085E+01
 -1      1294 3.02085E+01
 -1      1295 3.02085E+01
 -1      1296 3.71931E+01
 -1      1297 3.71931E+01
 -1      1298 3.71931E+01
 -1      1299 3.71931E+01
 -1      1300 4.17568E+01
 -1      1301 4.17568E+01
 -1      1302 4.17568E+01
 -1      1303 4.17568E+01
 -1      1304 6.39085E+01
 -1      1305 6.39085E+01
 -1      1306 6.27338E+01
 -1      1307 6.27338E+01
 -1      1308 6.61030E+01
 -1      1309 6.61030E+01
 -1      1310 6.82534E+01
 -1      1311 6.82534E+01
 -1      1312 6.87355E+01
 -1      1313 6.87355E+01
 -1      1314 6.87355E+01
 -1      1315 6.87355E+01
 -1      1316 6.85993E+01
 -1      1317 6.85993E+01
 -1      1318 6.83643E+01
 -1      1319 6.83643E+01
 -1      1320 6.82045E+01
 -1      1321 6.82045E+01
 -1      1322 6.80919E+01
 -1      1323 6.80919E+01
 -1      1324 6.80110E+01
 -1      1325 6.80110E+01
 -1      1326 6.79598E+01
 -1      1327 6.79598E+01
 -1      1328 6.79078E+01
 -1      1329 6.79078E+01
 -1      1330 6.80105E+01
 -1      1331 6.80105E+01
 -1      1332 6.85536E+01
 -1      1333 6.85536E+01
 -1      1334 6.85536E+01
 -1      1335 6.85536E+01
 -1      1336 6.96851E+01
 -1      1337 6.96851E+01
 -1      1338 6.96851E+01
 -1      1339 6.96851E+01
 -1      1340 6.95774E+01
 -1      1341 6.95774E+01
 -1      1342 6.33997E+01
 -1      1343 6.33997E+01
 -1      1344 6.17485E+01
 -1      1345 6.17485E+01
 -1      1346 3.50194E+01
 -1      1347 3.50194E+01
 -1      1348 2.04247E+01
 -1      1349 2.04247E+01
 -1      1350 7.81692E+01
 -1      1351 7.81692E+01
 -1      1352 9.23146E+01
 -1      1353 9.23146E+01
 -1      1354 9.82615E+01
 -1      1355 9.82615E+01
 -1      1356 9.83064E+01
 -1      1357 9.83064E+01
 -1      1358 9.83064E+01
 -1      1359 9.83064E+01
 -1      1360 9.79966E+01
 -1      1361 9.79966E+01
 -1      1362 9.78012E+01
 -1      1363 9.78012E+01
 -1      1364 9.77192E+01
 -1      1365 9.77192E+01
 -1      1366 9.76745E+01
 -1      1367 9.76745E+01
 -1      1368 9.76351E+01
 -1      1369 9.76351E+01
 -1      1370 9.75965E+01
 -1      1371 9.75965E+01
 -1      1372 9.75796E+01
 -1      1373 9.75796E+01
 -1      1374 9.75796E+01
 -1      1375 9.75796E+01
 -1      1376 9.75673E+01
 -1      1377 9.75673E+01
 -1      1378 9.73907E+01
 -1      1379 9.73907E+01
 -1      1380 9.71617E+01
 -1      1381 9.71617E+01
 -1      1382 9.70263E+01
 -1      1383 9.70263E+01
 -1      1384 9.78369E+01
 -1      1385 9.78369E+01
 -1      1386 9.78369E+01
 -1      1387 9.78369E+01
 -1      1388 9.73257E+01
 -1      1389 9.73257E+01
 -1      1390 8.04811E+01
 -1      1391 8.04811E+01
 -1      1392 3.50194E+01
 -1      1393 3.50194E+01
 -1      1394 4.19355E+01
 -1      1395 4.19355E+01
 -1      1396 7.81692E+01
 -1      1397 7.81692E+01
 -1      1398 9.23146E+01
 -1      1399 9.23146E+01
 -1      1400 9.82615E+01
 -1      1401 9.82615E+01
 -1      1402 9.83064E+01
 -1      1403 9.83064E+01
 -1      1404 9.83064E+01
 -1      1405 9.83064E+01
 -1      1406 9.79966E+01
 -1      1407 9.79966E+01
 -1      1408 9.78012E+01
 -1      1409 9.78012E+01
 -1      1410 9.77192E+01
 -1      1411 9.77192E+01
 -1      1412 9.76745E+01
 -1      1413 9.76745E+01
 -1      1414 9.76351E+01
 -1      1415 9.76351E+01
 -1      1416 9.75965E+01
 -1      1417 9.75965E+01
 -1      1418 9.75796E+01
 -1      1419 9.75796E+01
 -1      1420 9.75796E+01
 -1      1421 9.75796E+01
 -1      1422 9.75673E+01
 -1      1423 9.75673E+01
 -1      1424 9.73907E+01
 -1      1425 9.73907E+01
 -1      1426 9.71617E+01
 -1      1427 9.71617E+01
 -1      1428 9.70263E+01
 -1      1429 9.70263E+01
 -1      1430 9.78369E+01
 -1      1431 9.78369E+01
 -1      1432 9.78369E+01
 -1      1433 9.78369E+01
 -1      1434 9.73257E+01
 -1      1435 9.73257E+01
 -1      1436 8.04811E+01
 -1      1437 8.04811E+01
 -1      1438 5.62948E+01
 -1      1439 5.62948E+01
 -1      1440 5.80921E+01
 -1      1441 5.80921E+01
 -1      1442 6.83343E+01
 -1      1443 6.83343E+01
 -1      1444 5.58167E+01
 -1      1445 5.58167E+01
 -1      1446 6.26333E+01
 -1      1447 6.26333E+01
 -1      1448 6.99595E+01
 -1      1449 6.99595E+01
 -1      1450 7.57969E+01
 -1      1451 7.57969E+01
 -1      1452 8.00851E+01
 -1      1453 8.00851E+01
 -1      1454 8.22926E+01
 -1      1455 8.22926E+01
 -1      1456 8.22926E+01
 -1      1457 8.22926E+01
 -1      1458 8.21460E+01
 -1      1459 8.21460E+01
 -1      1460 8.19631E+01
 -1      1461 8.19631E+01
 -1      1462 8.18470E+01
 -1      1463 8.18470E+01
 -1      1464 8.18902E+01
 -1      1465 8.18902E+01
 -1      1466 8.19301E+01
 -1      1467 8.19301E+01
 -1      1468 8.19301E+01
 -1      1469 8.19301E+01
 -1      1470 8.11798E+01
 -1      1471 8.11798E+01
 -1      1472 7.92944E+01
 -1      1473 7.92944E+01
 -1      1474 7.83577E+01
 -1      1475 7.83577E+01
 -1      1476 7.83577E+01
 -1      1477 7.83577E+01
 -1      1478 7.35687E+01
 -1      1479 7.35687E+01
 -1      1480 6.84733E+01
 -1      1481 6.84733E+01
 -1      1482 6.59650E+01
 -1      1483 6.59650E+01
 -1      1484 7.29210E+01
 -1      1485 7.29210E+01
 -1      1486 7.29210E+01
 -1      1487 7.29210E+01
 -1      1488 5.20853E+01
 -1      1489 5.20853E+01
 -1      1490 5.20853E+01
 -1      1491 5.20853E+01
 -1      1492 4.44708E+01
 -1      1493 4.44708E+01
 -1      1494 4.37088E+01
 -1      1495 4.37088E+01
 -1      1496 4.49784E+01
 -1      1497 4.49784E+01
 -1      1498 4.49784E+01
 -1      1499 4.49784E+01
 -1      1500 4.48089E+01
 -1      1501 4.48089E+01
 -1      1502 4.42636E+01
 -1      1503 4.42636E+01
 -1      1504 4.37849E+01
 -1      1505 4.37849E+01
 -1      1506 4.34786E+01
 -1      1507 4.34786E+01
 -1      1508 4.33055E+01
 -1      1509 4.33055E+01
 -1      1510 4.32075E+01
 -1      1511 4.32075E+01
 -1      1512 4.32149E+01
 -1      1513 4.32149E+01
 -1      1514 4.34923E+01
 -1      1515 4.34923E+01
 -1      1516 4.45012E+01
 -1      1517 4.45012E+01
 -1      1518 4.49497E+01
 -1      1519 4.49497E+01
 -1      1520 4.49497E+01
 -1      1521 4.49497E+01
 -1      1522 4.59538E+01
 -1      1523 4.59538E+01
 -1      1524 4.59538E+01
 -1      1525 4.59538E+01
 -1      1526 5.89337E+01
 -1      1527 5.89337E+01
 -1      1528 6.59650E+01
 -1      1529 6.59650E+01
 -1      1530 7.29210E+01
 -1      1531 7.29210E+01
 -1      1532 7.29210E+01
 -1      1533 7.29210E+01
 -1      1534 3.11221E+01
 -1      1535 7.03115E+01
 -1      1536 3.11221E+01
 -1      1537 7.29813E+01
 -1      1538 2.67315E+01
 -1      1539 7.65342E+01
 -1      1540 2.35706E+01
 -1      1541 7.90248E+01
 -1      1542 2.18165E+01
 -1      1543 8.23913E+01
 -1      1544 2.16968E+01
 -1      1545 8.56511E+01
 -1      1546 2.16833E+01
 -1      1547 8.80657E+01
 -1      1548 2.15792E+01
 -1      1549 8.94885E+01
 -1      1550 2.15594E+01
 -1      1551 9.02112E+01
 -1      1552 2.15594E+01
 -1      1553 9.05320E+01
 -1      1554 2.15556E+01
 -1      1555 9.06395E+01
 -1      1556 2.15618E+01
 -1      1557 9.06961E+01
 -1      1558 2.16566E+01
 -1      1559 9.07173E+01
 -1      1560 2.18398E+01
 -1      1561 9.07173E+01
 -1      1562 2.19635E+01
 -1      1563 9.04960E+01
 -1      1564 2.19635E+01
 -1      1565 8.89477E+01
 -1      1566 2.30855E+01
 -1      1567 8.52103E+01
 -1      1568 2.36664E+01
 -1      1569 8.38583E+01
 -1      1570 2.45876E+01
 -1      1571 8.48934E+01
 -1      1572 3.38801E+01
 -1      1573 8.48934E+01
 -1      1574 3.61437E+01
 -1      1575 8.43180E+01
 -1      1576 4.17568E+01
 -1      1577 7.29210E+01
 -1      1578 4.17568E+01
 -1      1579 7.29210E+01
 -1      1580 1.99229E+01
 -1      1581 7.21049E+01
 -1      1582 1.99229E+01
 -1      1583 7.29813E+01
 -1      1584 1.09199E+01
 -1      1585 7.65342E+01
 -1      1586 5.20925E+00
 -1      1587 7.90248E+01
 -1      1588 3.93648E+00
 -1      1589 8.23913E+01
 -1      1590 3.88082E+00
 -1      1591 8.56511E+01
 -1      1592 3.77951E+00
 -1      1593 8.80657E+01
 -1      1594 3.69368E+00
 -1      1595 8.94885E+01
 -1      1596 3.65357E+00
 -1      1597 9.02112E+01
 -1      1598 3.65221E+00
 -1      1599 9.05320E+01
 -1      1600 3.65093E+00
 -1      1601 9.06395E+01
 -1      1602 3.65893E+00
 -1      1603 9.06961E+01
 -1      1604 3.70990E+00
 -1      1605 9.07173E+01
 -1      1606 3.80616E+00
 -1      1607 9.07173E+01
 -1      1608 3.87129E+00
 -1      1609 9.04960E+01
 -1      1610 3.87129E+00
 -1      1611 8.89477E+01
 -1      1612 4.43566E+00
 -1      1613 8.52103E+01
 -1      1614 6.05995E+00
 -1      1615 8.38583E+01
 -1      1616 7.01944E+00
 -1      1617 8.48934E+01
 -1      1618 2.35507E+01
 -1      1619 8.48934E+01
 -1      1620 3.52312E+01
 -1      1621 8.43180E+01
 -1      1622 4.01517E+01
 -1      1623 6.67422E+01
 -1      1624 4.01517E+01
 -1      1625 6.67422E+01
 -1      1626 2.04506E+01
 -1      1627 7.21049E+01
 -1      1628 2.04506E+01
 -1      1629 5.58605E+01
 -1      1630 1.14772E+01
 -1      1631 4.47796E+01
 -1      1632 5.72936E+00
 -1      1633 4.23944E+01
 -1      1634 4.18875E+00
 -1      1635 4.23944E+01
 -1      1636 4.18875E+00
 -1      1637 4.23604E+01
 -1      1638 4.08794E+00
 -1      1639 4.21883E+01
 -1      1640 4.00544E+00
 -1      1641 4.20692E+01
 -1      1642 3.96717E+00
 -1      1643 4.19891E+01
 -1      1644 3.96345E+00
 -1      1645 4.19471E+01
 -1      1646 3.96307E+00
 -1      1647 4.19235E+01
 -1      1648 3.97006E+00
 -1      1649 4.19114E+01
 -1      1650 4.01800E+00
 -1      1651 4.19324E+01
 -1      1652 4.11404E+00
 -1      1653 4.19711E+01
 -1      1654 4.19335E+00
 -1      1655 4.21040E+01
 -1      1656 4.19335E+00
 -1      1657 4.21040E+01
 -1      1658 4.72164E+00
 -1      1659 4.25094E+01
 -1      1660 7.13938E+00
 -1      1661 4.50360E+01
 -1      1662 7.36462E+00
 -1      1663 4.80253E+01
 -1      1664 2.43419E+01
 -1      1665 6.24540E+01
 -1      1666 3.52312E+01
 -1      1667 6.34607E+01
 -1      1668 4.13882E+01
 -1      1669 6.35433E+01
 -1      1670 4.13882E+01
 -1      1671 6.35433E+01
 -1      1672 2.04506E+01
 -1      1673 6.47490E+01
 -1      1674 2.04506E+01
 -1      1675 4.70699E+01
 -1      1676 1.14772E+01
 -1      1677 3.17431E+01
 -1      1678 5.72936E+00
 -1      1679 2.82406E+01
 -1      1680 4.18875E+00
 -1      1681 2.79253E+01
 -1      1682 4.18875E+00
 -1      1683 2.78549E+01
 -1      1684 4.08794E+00
 -1      1685 2.76654E+01
 -1      1686 4.00544E+00
 -1      1687 2.75699E+01
 -1      1688 3.96717E+00
 -1      1689 2.75172E+01
 -1      1690 3.96345E+00
 -1      1691 2.74970E+01
 -1      1692 3.96307E+00
 -1      1693 2.74922E+01
 -1      1694 3.97006E+00
 -1      1695 2.75039E+01
 -1      1696 4.01800E+00
 -1      1697 2.75663E+01
 -1      1698 4.11404E+00
 -1      1699 2.76528E+01
 -1      1700 4.19335E+00
 -1      1701 2.79693E+01
 -1      1702 4.19335E+00
 -1      1703 2.79693E+01
 -1      1704 4.72164E+00
 -1      1705 2.82311E+01
 -1      1706 7.13938E+00
 -1      1707 3.15565E+01
 -1      1708 7.36462E+00
 -1      1709 3.81861E+01
 -1      1710 2.43419E+01
 -1      1711 5.94329E+01
 -1      1712 3.50471E+01
 -1      1713 6.50875E+01
 -1      1714 4.14196E+01
 -1      1715 6.50875E+01
 -1      1716 4.14196E+01
 -1      1717 6.22220E+01
 -1      1718 1.99052E+01
 -1      1719 5.93515E+01
 -1      1720 1.99052E+01
 -1      1721 3.40576E+01
 -1      1722 1.06299E+01
 -1      1723 8.82432E+00
 -1      1724 4.91767E+00
 -1      1725 4.32186E+00
 -1      1726 3.89683E+00
 -1      1727 4.03288E+00
 -1      1728 3.89683E+00
 -1      1729 3.97358E+00
 -1      1730 3.79429E+00
 -1      1731 3.86226E+00
 -1      1732 3.71269E+00
 -1      1733 3.81025E+00
 -1      1734 3.67538E+00
 -1      1735 3.78271E+00
 -1      1736 3.67114E+00
 -1      1737 3.77229E+00
 -1      1738 3.67114E+00
 -1      1739 3.76906E+00
 -1      1740 3.67751E+00
 -1      1741 3.77497E+00
 -1      1742 3.72413E+00
 -1      1743 3.80711E+00
 -1      1744 3.82153E+00
 -1      1745 3.86294E+00
 -1      1746 3.91249E+00
 -1      1747 3.99881E+00
 -1      1748 3.91249E+00
 -1      1749 3.99881E+00
 -1      1750 4.43198E+00
 -1      1751 3.89633E+00
 -1      1752 6.62469E+00
 -1      1753 7.21733E+00
 -1      1754 6.62469E+00
 -1      1755 1.85909E+01
 -1      1756 2.40421E+01
 -1      1757 5.08854E+01
 -1      1758 3.37316E+01
 -1      1759 6.50875E+01
 -1      1760 4.14196E+01
 -1      1761 6.50875E+01
 -1      1762 4.14196E+01
 -1      1763 6.20333E+01
 -1      1764 1.84231E+01
 -1      1765 5.81112E+01
 -1      1766 1.84231E+01
 -1      1767 3.25173E+01
 -1      1768 8.78916E+00
 -1      1769 6.23175E+00
 -1      1770 4.17317E+00
 -1      1771 3.35477E+00
 -1      1772 3.17632E+00
 -1      1773 3.04520E+00
 -1      1774 3.17632E+00
 -1      1775 3.00458E+00
 -1      1776 3.07204E+00
 -1      1777 2.89834E+00
 -1      1778 2.98971E+00
 -1      1779 2.84691E+00
 -1      1780 2.95248E+00
 -1      1781 2.81737E+00
 -1      1782 2.94862E+00
 -1      1783 2.80600E+00
 -1      1784 2.94862E+00
 -1      1785 2.80144E+00
 -1      1786 2.95470E+00
 -1      1787 2.80772E+00
 -1      1788 3.00120E+00
 -1      1789 2.84013E+00
 -1      1790 3.10076E+00
 -1      1791 2.89778E+00
 -1      1792 3.20019E+00
 -1      1793 3.03833E+00
 -1      1794 3.20019E+00
 -1      1795 3.03833E+00
 -1      1796 3.73097E+00
 -1      1797 2.95448E+00
 -1      1798 4.96683E+00
 -1      1799 4.96793E+00
 -1      1800 4.96683E+00
 -1      1801 1.83598E+01
 -1      1802 2.27252E+01
 -1      1803 4.97636E+01
 -1      1804 3.20991E+01
 -1      1805 6.47033E+01
 -1      1806 4.08403E+01
 -1      1807 6.47033E+01
 -1      1808 4.08403E+01
 -1      1809 6.20333E+01
 -1      1810 1.99052E+01
 -1      1811 5.93515E+01
 -1      1812 1.99052E+01
 -1      1813 3.40576E+01
 -1      1814 1.06299E+01
 -1      1815 8.82432E+00
 -1      1816 4.91767E+00
 -1      1817 4.32186E+00
 -1      1818 3.89683E+00
 -1      1819 4.03288E+00
 -1      1820 3.89683E+00
 -1      1821 3.97358E+00
 -1      1822 3.79429E+00
 -1      1823 3.86226E+00
 -1      1824 3.71269E+00
 -1      1825 3.81025E+00
 -1      1826 3.67538E+00
 -1      1827 3.78271E+00
 -1      1828 3.67114E+00
 -1      1829 3.77229E+00
 -1      1830 3.67114E+00
 -1      1831 3.76906E+00
 -1      1832 3.67751E+00
 -1      1833 3.77497E+00
 -1      1834 3.72413E+00
 -1      1835 3.80711E+00
 -1      1836 3.82153E+00
 -1      1837 3.86293E+00
 -1      1838 3.91249E+00
 -1      1839 3.99881E+00
 -1      1840 3.91249E+00
 -1      1841 3.99881E+00
 -1      1842 4.43198E+00
 -1      1843 3.89633E+00
 -1      1844 6.62469E+00
 -1      1845 7.21733E+00
 -1      1846 6.62469E+00
 -1      1847 1.85909E+01
 -1      1848 2.40421E+01
 -1      1849 5.08854E+01
 -1      1850 3.37316E+01
 -1      1851 6.50875E+01
 -1      1852 4.14196E+01
 -1      1853 6.50875E+01
 -1      1854 4.14196E+01
 -1      1855 6.20333E+01
 -1      1856 2.04506E+01
 -1      1857 6.47490E+01
 -1      1858 2.04506E+01
 -1      1859 4.70699E+01
 -1      1860 1.14772E+01
 -1      1861 3.17431E+01
 -1      1862 5.72936E+00
 -1      1863 2.82406E+01
 -1      1864 4.18875E+00
 -1      1865 2.79253E+01
 -1      1866 4.18875E+00
 -1      1867 2.78549E+01
 -1      1868 4.08794E+00
 -1      1869 2.76654E+01
 -1      1870 4.00544E+00
 -1      1871 2.75699E+01
 -1      1872 3.96717E+00
 -1      1873 2.75172E+01
 -1      1874 3.96345E+00
 -1      1875 2.74970E+01
 -1      1876 3.96307E+00
 -1      1877 2.74922E+01
 -1      1878 3.97006E+00
 -1      1879 2.75039E+01
 -1      1880 4.01800E+00
 -1      1881 2.75662E+01
 -1      1882 4.11404E+00
 -1      1883 2.76528E+01
 -1      1884 4.19335E+00
 -1      1885 2.79693E+01
 -1      1886 4.19335E+00
 -1      1887 2.79693E+01
 -1      1888 4.72164E+00
 -1      1889 2.82311E+01
 -1      1890 7.13938E+00
 -1      1891 3.15565E+01
 -1      1892 7.36462E+00
 -1      1893 3.81861E+01
 -1      1894 2.43419E+01
 -1      1895 5.94329E+01
 -1      1896 3.50471E+01
 -1      1897 6.50875E+01
 -1      1898 4.14196E+01
 -1      1899 6.50875E+01
 -1      1900 4.14196E+01
 -1      1901 6.22220E+01
 -1      1902 2.04506E+01
 -1      1903 7.21049E+01
 -1      1904 2.04506E+01
 -1      1905 5.58605E+01
 -1      1906 1.14772E+01
 -1      1907 4.47796E+01
 -1      1908 5.72936E+00
 -1      1909 4.23944E+01
 -1      1910 4.18875E+00
 -1      1911 4.23944E+01
 -1      1912 4.18875E+00
 -1      1913 4.23604E+01
 -1      1914 4.08794E+00
 -1      1915 4.21883E+01
 -1      1916 4.00544E+00
 -1      1917 4.20692E+01
 -1      1918 3.96717E+00
 -1      1919 4.19891E+01
 -1      1920 3.96345E+00
 -1      1921 4.19471E+01
 -1      1922 3.96307E+00
 -1      1923 4.19235E+01
 -1      1924 3.97006E+00
 -1      1925 4.19114E+01
 -1      1926 4.01800E+00
 -1      1927 4.19324E+01
 -1      1928 4.11404E+00
 -1      1929 4.19711E+01
 -1      1930 4.19335E+00
 -1      1931 4.21040E+01
 -1      1932 4.19335E+00
 -1      1933 4.21040E+01
 -1      1934 4.72164E+00
 -1      1935 4.25094E+01
 -1      1936 7.13938E+00
 -1      1937 4.50360E+01
 -1      1938 7.36462E+00
 -1      1939 4.80253E+01
 -1      1940 2.43419E+01
 -1      1941 6.24540E+01
 -1      1942 3.52312E+01
 -1      1943 6.34607E+01
 -1      1944 4.13882E+01
 -1      1945 6.35433E+01
 -1      1946 4.13882E+01
 -1      1947 6.35433E+01
 -1      1948 1.99229E+01
 -1      1949 7.21049E+01
 -1      1950 1.99229E+01
 -1      1951 7.29813E+01
 -1      1952 1.09199E+01
 -1      1953 7.65342E+01
 -1      1954 5.20925E+00
 -1      1955 7.90248E+01
 -1      1956 3.93648E+00
 -1      1957 8.23913E+01
 -1      1958 3.88082E+00
 -1      1959 8.56511E+01
 -1      1960 3.77951E+00
 -1      1961 8.80657E+01
 -1      1962 3.69368E+00
 -1      1963 8.94885E+01
 -1      1964 3.65357E+00
 -1      1965 9.02112E+01
 -1      1966 3.65221E+00
 -1      1967 9.05320E+01
 -1      1968 3.65093E+00
 -1      1969 9.06395E+01
 -1      1970 3.65893E+00
 -1      1971 9.06961E+01
 -1      1972 3.70990E+00
 -1      1973 9.07173E+01
 -1      1974 3.80616E+00
 -1      1975 9.07173E+01
 -1      1976 3.87129E+00
 -1      1977 9.04960E+01
 -1      1978 3.87129E+00
 -1      1979 8.89477E+01
 -1      1980 4.43566E+00
 -1      1981 8.52103E+01
 -1      1982 6.05995E+00
 -1      1983 8.38583E+01
 -1      1984 7.01944E+00
 -1      1985 8.48934E+01
 -1      1986 2.35507E+01
 -1      1987 8.48934E+01
 -1      1988 3.52312E+01
 -1      1989 8.43180E+01
 -1      1990 4.01517E+01
 -1      1991 6.67422E+01
 -1      1992 4.01517E+01
 -1      1993 6.67422E+01
 -1      1994 3.11221E+01
 -1      1995 7.03115E+01
 -1      1996 3.11221E+01
 -1      1997 7.29813E+01
 -1      1998 2.67315E+01
 -1      1999 7.65342E+01
 -1      2000 2.35706E+01
 -1      2001 7.90248E+01
 -1      2002 2.18165E+01
 -1      2003 8.23913E+01
 -1      2004 2.16968E+01
 -1      2005 8.56511E+01
 -1      2006 2.16833E+01
 -1      2007 8.80657E+01
 -1      2008 2.15792E+01
 -1      2009 8.94885E+01
 -1      2010 2.15594E+01
 -1      2011 9.02112E+01
 -1      2012 2.15594E+01
 -1      2013 9.05320E+01
 -1      2014 2.15556E+01
 -1      2015 9.06395E+01
 -1      2016 2.15618E+01
 -1      2017 9.06961E+01
 -1      2018 2.16566E+01
 -1      2019 9.07173E+01
 -1      2020 2.18398E+01
 -1      2021 9.07173E+01
 -1      2022 2.19635E+01
 -1      2023 9.04960E+01
 -1      2024 2.19635E+01
 -1      2025 8.89477E+01
 -1      2026 2.30855E+01
 -1      2027 8.52103E+01
 -1      2028 2.36664E+01
 -1      2029 8.38583E+01
 -1      2030 2.45876E+01
 -1      2031 8.48934E+01
 -1      2032 3.38801E+01
 -1      2033 8.48934E+01
 -1      2034 3.61437E+01
 -1      2035 8.43180E+01
 -1      2036 4.17568E+01
 -1      2037 7.29210E+01
 -1      2038 4.17568E+01
 -1      2039 7.29210E+01
 -1      2040 3.11221E+01
 -1      2041 3.11221E+01
 -1      2042 3.01100E+01
 -1      2043 2.68892E+01
 -1      2044 2.73277E+01
 -1      2045 2.73277E+01
 -1      2046 2.70657E+01
 -1      2047 2.68000E+01
 -1      2048 2.66909E+01
 -1      2049 2.66586E+01
 -1      2050 2.66260E+01
 -1      2051 2.66046E+01
 -1      2052 2.66279E+01
 -1      2053 2.69803E+01
 -1      2054 2.75303E+01
 -1      2055 2.75303E+01
 -1      2056 2.91969E+01
 -1      2057 3.02085E+01
 -1      2058 3.02085E+01
 -1      2059 3.71931E+01
 -1      2060 3.71931E+01
 -1      2061 4.17568E+01
 -1      2062 4.17568E+01
 -1      2063 2.08563E+01
 -1      2064 2.08563E+01
 -1      2065 1.37974E+01
 -1      2066 7.06722E+00
 -1      2067 5.23515E+00
 -1      2068 5.23515E+00
 -1      2069 4.94117E+00
 -1      2070 4.83553E+00
 -1      2071 4.78819E+00
 -1      2072 4.78014E+00
 -1      2073 4.77905E+00
 -1      2074 4.77797E+00
 -1      2075 4.82001E+00
 -1      2076 4.92915E+00
 -1      2077 5.17824E+00
 -1      2078 5.17824E+00
 -1      2079 6.91768E+00
 -1      2080 1.03504E+01
 -1      2081 1.03504E+01
 -1      2082 3.02871E+01
 -1      2083 3.64987E+01
 -1      2084 4.01517E+01
 -1      2085 4.01517E+01
 -1      2086 2.11066E+01
 -1      2087 2.08563E+01
 -1      2088 1.37974E+01
 -1      2089 7.06722E+00
 -1      2090 5.23515E+00
 -1      2091 5.23515E+00
 -1      2092 4.94117E+00
 -1      2093 4.83553E+00
 -1      2094 4.78819E+00
 -1      2095 4.78014E+00
 -1      2096 4.77905E+00
 -1      2097 4.77797E+00
 -1      2098 4.82001E+00
 -1      2099 4.92915E+00
 -1      2100 5.17824E+00
 -1      2101 5.17824E+00
 -1      2102 6.91768E+00
 -1      2103 1.03504E+01
 -1      2104 1.03504E+01
 -1      2105 3.02871E+01
 -1      2106 3.70024E+01
 -1      2107 4.13882E+01
 -1      2108 4.13882E+01
 -1      2109 2.11066E+01
 -1      2110 2.07907E+01
 -1      2111 1.31644E+01
 -1      2112 6.18266E+00
 -1      2113 4.83672E+00
 -1      2114 4.83672E+00
 -1      2115 4.69682E+00
 -1      2116 4.59831E+00
 -1      2117 4.55472E+00
 -1      2118 4.54601E+00
 -1      2119 4.54594E+00
 -1      2120 4.54539E+00
 -1      2121 4.58386E+00
 -1      2122 4.69037E+00
 -1      2123 4.84172E+00
 -1      2124 4.84172E+00
 -1      2125 6.16585E+00
 -1      2126 1.00497E+01
 -1      2127 1.00497E+01
 -1      2128 2.94457E+01
 -1      2129 3.70024E+01
 -1      2130 4.14196E+01
 -1      2131 4.14196E+01
 -1      2132 2.03438E+01
 -1      2133 1.99052E+01
 -1      2134 1.10628E+01
 -1      2135 4.91767E+00
 -1      2136 3.94448E+00
 -1      2137 3.94448E+00
 -1      2138 3.80443E+00
 -1      2139 3.71269E+00
 -1      2140 3.67538E+00
 -1      2141 3.67114E+00
 -1      2142 3.67114E+00
 -1      2143 3.67751E+00
 -1      2144 3.72413E+00
 -1      2145 3.82153E+00
 -1      2146 3.96590E+00
 -1      2147 3.96590E+00
 -1      2148 4.54824E+00
 -1      2149 8.06517E+00
 -1      2150 8.06517E+00
 -1      2151 2.78631E+01
 -1      2152 3.60841E+01
 -1      2153 4.14196E+01
 -1      2154 4.14196E+01
 -1      2155 1.88126E+01
 -1      2156 1.84231E+01
 -1      2157 8.78916E+00
 -1      2158 4.17317E+00
 -1      2159 3.17632E+00
 -1      2160 3.17632E+00
 -1      2161 3.07204E+00
 -1      2162 2.98971E+00
 -1      2163 2.95248E+00
 -1      2164 2.94862E+00
 -1      2165 2.94862E+00
 -1      2166 2.95470E+00
 -1      2167 3.00120E+00
 -1      2168 3.10076E+00
 -1      2169 3.20019E+00
 -1      2170 3.20019E+00
 -1      2171 3.73097E+00
 -1      2172 4.96683E+00
 -1      2173 4.96683E+00
 -1      2174 2.57701E+01
 -1      2175 3.43962E+01
 -1      2176 4.08403E+01
 -1      2177 4.08403E+01
 -1      2178 2.03438E+01
 -1      2179 1.99052E+01
 -1      2180 1.10628E+01
 -1      2181 4.91767E+00
 -1      2182 3.94448E+00
 -1      2183 3.94448E+00
 -1      2184 3.80443E+00
 -1      2185 3.71269E+00
 -1      2186 3.67538E+00
 -1      2187 3.67114E+00
 -1      2188 3.67114E+00
 -1      2189 3.67751E+00
 -1      2190 3.72413E+00
 -1      2191 3.82153E+00
 -1      2192 3.96590E+00
 -1      2193 3.96590E+00
 -1      2194 4.54824E+00
 -1      2195 8.06517E+00
 -1      2196 8.06517E+00
 -1      2197 2.78631E+01
 -1      2198 3.60841E+01
 -1      2199 4.14196E+01
 -1      2200 4.14196E+01
 -1      2201 2.11066E+01
 -1      2202 2.07907E+01
 -1      2203 1.31644E+01
 -1      2204 6.18266E+00
 -1      2205 4.83672E+00
 -1      2206 4.83672E+00
 -1      2207 4.69682E+00
 -1      2208 4.59831E+00
 -1      2209 4.55472E+00
 -1      2210 4.54601E+00
 -1      2211 4.54594E+00
 -1      2212 4.54539E+00
 -1      2213 4.58386E+00
 -1      2214 4.69037E+00
 -1      2215 4.84172E+00
 -1      2216 4.84172E+00
 -1      2217 6.16585E+00
 -1      2218 1.00497E+01
 -1      2219 1.00497E+01
 -1      2220 2.94457E+01
 -1      2221 3.70024E+01
 -1      2222 4.14196E+01
 -1      2223 4.14196E+01
 -1      2224 2.11066E+01
 -1      2225 2.08563E+01
 -1      2226 1.37974E+01
 -1      2227 7.06722E+00
 -1      2228 5.23515E+00
 -1      2229 5.23515E+00
 -1      2230 4.94117E+00
 -1      2231 4.83553E+00
 -1      2232 4.78819E+00
 -1      2233 4.78014E+00
 -1      2234 4.77905E+00
 -1      2235 4.77797E+00
 -1      2236 4.82001E+00
 -1      2237 4.92915E+00
 -1      2238 5.17824E+00
 -1      2239 5.17824E+00
 -1      2240 6.91768E+00
 -1      2241 1.03504E+01
 -1      2242 1.03504E+01
 -1      2243 3.02871E+01
 -1      2244 3.70024E+01
 -1      2245 4.13882E+01
 -1      2246 4.13882E+01
 -1      2247 2.08563E+01
 -1      2248 2.08563E+01
 -1      2249 1.37974E+01
 -1      2250 7.06722E+00
 -1      2251 5.23515E+00
 -1      2252 5.23515E+00
 -1      2253 4.94117E+00
 -1      2254 4.83553E+00
 -1      2255 4.78819E+00
 -1      2256 4.78014E+00
 -1      2257 4.77905E+00
 -1      2258 4.77797E+00
 -1      2259 4.82001E+00
 -1      2260 4.92915E+00
 -1      2261 5.17824E+00
 -1      2262 5.17824E+00
 -1      2263 6.91768E+00
 -1      2264 1.03504E+01
 -1      2265 1.03504E+01
 -1      2266 3.02871E+01
 -1      2267 3.64987E+01
 -1      2268 4.01517E+01
 -1      2269 4.01517E+01
 -1      2270 3.11221E+01
 -1      2271 3.11221E+01
 -1      2272 3.01100E+01
 -1      2273 2.68892E+01
 -1      2274 2.73277E+01
 -1      2275 2.73277E+01
 -1      2276 2.70657E+01
 -1      2277 2.68000E+01
 -1      2278 2.66909E+01
 -1      2279 2.66586E+01
 -1      2280 2.66260E+01
 -1      2281 2.66046E+01
 -1      2282 2.66279E+01
 -1      2283 2.69803E+01
 -1      2284 2.75303E+01
 -1      2285 2.75303E+01
 -1      2286 2.91969E+01
 -1      2287 3.02085E+01
 -1      2288 3.02085E+01
 -1      2289 3.71931E+01
 -1      2290 3.71931E+01
 -1      2291 4.17568E+01
 -1      2292 4.17568E+01
 -1      2293 6.39085E+01
 -1      2294 6.27338E+01
 -1      2295 6.61030E+01
 -1      2296 6.82534E+01
 -1      2297 6.87355E+01
 -1      2298 6.87355E+01
 -1      2299 6.85993E+01
 -1      2300 6.83643E+01
 -1      2301 6.82045E+01
 -1      2302 6.80919E+01
 -1      2303 6.80110E+01
 -1      2304 6.79598E+01
 -1      2305 6.79078E+01
 -1      2306 6.80105E+01
 -1      2307 6.85536E+01
 -1      2308 6.85536E+01
 -1      2309 6.96851E+01
 -1      2310 6.96851E+01
 -1      2311 6.95774E+01
 -1      2312 6.33997E+01
 -1      2313 6.17485E+01
 -1      2314 3.77363E+01
 -1      2315 2.04247E+01
 -1      2316 4.50453E+01
 -1      2317 3.16856E+01
 -1      2318 2.65289E+01
 -1      2319 2.09279E+01
 -1      2320 2.05761E+01
 -1      2321 2.05761E+01
 -1      2322 2.02022E+01
 -1      2323 1.99332E+01
 -1      2324 1.98118E+01
 -1      2325 1.97748E+01
 -1      2326 1.97723E+01
 -1      2327 1.97720E+01
 -1      2328 1.98229E+01
 -1      2329 2.01192E+01
 -1      2330 2.05723E+01
 -1      2331 2.05723E+01
 -1      2332 2.20873E+01
 -1      2333 2.54205E+01
 -1      2334 2.54205E+01
 -1      2335 4.13427E+01
 -1      2336 4.13427E+01
 -1      2337 3.85844E+01
 -1      2338 2.50574E+01
 -1      2339 4.02934E+01
 -1      2340 2.78381E+01
 -1      2341 1.92254E+01
 -1      2342 1.26332E+01
 -1      2343 1.18470E+01
 -1      2344 1.18470E+01
 -1      2345 1.14833E+01
 -1      2346 1.12354E+01
 -1      2347 1.11285E+01
 -1      2348 1.11001E+01
 -1      2349 1.11023E+01
 -1      2350 1.11023E+01
 -1      2351 1.11738E+01
 -1      2352 1.14479E+01
 -1      2353 1.18762E+01
 -1      2354 1.18762E+01
 -1      2355 1.32126E+01
 -1      2356 1.77214E+01
 -1      2357 1.77214E+01
 -1      2358 3.79836E+01
 -1      2359 3.89904E+01
 -1      2360 3.89904E+01
 -1      2361 3.15267E+01
 -1      2362 3.95390E+01
 -1      2363 2.50925E+01
 -1      2364 1.43714E+01
 -1      2365 7.22244E+00
 -1      2366 6.57496E+00
 -1      2367 6.57496E+00
 -1      2368 6.21397E+00
 -1      2369 5.97339E+00
 -1      2370 5.87326E+00
 -1      2371 5.85159E+00
 -1      2372 5.85539E+00
 -1      2373 5.85539E+00
 -1      2374 5.92506E+00
 -1      2375 6.18928E+00
 -1      2376 6.64109E+00
 -1      2377 6.64109E+00
 -1      2378 8.00538E+00
 -1      2379 1.33240E+01
 -1      2380 1.33240E+01
 -1      2381 3.60912E+01
 -1      2382 3.89904E+01
 -1      2383 3.89904E+01
 -1      2384 3.55727E+01
 -1      2385 3.77584E+01
 -1      2386 2.13131E+01
 -1      2387 1.10628E+01
 -1      2388 4.51898E+00
 -1      2389 3.94448E+00
 -1      2390 3.94448E+00
 -1      2391 3.80443E+00
 -1      2392 3.70792E+00
 -1      2393 3.66599E+00
 -1      2394 3.65804E+00
 -1      2395 3.65804E+00
 -1      2396 3.65796E+00
 -1      2397 3.69505E+00
 -1      2398 3.80213E+00
 -1      2399 3.96590E+00
 -1      2400 3.96590E+00
 -1      2401 4.54824E+00
 -1      2402 8.73928E+00
 -1      2403 8.73928E+00
 -1      2404 3.29503E+01
 -1      2405 3.78399E+01
 -1      2406 3.78399E+01
 -1      2407 3.73023E+01
 -1      2408 3.56057E+01
 -1      2409 1.78773E+01
 -1      2410 7.80172E+00
 -1      2411 3.13128E+00
 -1      2412 2.54894E+00
 -1      2413 2.54894E+00
 -1      2414 2.40367E+00
 -1      2415 2.30509E+00
 -1      2416 2.26304E+00
 -1      2417 2.25597E+00
 -1      2418 2.25626E+00
 -1      2419 2.25626E+00
 -1      2420 2.29381E+00
 -1      2421 2.40388E+00
 -1      2422 2.57784E+00
 -1      2423 2.57784E+00
 -1      2424 3.18025E+00
 -1      2425 4.89792E+00
 -1      2426 4.89792E+00
 -1      2427 2.96718E+01
 -1      2428 3.58963E+01
 -1      2429 3.58963E+01
 -1      2430 3.73023E+01
 -1      2431 3.77584E+01
 -1      2432 2.13131E+01
 -1      2433 1.10628E+01
 -1      2434 4.51898E+00
 -1      2435 3.94448E+00
 -1      2436 3.94448E+00
 -1      2437 3.80443E+00
 -1      2438 3.70792E+00
 -1      2439 3.66599E+00
 -1      2440 3.65804E+00
 -1      2441 3.65804E+00
 -1      2442 3.65796E+00
 -1      2443 3.69505E+00
 -1      2444 3.80213E+00
 -1      2445 3.96590E+00
 -1      2446 3.96590E+00
 -1      2447 4.54824E+00
 -1      2448 8.73928E+00
 -1      2449 8.73928E+00
 -1      2450 3.29503E+01
 -1      2451 3.78399E+01
 -1      2452 3.78399E+01
 -1      2453 3.73023E+01
 -1      2454 3.95390E+01
 -1      2455 2.50925E+01
 -1      2456 1.43714E+01
 -1      2457 7.22244E+00
 -1      2458 6.57496E+00
 -1      2459 6.57496E+00
 -1      2460 6.21397E+00
 -1      2461 5.97339E+00
 -1      2462 5.87326E+00
 -1      2463 5.85159E+00
 -1      2464 5.85539E+00
 -1      2465 5.85539E+00
 -1      2466 5.92506E+00
 -1      2467 6.18928E+00
 -1      2468 6.64109E+00
 -1      2469 6.64109E+00
 -1      2470 8.00538E+00
 -1      2471 1.33240E+01
 -1      2472 1.33240E+01
 -1      2473 3.60912E+01
 -1      2474 3.89904E+01
 -1      2475 3.89904E+01
 -1      2476 3.55727E+01
 -1      2477 4.02934E+01
 -1      2478 2.78381E+01
 -1      2479 1.92254E+01
 -1      2480 1.26332E+01
 -1      2481 1.18470E+01
 -1      2482 1.18470E+01
 -1      2483 1.14833E+01
 -1      2484 1.12354E+01
 -1      2485 1.11285E+01
 -1      2486 1.11001E+01
 -1      2487 1.11023E+01
 -1      2488 1.11023E+01
 -1      2489 1.11738E+01
 -1      2490 1.14479E+01
 -1      2491 1.18762E+01
 -1      2492 1.18762E+01
 -1      2493 1.32126E+01
 -1      2494 1.77214E+01
 -1      2495 1.77214E+01
 -1      2496 3.79836E+01
 -1      2497 3.89904E+01
 -1      2498 3.89904E+01
 -1      2499 3.15267E+01
 -1      2500 4.50453E+01
 -1      2501 3.16856E+01
 -1      2502 2.65289E+01
 -1      2503 2.09279E+01
 -1      2504 2.05761E+01
 -1      2505 2.05761E+01
 -1      2506 2.02022E+01
 -1      2507 1.99332E+01
 -1      2508 1.98118E+01
 -1      2509 1.97748E+01
 -1      2510 1.97723E+01
 -1      2511 1.97720E+01
 -1      2512 1.98229E+01
 -1      2513 2.01192E+01
 -1      2514 2.05723E+01
 -1      2515 2.05723E+01
 -1      2516 2.20873E+01
 -1      2517 2.54205E+01
 -1      2518 2.54205E+01
 -1      2519 4.13427E+01
 -1      2520 4.13427E+01
 -1      2521 3.85844E+01
 -1      2522 2.50574E+01
 -1      2523 6.39085E+01
 -1      2524 6.27338E+01
 -1      2525 6.61030E+01
 -1      2526 6.82534E+01
 -1      2527 6.87355E+01
 -1      2528 6.87355E+01
 -1      2529 6.85993E+01
 -1      2530 6.83643E+01
 -1      2531 6.82045E+01
 -1      2532 6.80919E+01
 -1      2533 6.80110E+01
 -1      2534 6.79598E+01
 -1      2535 6.79078E+01
 -1      2536 6.80105E+01
 -1      2537 6.85536E+01
 -1      2538 6.85536E+01
 -1      2539 6.96851E+01
 -1      2540 6.96851E+01
 -1      2541 6.95774E+01
 -1      2542 6.33997E+01
 -1      2543 6.17485E+01
 -1      2544 3.77363E+01
 -1      2545 2.04247E+01
 -1      2546 7.81692E+01
 -1      2547 9.23146E+01
 -1      2548 9.82615E+01
 -1      2549 9.83064E+01
 -1      2550 9.83064E+01
 -1      2551 9.79966E+01
 -1      2552 9.78012E+01
 -1      2553 9.77192E+01
 -1      2554 9.76745E+01
 -1      2555 9.76351E+01
 -1      2556 9.75965E+01
 -1      2557 9.75796E+01
 -1      2558 9.75796E+01
 -1      2559 9.75673E+01
 -1      2560 9.73907E+01
 -1      2561 9.71617E+01
 -1      2562 9.70263E+01
 -1      2563 9.78369E+01
 -1      2564 9.78369E+01
 -1      2565 9.73257E+01
 -1      2566 8.04811E+01
 -1      2567 3.77363E+01
 -1      2568 4.29319E+01
 -1      2569 6.14669E+01
 -1      2570 4.38887E+01
 -1      2571 3.84382E+01
 -1      2572 3.51238E+01
 -1      2573 3.51238E+01
 -1      2574 3.50613E+01
 -1      2575 3.47154E+01
 -1      2576 3.44786E+01
 -1      2577 3.43642E+01
 -1      2578 3.43150E+01
 -1      2579 3.42972E+01
 -1      2580 3.42972E+01
 -1      2581 3.42981E+01
 -1      2582 3.45131E+01
 -1      2583 3.49264E+01
 -1      2584 3.49264E+01
 -1      2585 3.58687E+01
 -1      2586 3.98532E+01
 -1      2587 3.98532E+01
 -1      2588 5.13988E+01
 -1      2589 5.13988E+01
 -1      2590 4.01941E+01
 -1      2591 5.00860E+01
 -1      2592 5.61925E+01
 -1      2593 3.76306E+01
 -1      2594 2.80219E+01
 -1      2595 2.25168E+01
 -1      2596 2.25168E+01
 -1      2597 2.23937E+01
 -1      2598 2.20583E+01
 -1      2599 2.18506E+01
 -1      2600 2.17607E+01
 -1      2601 2.17273E+01
 -1      2602 2.17252E+01
 -1      2603 2.17252E+01
 -1      2604 2.17679E+01
 -1      2605 2.19737E+01
 -1      2606 2.23444E+01
 -1      2607 2.23926E+01
 -1      2608 2.27389E+01
 -1      2609 2.85969E+01
 -1      2610 2.85969E+01
 -1      2611 4.69701E+01
 -1      2612 4.69701E+01
 -1      2613 4.01941E+01
 -1      2614 6.06767E+01
 -1      2615 5.26765E+01
 -1      2616 3.18587E+01
 -1      2617 1.88998E+01
 -1      2618 1.24147E+01
 -1      2619 1.24147E+01
 -1      2620 1.22774E+01
 -1      2621 1.19260E+01
 -1      2622 1.17141E+01
 -1      2623 1.16277E+01
 -1      2624 1.15988E+01
 -1      2625 1.16036E+01
 -1      2626 1.16036E+01
 -1      2627 1.16575E+01
 -1      2628 1.18704E+01
 -1      2629 1.22595E+01
 -1      2630 1.24235E+01
 -1      2631 1.25416E+01
 -1      2632 2.00012E+01
 -1      2633 2.00012E+01
 -1      2634 4.32298E+01
 -1      2635 4.32298E+01
 -1      2636 4.00492E+01
 -1      2637 6.67683E+01
 -1      2638 4.96487E+01
 -1      2639 2.57842E+01
 -1      2640 1.01209E+01
 -1      2641 4.03544E+00
 -1      2642 3.97199E+00
 -1      2643 3.91224E+00
 -1      2644 3.76633E+00
 -1      2645 3.67967E+00
 -1      2646 3.64562E+00
 -1      2647 3.63533E+00
 -1      2648 3.63825E+00
 -1      2649 3.63825E+00
 -1      2650 3.66062E+00
 -1      2651 3.74585E+00
 -1      2652 3.90251E+00
 -1      2653 4.00032E+00
 -1      2654 4.20748E+00
 -1      2655 1.13370E+01
 -1      2656 1.13370E+01
 -1      2657 3.88144E+01
 -1      2658 3.88144E+01
 -1      2659 3.80633E+01
 -1      2660 6.95218E+01
 -1      2661 4.77559E+01
 -1      2662 2.20352E+01
 -1      2663 5.88883E+00
 -1      2664 2.23771E+00
 -1      2665 1.95730E+00
 -1      2666 1.94883E+00
 -1      2667 1.79706E+00
 -1      2668 1.69606E+00
 -1      2669 1.65301E+00
 -1      2670 1.64159E+00
 -1      2671 1.64285E+00
 -1      2672 1.64285E+00
 -1      2673 1.66997E+00
 -1      2674 1.77637E+00
 -1      2675 1.98226E+00
 -1      2676 2.01985E+00
 -1      2677 2.40621E+00
 -1      2678 5.61476E+00
 -1      2679 5.61476E+00
 -1      2680 3.55431E+01
 -1      2681 3.58963E+01
 -1      2682 3.58963E+01
 -1      2683 6.95218E+01
 -1      2684 4.96487E+01
 -1      2685 2.57842E+01
 -1      2686 1.01209E+01
 -1      2687 4.03544E+00
 -1      2688 3.97199E+00
 -1      2689 3.91224E+00
 -1      2690 3.76633E+00
 -1      2691 3.67967E+00
 -1      2692 3.64562E+00
 -1      2693 3.63533E+00
 -1      2694 3.63825E+00
 -1      2695 3.63825E+00
 -1      2696 3.66062E+00
 -1      2697 3.74585E+00
 -1      2698 3.90251E+00
 -1      2699 4.00032E+00
 -1      2700 4.20748E+00
 -1      2701 1.13370E+01
 -1      2702 1.13370E+01
 -1      2703 3.88144E+01
 -1      2704 3.88144E+01
 -1      2705 3.80633E+01
 -1      2706 6.95218E+01
 -1      2707 5.26765E+01
 -1      2708 3.18587E+01
 -1      2709 1.88998E+01
 -1      2710 1.24147E+01
 -1      2711 1.24147E+01
 -1      2712 1.22774E+01
 -1      2713 1.19260E+01
 -1      2714 1.17141E+01
 -1      2715 1.16277E+01
 -1      2716 1.15988E+01
 -1      2717 1.16036E+01
 -1      2718 1.16036E+01
 -1      2719 1.16575E+01
 -1      2720 1.18704E+01
 -1      2721 1.22595E+01
 -1      2722 1.24235E+01
 -1      2723 1.25416E+01
 -1      2724 2.00012E+01
 -1      2725 2.00012E+01
 -1      2726 4.32298E+01
 -1      2727 4.32298E+01
 -1      2728 4.00492E+01
 -1      2729 6.67683E+01
 -1      2730 5.61925E+01
 -1      2731 3.76306E+01
 -1      2732 2.80219E+01
 -1      2733 2.25168E+01
 -1      2734 2.25168E+01
 -1      2735 2.23937E+01
 -1      2736 2.20583E+01
 -1      2737 2.18506E+01
 -1      2738 2.17607E+01
 -1      2739 2.17273E+01
 -1      2740 2.17252E+01
 -1      2741 2.17252E+01
 -1      2742 2.17679E+01
 -1      2743 2.19737E+01
 -1      2744 2.23444E+01
 -1      2745 2.23926E+01
 -1      2746 2.27389E+01
 -1      2747 2.85969E+01
 -1      2748 2.85969E+01
 -1      2749 4.69701E+01
 -1      2750 4.69701E+01
 -1      2751 4.01941E+01
 -1      2752 6.06767E+01
 -1      2753 6.14669E+01
 -1      2754 4.38887E+01
 -1      2755 3.84382E+01
 -1      2756 3.51238E+01
 -1      2757 3.51238E+01
 -1      2758 3.50613E+01
 -1      2759 3.47154E+01
 -1      2760 3.44786E+01
 -1      2761 3.43642E+01
 -1      2762 3.43150E+01
 -1      2763 3.42972E+01
 -1      2764 3.42972E+01
 -1      2765 3.42981E+01
 -1      2766 3.45131E+01
 -1      2767 3.49264E+01
 -1      2768 3.49264E+01
 -1      2769 3.58687E+01
 -1      2770 3.98532E+01
 -1      2771 3.98532E+01
 -1      2772 5.13988E+01
 -1      2773 5.13988E+01
 -1      2774 4.01941E+01
 -1      2775 5.00860E+01
 -1      2776 7.81692E+01
 -1      2777 9.23146E+01
 -1      2778 9.82615E+01
 -1      2779 9.83064E+01
 -1      2780 9.83064E+01
 -1      2781 9.79966E+01
 -1      2782 9.78012E+01
 -1      2783 9.77192E+01
 -1      2784 9.76745E+01
 -1      2785 9.76351E+01
 -1      2786 9.75965E+01
 -1      2787 9.75796E+01
 -1      2788 9.75796E+01
 -1      2789 9.75673E+01
 -1      2790 9.73907E+01
 -1      2791 9.71617E+01
 -1      2792 9.70263E+01
 -1      2793 9.78369E+01
 -1      2794 9.78369E+01
 -1      2795 9.73257E+01
 -1      2796 8.04811E+01
 -1      2797 3.77363E+01
 -1      2798 4.29319E+01
 -1      2799 7.81692E+01
 -1      2800 9.23146E+01
 -1      2801 9.82615E+01
 -1      2802 9.83064E+01
 -1      2803 9.83064E+01
 -1      2804 9.79966E+01
 -1      2805 9.78012E+01
 -1      2806 9.77192E+01
 -1      2807 9.76745E+01
 -1      2808 9.76351E+01
 -1      2809 9.75965E+01
 -1      2810 9.75796E+01
 -1      2811 9.75796E+01
 -1      2812 9.75673E+01
 -1      2813 9.73907E+01
 -1      2814 9.71617E+01
 -1      2815 9.70263E+01
 -1      2816 9.78369E+01
 -1      2817 9.78369E+01
 -1      2818 9.73257E+01
 -1      2819 8.04811E+01
 -1      2820 6.19339E+01
 -1      2821 6.19339E+01
 -1      2822 6.74261E+01
 -1      2823 5.22990E+01
 -1      2824 4.64400E+01
 -1      2825 4.59899E+01
 -1      2826 4.59899E+01
 -1      2827 4.58898E+01
 -1      2828 4.55631E+01
 -1      2829 4.53220E+01
 -1      2830 4.51868E+01
 -1      2831 4.51164E+01
 -1      2832 4.50743E+01
 -1      2833 4.50603E+01
 -1      2834 4.50603E+01
 -1      2835 4.50882E+01
 -1      2836 4.53069E+01
 -1      2837 4.55731E+01
 -1      2838 4.61011E+01
 -1      2839 5.05130E+01
 -1      2840 5.05130E+01
 -1      2841 5.61509E+01
 -1      2842 5.61509E+01
 -1      2843 7.02526E+01
 -1      2844 7.02526E+01
 -1      2845 6.74261E+01
 -1      2846 4.89247E+01
 -1      2847 3.93979E+01
 -1      2848 3.58060E+01
 -1      2849 3.58060E+01
 -1      2850 3.56854E+01
 -1      2851 3.54375E+01
 -1      2852 3.52929E+01
 -1      2853 3.52228E+01
 -1      2854 3.51923E+01
 -1      2855 3.51776E+01
 -1      2856 3.51776E+01
 -1      2857 3.52001E+01
 -1      2858 3.53175E+01
 -1      2859 3.55706E+01
 -1      2860 3.57438E+01
 -1      2861 3.57438E+01
 -1      2862 4.07630E+01
 -1      2863 4.07630E+01
 -1      2864 5.61509E+01
 -1      2865 5.61509E+01
 -1      2866 7.48766E+01
 -1      2867 7.48766E+01
 -1      2868 6.19584E+01
 -1      2869 3.90758E+01
 -1      2870 2.41719E+01
 -1      2871 1.90687E+01
 -1      2872 1.90687E+01
 -1      2873 1.89474E+01
 -1      2874 1.86521E+01
 -1      2875 1.84945E+01
 -1      2876 1.84248E+01
 -1      2877 1.83989E+01
 -1      2878 1.83966E+01
 -1      2879 1.83966E+01
 -1      2880 1.84457E+01
 -1      2881 1.85969E+01
 -1      2882 1.89294E+01
 -1      2883 1.90344E+01
 -1      2884 1.90344E+01
 -1      2885 2.64168E+01
 -1      2886 2.64168E+01
 -1      2887 5.09856E+01
 -1      2888 5.09856E+01
 -1      2889 7.77477E+01
 -1      2890 7.77477E+01
 -1      2891 5.67502E+01
 -1      2892 2.87016E+01
 -1      2893 9.67177E+00
 -1      2894 3.97199E+00
 -1      2895 3.97199E+00
 -1      2896 3.91224E+00
 -1      2897 3.76633E+00
 -1      2898 3.67967E+00
 -1      2899 3.64562E+00
 -1      2900 3.63533E+00
 -1      2901 3.63825E+00
 -1      2902 3.63825E+00
 -1      2903 3.66062E+00
 -1      2904 3.74585E+00
 -1      2905 3.90251E+00
 -1      2906 4.00032E+00
 -1      2907 4.02384E+00
 -1      2908 1.15374E+01
 -1      2909 1.15374E+01
 -1      2910 4.44263E+01
 -1      2911 4.44263E+01
 -1      2912 7.93177E+01
 -1      2913 7.93177E+01
 -1      2914 5.60373E+01
 -1      2915 2.67827E+01
 -1      2916 4.78018E+00
 -1      2917 2.02451E+00
 -1      2918 2.02451E+00
 -1      2919 1.95938E+00
 -1      2920 1.81236E+00
 -1      2921 1.73781E+00
 -1      2922 1.70631E+00
 -1      2923 1.69535E+00
 -1      2924 1.69560E+00
 -1      2925 1.69560E+00
 -1      2926 1.72148E+00
 -1      2927 1.79479E+00
 -1      2928 1.94106E+00
 -1      2929 1.99635E+00
 -1      2930 1.99635E+00
 -1      2931 7.41730E+00
 -1      2932 7.41730E+00
 -1      2933 4.19397E+01
 -1      2934 4.19397E+01
 -1      2935 7.93177E+01
 -1      2936 7.93177E+01
 -1      2937 5.67502E+01
 -1      2938 2.87016E+01
 -1      2939 9.67177E+00
 -1      2940 3.97199E+00
 -1      2941 3.97199E+00
 -1      2942 3.91224E+00
 -1      2943 3.76633E+00
 -1      2944 3.67967E+00
 -1      2945 3.64562E+00
 -1      2946 3.63533E+00
 -1      2947 3.63825E+00
 -1      2948 3.63825E+00
 -1      2949 3.66062E+00
 -1      2950 3.74585E+00
 -1      2951 3.90251E+00
 -1      2952 4.00032E+00
 -1      2953 4.02384E+00
 -1      2954 1.15374E+01
 -1      2955 1.15374E+01
 -1      2956 4.44263E+01
 -1      2957 4.44263E+01
 -1      2958 7.93177E+01
 -1      2959 7.93177E+01
 -1      2960 6.19584E+01
 -1      2961 3.90758E+01
 -1      2962 2.41719E+01
 -1      2963 1.90687E+01
 -1      2964 1.90687E+01
 -1      2965 1.89474E+01
 -1      2966 1.86521E+01
 -1      2967 1.84945E+01
 -1      2968 1.84248E+01
 -1      2969 1.83989E+01
 -1      2970 1.83966E+01
 -1      2971 1.83966E+01
 -1      2972 1.84457E+01
 -1      2973 1.85969E+01
 -1      2974 1.89294E+01
 -1      2975 1.90344E+01
 -1      2976 1.90344E+01
 -1      2977 2.64168E+01
 -1      2978 2.64168E+01
 -1      2979 5.09856E+01
 -1      2980 5.09856E+01
 -1      2981 7.77477E+01
 -1      2982 7.77477E+01
 -1      2983 6.74261E+01
 -1      2984 4.89247E+01
 -1      2985 3.93979E+01
 -1      2986 3.58060E+01
 -1      2987 3.58060E+01
 -1      2988 3.56854E+01
 -1      2989 3.54375E+01
 -1      2990 3.52929E+01
 -1      2991 3.52228E+01
 -1      2992 3.51923E+01
 -1      2993 3.51776E+01
 -1      2994 3.51776E+01
 -1      2995 3.52001E+01
 -1      2996 3.53175E+01
 -1      2997 3.55706E+01
 -1      2998 3.57438E+01
 -1      2999 3.57438E+01
 -1      3000 4.07630E+01
 -1      3001 4.07630E+01
 -1      3002 5.61509E+01
 -1      3003 5.61509E+01
 -1      3004 7.48766E+01
 -1      3005 7.48766E+01
 -1      3006 6.74261E+01
 -1      3007 5.22990E+01
 -1      3008 4.64400E+01
 -1      3009 4.59899E+01
 -1      3010 4.59899E+01
 -1      3011 4.58898E+01
 -1      3012 4.55631E+01
 -1      3013 4.53220E+01
 -1      3014 4.51868E+01
 -1      3015 4.51164E+01
 -1      3016 4.50743E+01
 -1      3017 4.50603E+01
 -1      3018 4.50603E+01
 -1      3019 4.50882E+01
 -1      3020 4.53069E+01
 -1      3021 4.55731E+01
 -1      3022 4.61011E+01
 -1      3023 5.05130E+01
 -1      3024 5.05130E+01
 -1      3025 5.61509E+01
 -1      3026 5.61509E+01
 -1      3027 7.02526E+01
 -1      3028 7.02526E+01
 -1      3029 7.81692E+01
 -1      3030 9.23146E+01
 -1      3031 9.82615E+01
 -1      3032 9.83064E+01
 -1      3033 9.83064E+01
 -1      3034 9.79966E+01
 -1      3035 9.78012E+01
 -1      3036 9.77192E+01
 -1      3037 9.76745E+01
 -1      3038 9.76351E+01
 -1      3039 9.75965E+01
 -1      3040 9.75796E+01
 -1      3041 9.75796E+01
 -1      3042 9.75673E+01
 -1      3043 9.73907E+01
 -1      3044 9.71617E+01
 -1      3045 9.70263E+01
 -1      3046 9.78369E+01
 -1      3047 9.78369E+01
 -1      3048 9.73257E+01
 -1      3049 8.04811E+01
 -1      3050 6.19339E+01
 -1      3051 6.19339E+01
 -1      3052 7.03115E+01
 -1      3053 7.29813E+01
 -1      3054 7.65342E+01
 -1      3055 7.90248E+01
 -1      3056 8.23913E+01
 -1      3057 8.56511E+01
 -1      3058 8.80657E+01
 -1      3059 8.94885E+01
 -1      3060 9.02112E+01
 -1      3061 9.05320E+01
 -1      3062 9.06395E+01
 -1      3063 9.06961E+01
 -1      3064 9.07173E+01
 -1      3065 9.07173E+01
 -1      3066 9.04960E+01
 -1      3067 8.89477E+01
 -1      3068 8.52103E+01
 -1      3069 8.38583E+01
 -1      3070 8.48934E+01
 -1      3071 8.48934E+01
 -1      3072 8.43180E+01
 -1      3073 7.29210E+01
 -1      3074 7.29210E+01
 -1      3075 7.21049E+01
 -1      3076 7.29813E+01
 -1      3077 7.65342E+01
 -1      3078 7.90248E+01
 -1      3079 8.23913E+01
 -1      3080 8.56511E+01
 -1      3081 8.80657E+01
 -1      3082 8.94885E+01
 -1      3083 9.02112E+01
 -1      3084 9.05320E+01
 -1      3085 9.06395E+01
 -1      3086 9.06961E+01
 -1      3087 9.07173E+01
 -1      3088 9.07173E+01
 -1      3089 9.04960E+01
 -1      3090 8.89477E+01
 -1      3091 8.52103E+01
 -1      3092 8.38583E+01
 -1      3093 8.48934E+01
 -1      3094 8.48934E+01
 -1      3095 8.43180E+01
 -1      3096 7.02526E+01
 -1      3097 7.02526E+01
 -1      3098 7.21049E+01
 -1      3099 5.58605E+01
 -1      3100 4.47796E+01
 -1      3101 4.23944E+01
 -1      3102 4.23944E+01
 -1      3103 4.23604E+01
 -1      3104 4.21883E+01
 -1      3105 4.20692E+01
 -1      3106 4.19891E+01
 -1      3107 4.19471E+01
 -1      3108 4.19235E+01
 -1      3109 4.19114E+01
 -1      3110 4.19324E+01
 -1      3111 4.19711E+01
 -1      3112 4.21040E+01
 -1      3113 4.21040E+01
 -1      3114 4.25094E+01
 -1      3115 4.50360E+01
 -1      3116 4.80253E+01
 -1      3117 6.24540E+01
 -1      3118 6.34607E+01
 -1      3119 7.48766E+01
 -1      3120 7.48766E+01
 -1      3121 6.47490E+01
 -1      3122 4.70699E+01
 -1      3123 3.17431E+01
 -1      3124 2.82406E+01
 -1      3125 2.79253E+01
 -1      3126 2.78549E+01
 -1      3127 2.76654E+01
 -1      3128 2.75699E+01
 -1      3129 2.75172E+01
 -1      3130 2.74970E+01
 -1      3131 2.74922E+01
 -1      3132 2.75039E+01
 -1      3133 2.75663E+01
 -1      3134 2.76528E+01
 -1      3135 2.79693E+01
 -1      3136 2.79693E+01
 -1      3137 2.82311E+01
 -1      3138 3.15565E+01
 -1      3139 3.81861E+01
 -1      3140 5.94329E+01
 -1      3141 6.50875E+01
 -1      3142 7.77477E+01
 -1      3143 7.77477E+01
 -1      3144 5.93515E+01
 -1      3145 3.40576E+01
 -1      3146 8.82432E+00
 -1      3147 4.32186E+00
 -1      3148 4.03288E+00
 -1      3149 3.97358E+00
 -1      3150 3.86226E+00
 -1      3151 3.81025E+00
 -1      3152 3.78271E+00
 -1      3153 3.77229E+00
 -1      3154 3.76906E+00
 -1      3155 3.77497E+00
 -1      3156 3.80711E+00
 -1      3157 3.86294E+00
 -1      3158 3.99881E+00
 -1      3159 3.99881E+00
 -1      3160 3.89633E+00
 -1      3161 1.15374E+01
 -1      3162 1.85909E+01
 -1      3163 5.08854E+01
 -1      3164 6.50875E+01
 -1      3165 7.93177E+01
 -1      3166 7.93177E+01
 -1      3167 5.81112E+01
 -1      3168 3.25173E+01
 -1      3169 6.23175E+00
 -1      3170 3.35477E+00
 -1      3171 3.04520E+00
 -1      3172 3.00458E+00
 -1      3173 2.89834E+00
 -1      3174 2.84691E+00
 -1      3175 2.81737E+00
 -1      3176 2.80600E+00
 -1      3177 2.80144E+00
 -1      3178 2.80772E+00
 -1      3179 2.84013E+00
 -1      3180 2.89778E+00
 -1      3181 3.03833E+00
 -1      3182 3.03833E+00
 -1      3183 2.95448E+00
 -1      3184 7.41730E+00
 -1      3185 1.83598E+01
 -1      3186 4.97636E+01
 -1      3187 6.47033E+01
 -1      3188 7.93177E+01
 -1      3189 7.93177E+01
 -1      3190 5.93515E+01
 -1      3191 3.40576E+01
 -1      3192 8.82432E+00
 -1      3193 4.32186E+00
 -1      3194 4.03288E+00
 -1      3195 3.97358E+00
 -1      3196 3.86226E+00
 -1      3197 3.81025E+00
 -1      3198 3.78271E+00
 -1      3199 3.77229E+00
 -1      3200 3.76906E+00
 -1      3201 3.77497E+00
 -1      3202 3.80711E+00
 -1      3203 3.86293E+00
 -1      3204 3.99881E+00
 -1      3205 3.99881E+00
 -1      3206 3.89633E+00
 -1      3207 1.15374E+01
 -1      3208 1.85909E+01
 -1      3209 5.08854E+01
 -1      3210 6.50875E+01
 -1      3211 7.93177E+01
 -1      3212 7.93177E+01
 -1      3213 6.47490E+01
 -1      3214 4.70699E+01
 -1      3215 3.17431E+01
 -1      3216 2.82406E+01
 -1      3217 2.79253E+01
 -1      3218 2.78549E+01
 -1      3219 2.76654E+01
 -1      3220 2.75699E+01
 -1      3221 2.75172E+01
 -1      3222 2.74970E+01
 -1      3223 2.74922E+01
 -1      3224 2.75039E+01
 -1      3225 2.75662E+01
 -1      3226 2.76528E+01
 -1      3227 2.79693E+01
 -1      3228 2.79693E+01
 -1      3229 2.82311E+01
 -1      3230 3.15565E+01
 -1      3231 3.81861E+01
 -1      3232 5.94329E+01
 -1      3233 6.50875E+01
 -1      3234 7.77477E+01
 -1      3235 7.77477E+01
 -1      3236 7.21049E+01
 -1      3237 5.58605E+01
 -1      3238 4.47796E+01
 -1      3239 4.23944E+01
 -1      3240 4.23944E+01
 -1      3241 4.23604E+01
 -1      3242 4.21883E+01
 -1      3243 4.20692E+01
 -1      3244 4.19891E+01
 -1      3245 4.19471E+01
 -1      3246 4.19235E+01
 -1      3247 4.19114E+01
 -1      3248 4.19324E+01
 -1      3249 4.19711E+01
 -1      3250 4.21040E+01
 -1      3251 4.21040E+01
 -1      3252 4.25094E+01
 -1      3253 4.50360E+01
 -1      3254 4.80253E+01
 -1      3255 6.24540E+01
 -1      3256 6.34607E+01
 -1      3257 7.48766E+01
 -1      3258 7.48766E+01
 -1      3259 7.21049E+01
 -1      3260 7.29813E+01
 -1      3261 7.65342E+01
 -1      3262 7.90248E+01
 -1      3263 8.23913E+01
 -1      3264 8.56511E+01
 -1      3265 8.80657E+01
 -1      3266 8.94885E+01
 -1      3267 9.02112E+01
 -1      3268 9.05320E+01
 -1      3269 9.06395E+01
 -1      3270 9.06961E+01
 -1      3271 9.07173E+01
 -1      3272 9.07173E+01
 -1      3273 9.04960E+01
 -1      3274 8.89477E+01
 -1      3275 8.52103E+01
 -1      3276 8.38583E+01
 -1      3277 8.48934E+01
 -1      3278 8.48934E+01
 -1      3279 8.43180E+01
 -1      3280 7.02526E+01
 -1      3281 7.02526E+01
 -1      3282 7.03115E+01
 -1      3283 7.29813E+01
 -1      3284 7.65342E+01
 -1      3285 7.90248E+01
 -1      3286 8.23913E+01
 -1      3287 8.56511E+01
 -1      3288 8.80657E+01
 -1      3289 8.94885E+01
 -1      3290 9.02112E+01
 -1      3291 9.05320E+01
 -1      3292 9.06395E+01
 -1      3293 9.06961E+01
 -1      3294 9.07173E+01
 -1      3295 9.07173E+01
 -1      3296 9.04960E+01
 -1      3297 8.89477E+01
 -1      3298 8.52103E+01
 -1      3299 8.38583E+01
 -1      3300 8.48934E+01
 -1      3301 8.48934E+01
 -1      3302 8.43180E+01
 -1      3303 7.29210E+01
 -1      3304 7.29210E+01
 -3
    1PSTEP                        16           6           1          
  100CL  106 1.000000000        3304                     0    6           1
 -4  DISP        4    1
 -5  D1          1    2    1    0
 -5  D2          1    2    2    0
 -5  D3          1    2    3    0
 -5  ALL         1    2    0    0    1ALL
 -1         1 0.00000E+00 0.00000E+00 0.00000E+00
 -1         2 5.32007E-02 3.94399E-04-3.44710E-05
 -1         3 0.00000E+00 0.00000E+00 0.00000E+00
 -1         4 5.22252E-02 1.96859E-04-4.09643E-05
 -1         5 0.00000E+00 0.00000E+00 0.00000E+00
 -1         6 5.20310E-02 8.88963E-05-4.39034E-05
 -1         7 0.00000E+00 0.00000E+00 0.00000E+00
 -1         8 5.19776E-02 3.31168E-10-4.41875E-05
 -1         9 0.00000E+00 0.00000E+00 0.00000E+00
 -1        10 5.20310E-02-8.88957E-05-4.39034E-05
 -1        11 0.00000E+00 0.00000E+00 0.00000E+00
 -1        12 5.22252E-02-1.96858E-04-4.09643E-05
 -1        13 0.00000E+00 0.00000E+00 0.00000E+00
 -1        14 5.32007E-02-3.94398E-04-3.44710E-05
 -1        15 0.00000E+00 0.00000E+00 0.00000E+00
 -1        16 5.22564E-02 1.91348E-04-1.19419E-03
 -1        17 0.00000E+00 0.00000E+00 0.00000E+00
 -1        18 5.17770E-02 1.36357E-04-1.13263E-03
 -1        19 0.00000E+00 0.00000E+00 0.00000E+00
 -1        20 5.15721E-02 7.34269E-05-1.14001E-03
 -1        21 0.00000E+00 0.00000E+00 0.00000E+00
 -1        22 5.15234E-02 3.31267E-10-1.14110E-03
 -1        23 0.00000E+00 0.00000E+00 0.00000E+00
 -1        24 5.15721E-02-7.34262E-05-1.14001E-03
 -1        25 0.00000E+00 0.00000E+00 0.00000E+00
 -1        26 5.17770E-02-1.36357E-04-1.13263E-03
 -1        27 0.00000E+00 0.00000E+00 0.00000E+00
 -1        28 5.22564E-02-1.91347E-04-1.19419E-03
 -1        29 0.00000E+00 0.00000E+00 0.00000E+00
 -1        30 5.21014E-02 6.73123E-05-2.35441E-03
 -1        31 0.00000E+00 0.00000E+00 0.00000E+00
 -1        32 5.16375E-02 7.26685E-05-2.30674E-03
 -1        33 0.00000E+00 0.00000E+00 0.00000E+00
 -1        34 5.14849E-02 5.78102E-05-2.27736E-03
 -1        35 0.00000E+00 0.00000E+00 0.00000E+00
 -1        36 5.14397E-02 3.31456E-10-2.26523E-03
 -1        37 0.00000E+00 0.00000E+00 0.00000E+00
 -1        38 5.14849E-02-5.78096E-05-2.27736E-03
 -1        39 0.00000E+00 0.00000E+00 0.00000E+00
 -1        40 5.16375E-02-7.26678E-05-2.30674E-03
 -1        41 0.00000E+00 0.00000E+00 0.00000E+00
 -1        42 5.21014E-02-6.73116E-05-2.35441E-03
 -1        43 0.00000E+00 0.00000E+00 0.00000E+00
 -1        44 5.21637E-02 3.90308E-05-3.62528E-03
 -1        45 0.00000E+00 0.00000E+00 0.00000E+00
 -1        46 5.17240E-02 8.65076E-05-3.57906E-03
 -1        47 0.00000E+00 0.00000E+00 0.00000E+00
 -1        48 5.15742E-02 7.81739E-05-3.47790E-03
 -1        49 0.00000E+00 0.00000E+00 0.00000E+00
 -1        50 5.15332E-02 3.31678E-10-3.42986E-03
 -1        51 0.00000E+00 0.00000E+00 0.00000E+00
 -1        52 5.15742E-02-7.81732E-05-3.47790E-03
 -1        53 0.00000E+00 0.00000E+00 0.00000E+00
 -1        54 5.17240E-02-8.65069E-05-3.57906E-03
 -1        55 0.00000E+00 0.00000E+00 0.00000E+00
 -1        56 5.21637E-02-3.90301E-05-3.62528E-03
 -1        57 0.00000E+00 0.00000E+00 0.00000E+00
 -1        58 5.24741E-02 7.53101E-05-5.12494E-03
 -1        59 0.00000E+00 0.00000E+00 0.00000E+00
 -1        60 5.20176E-02 1.75518E-04-4.97014E-03
 -1        61 0.00000E+00 0.00000E+00 0.00000E+00
 -1        62 5.18632E-02 1.31434E-04-4.70826E-03
 -1        63 0.00000E+00 0.00000E+00 0.00000E+00
 -1        64 5.18158E-02 3.31900E-10-4.60387E-03
 -1        65 0.00000E+00 0.00000E+00 0.00000E+00
 -1        66 5.18632E-02-1.31433E-04-4.70826E-03
 -1        67 0.00000E+00 0.00000E+00 0.00000E+00
 -1        68 5.20176E-02-1.75517E-04-4.97014E-03
 -1        69 0.00000E+00 0.00000E+00 0.00000E+00
 -1        70 5.24741E-02-7.53094E-05-5.12494E-03
 -1        71 0.00000E+00 0.00000E+00 0.00000E+00
 -1        72 5.30836E-02 1.24728E-04-7.13702E-03
 -1        73 0.00000E+00 0.00000E+00 0.00000E+00
 -1        74 5.26920E-02 2.33553E-04-6.43468E-03
 -1        75 0.00000E+00 0.00000E+00 0.00000E+00
 -1        76 5.24594E-02 8.12692E-05-5.94362E-03
 -1        77 0.00000E+00 0.00000E+00 0.00000E+00
 -1        78 5.23866E-02 3.32112E-10-5.83308E-03
 -1        79 0.00000E+00 0.00000E+00 0.00000E+00
 -1        80 5.24594E-02-8.12685E-05-5.94362E-03
 -1        81 0.00000E+00 0.00000E+00 0.00000E+00
 -1        82 5.26920E-02-2.33552E-04-6.43468E-03
 -1        83 0.00000E+00 0.00000E+00 0.00000E+00
 -1        84 5.30836E-02-1.24727E-04-7.13702E-03
 -1        85 0.00000E+00 0.00000E+00 0.00000E+00
 -1        86 5.52373E-02-7.04348E-04-1.03458E-02
 -1        87 0.00000E+00 0.00000E+00 0.00000E+00
 -1        88 5.41404E-02-4.69148E-04-7.93890E-03
 -1        89 0.00000E+00 0.00000E+00 0.00000E+00
 -1        90 5.37703E-02-1.97812E-04-7.43719E-03
 -1        91 0.00000E+00 0.00000E+00 0.00000E+00
 -1        92 5.36749E-02 3.32299E-10-7.28950E-03
 -1        93 0.00000E+00 0.00000E+00 0.00000E+00
 -1        94 5.37703E-02 1.97813E-04-7.43719E-03
 -1        95 0.00000E+00 0.00000E+00 0.00000E+00
 -1        96 5.41404E-02 4.69148E-04-7.93890E-03
 -1        97 0.00000E+00 0.00000E+00 0.00000E+00
 -1        98 5.52373E-02 7.04349E-04-1.03458E-02
 -1        99 1.84702E-03 4.97703E-04-1.05270E-05
 -1       100 1.84702E-03-4.97703E-04-1.05270E-05
 -1       101 4.25598E-03 3.40948E-04-2.61170E-05
 -1       102 4.25598E-03-3.40948E-04-2.61170E-05
 -1       103 6.95480E-03 2.66127E-04-2.82706E-05
 -1       104 6.95480E-03-2.66127E-04-2.82706E-05
 -1       105 9.64656E-03 2.43933E-04-2.88617E-05
 -1       106 9.64656E-03-2.43933E-04-2.88617E-05
 -1       107 1.22862E-02 2.42383E-04-2.82840E-05
 -1       108 1.22862E-02-2.42383E-04-2.82840E-05
 -1       109 1.49002E-02 2.45064E-04-2.79856E-05
 -1       110 1.49002E-02-2.45064E-04-2.79856E-05
 -1       111 1.75091E-02 2.48066E-04-2.78418E-05
 -1       112 1.75091E-02-2.48066E-04-2.78418E-05
 -1       113 2.01214E-02 2.50587E-04-2.78032E-05
 -1       114 2.01214E-02-2.50587E-04-2.78032E-05
 -1       115 2.27399E-02 2.52734E-04-2.77973E-05
 -1       116 2.27399E-02-2.52733E-04-2.77973E-05
 -1       117 2.53649E-02 2.54699E-04-2.78011E-05
 -1       118 2.53649E-02-2.54699E-04-2.78011E-05
 -1       119 2.79965E-02 2.56627E-04-2.78071E-05
 -1       120 2.79965E-02-2.56627E-04-2.78071E-05
 -1       121 3.06349E-02 2.58656E-04-2.78115E-05
 -1       122 3.06349E-02-2.58656E-04-2.78115E-05
 -1       123 3.32800E-02 2.61016E-04-2.78016E-05
 -1       124 3.32800E-02-2.61015E-04-2.78016E-05
 -1       125 3.59312E-02 2.64013E-04-2.77194E-05
 -1       126 3.59312E-02-2.64012E-04-2.77194E-05
 -1       127 3.85837E-02 2.67732E-04-2.74839E-05
 -1       128 3.85837E-02-2.67731E-04-2.74839E-05
 -1       129 4.12199E-02 2.71076E-04-2.67913E-05
 -1       130 4.12199E-02-2.71075E-04-2.67913E-05
 -1       131 4.37985E-02 2.65063E-04-2.64081E-05
 -1       132 4.37985E-02-2.65062E-04-2.64081E-05
 -1       133 4.62851E-02 2.17122E-04-2.62185E-05
 -1       134 4.62851E-02-2.17121E-04-2.62185E-05
 -1       135 4.88325E-02-1.22577E-05-3.81998E-05
 -1       136 4.88325E-02 1.22584E-05-3.81998E-05
 -1       137 1.86208E-03 4.98648E-04-4.47943E-04
 -1       138 1.86208E-03-4.98648E-04-4.47943E-04
 -1       139 4.28410E-03 3.41991E-04-7.10667E-04
 -1       140 4.28410E-03-3.41991E-04-7.10667E-04
 -1       141 6.98073E-03 2.69606E-04-7.81771E-04
 -1       142 6.98073E-03-2.69606E-04-7.81771E-04
 -1       143 9.66434E-03 2.49033E-04-7.78238E-04
 -1       144 9.66434E-03-2.49033E-04-7.78238E-04
 -1       145 1.22989E-02 2.48383E-04-7.65166E-04
 -1       146 1.22989E-02-2.48383E-04-7.65166E-04
 -1       147 1.49112E-02 2.51300E-04-7.58090E-04
 -1       148 1.49112E-02-2.51300E-04-7.58090E-04
 -1       149 1.75198E-02 2.54308E-04-7.55830E-04
 -1       150 1.75198E-02-2.54307E-04-7.55830E-04
 -1       151 2.01322E-02 2.56795E-04-7.55771E-04
 -1       152 2.01322E-02-2.56795E-04-7.55771E-04
 -1       153 2.27507E-02 2.58914E-04-7.56445E-04
 -1       154 2.27507E-02-2.58914E-04-7.56445E-04
 -1       155 2.53758E-02 2.60862E-04-7.57285E-04
 -1       156 2.53758E-02-2.60862E-04-7.57285E-04
 -1       157 2.80074E-02 2.62776E-04-7.58167E-04
 -1       158 2.80074E-02-2.62775E-04-7.58167E-04
 -1       159 3.06456E-02 2.64782E-04-7.59054E-04
 -1       160 3.06456E-02-2.64781E-04-7.59054E-04
 -1       161 3.32907E-02 2.67103E-04-7.59658E-04
 -1       162 3.32907E-02-2.67102E-04-7.59658E-04
 -1       163 3.59417E-02 2.70055E-04-7.58859E-04
 -1       164 3.59417E-02-2.70054E-04-7.58859E-04
 -1       165 3.85945E-02 2.73793E-04-7.54055E-04
 -1       166 3.85945E-02-2.73793E-04-7.54055E-04
 -1       167 4.12341E-02 2.77839E-04-7.39382E-04
 -1       168 4.12341E-02-2.77839E-04-7.39382E-04
 -1       169 4.38228E-02 2.73180E-04-7.18327E-04
 -1       170 4.38228E-02-2.73180E-04-7.18327E-04
 -1       171 4.63074E-02 2.28899E-04-7.14370E-04
 -1       172 4.63074E-02-2.28898E-04-7.14370E-04
 -1       173 4.89618E-02 9.34774E-06-9.62250E-04
 -1       174 4.89618E-02-9.34708E-06-9.62250E-04
 -1       175 1.89244E-03 4.99016E-04-9.12970E-04
 -1       176 1.89244E-03-4.99016E-04-9.12970E-04
 -1       177 4.34680E-03 3.43093E-04-1.41630E-03
 -1       178 4.34680E-03-3.43093E-04-1.41630E-03
 -1       179 7.03313E-03 2.77551E-04-1.54339E-03
 -1       180 7.03313E-03-2.77551E-04-1.54339E-03
 -1       181 9.69187E-03 2.62368E-04-1.53365E-03
 -1       182 9.69187E-03-2.62367E-04-1.53365E-03
 -1       183 1.23127E-02 2.64274E-04-1.50977E-03
 -1       184 1.23127E-02-2.64274E-04-1.50977E-03
 -1       185 1.49207E-02 2.67865E-04-1.49707E-03
 -1       186 1.49207E-02-2.67865E-04-1.49707E-03
 -1       187 1.75285E-02 2.70921E-04-1.49308E-03
 -1       188 1.75285E-02-2.70920E-04-1.49308E-03
 -1       189 2.01410E-02 2.73345E-04-1.49311E-03
 -1       190 2.01410E-02-2.73345E-04-1.49311E-03
 -1       191 2.27597E-02 2.75412E-04-1.49447E-03
 -1       192 2.27597E-02-2.75412E-04-1.49447E-03
 -1       193 2.53849E-02 2.77332E-04-1.49613E-03
 -1       194 2.53849E-02-2.77332E-04-1.49613E-03
 -1       195 2.80164E-02 2.79222E-04-1.49786E-03
 -1       196 2.80164E-02-2.79221E-04-1.49786E-03
 -1       197 3.06545E-02 2.81180E-04-1.49960E-03
 -1       198 3.06545E-02-2.81179E-04-1.49960E-03
 -1       199 3.32991E-02 2.83413E-04-1.50083E-03
 -1       200 3.32991E-02-2.83412E-04-1.50083E-03
 -1       201 3.59500E-02 2.86233E-04-1.49955E-03
 -1       202 3.59500E-02-2.86232E-04-1.49955E-03
 -1       203 3.86041E-02 2.90169E-04-1.49068E-03
 -1       204 3.86041E-02-2.90169E-04-1.49068E-03
 -1       205 4.12530E-02 2.95423E-04-1.46573E-03
 -1       206 4.12530E-02-2.95422E-04-1.46573E-03
 -1       207 4.38654E-02 2.97166E-04-1.42029E-03
 -1       208 4.38654E-02-2.97165E-04-1.42029E-03
 -1       209 4.64021E-02 2.56910E-04-1.42959E-03
 -1       210 4.64021E-02-2.56909E-04-1.42959E-03
 -1       211 4.89313E-02 5.02485E-05-1.77813E-03
 -1       212 4.89313E-02-5.02479E-05-1.77813E-03
 -1       213 1.94659E-03 4.95254E-04-1.44064E-03
 -1       214 1.94659E-03-4.95254E-04-1.44064E-03
 -1       215 4.45139E-03 3.39589E-04-2.16722E-03
 -1       216 4.45139E-03-3.39589E-04-2.16722E-03
 -1       217 7.10801E-03 2.86229E-04-2.32600E-03
 -1       218 7.10801E-03-2.86229E-04-2.32600E-03
 -1       219 9.72433E-03 2.80591E-04-2.30806E-03
 -1       220 9.72433E-03-2.80591E-04-2.30806E-03
 -1       221 1.23260E-02 2.86437E-04-2.27707E-03
 -1       222 1.23260E-02-2.86437E-04-2.27707E-03
 -1       223 1.49283E-02 2.90956E-04-2.26058E-03
 -1       224 1.49283E-02-2.90955E-04-2.26058E-03
 -1       225 1.75350E-02 2.94067E-04-2.25555E-03
 -1       226 1.75350E-02-2.94067E-04-2.25555E-03
 -1       227 2.01478E-02 2.96388E-04-2.25588E-03
 -1       228 2.01478E-02-2.96388E-04-2.25588E-03
 -1       229 2.27669E-02 2.98374E-04-2.25794E-03
 -1       230 2.27669E-02-2.98374E-04-2.25794E-03
 -1       231 2.53922E-02 3.00256E-04-2.26038E-03
 -1       232 2.53922E-02-3.00255E-04-2.26038E-03
 -1       233 2.80237E-02 3.02114E-04-2.26292E-03
 -1       234 2.80237E-02-3.02113E-04-2.26292E-03
 -1       235 3.06614E-02 3.04003E-04-2.26547E-03
 -1       236 3.06614E-02-3.04002E-04-2.26547E-03
 -1       237 3.33055E-02 3.06080E-04-2.26738E-03
 -1       238 3.33055E-02-3.06080E-04-2.26738E-03
 -1       239 3.59558E-02 3.08745E-04-2.26592E-03
 -1       240 3.59558E-02-3.08744E-04-2.26592E-03
 -1       241 3.86120E-02 3.12709E-04-2.25451E-03
 -1       242 3.86120E-02-3.12708E-04-2.25451E-03
 -1       243 4.12715E-02 3.20240E-04-2.22223E-03
 -1       244 4.12715E-02-3.20240E-04-2.22223E-03
 -1       245 4.39263E-02 3.29952E-04-2.16303E-03
 -1       246 4.39263E-02-3.29951E-04-2.16303E-03
 -1       247 4.65201E-02 3.03878E-04-2.15424E-03
 -1       248 4.65201E-02-3.03878E-04-2.15424E-03
 -1       249 4.90133E-02 1.10708E-04-2.56677E-03
 -1       250 4.90133E-02-1.10707E-04-2.56677E-03
 -1       251 2.04510E-03 4.72744E-04-2.09105E-03
 -1       252 2.04510E-03-4.72744E-04-2.09105E-03
 -1       253 4.60991E-03 3.11065E-04-2.99637E-03
 -1       254 4.60991E-03-3.11065E-04-2.99637E-03
 -1       255 7.19380E-03 2.78036E-04-3.15340E-03
 -1       256 7.19380E-03-2.78036E-04-3.15340E-03
 -1       257 9.75429E-03 2.86284E-04-3.13059E-03
 -1       258 9.75429E-03-2.86284E-04-3.13059E-03
 -1       259 1.23369E-02 2.96907E-04-3.09728E-03
 -1       260 1.23369E-02-2.96907E-04-3.09728E-03
 -1       261 1.49332E-02 3.02392E-04-3.07896E-03
 -1       262 1.49332E-02-3.02392E-04-3.07896E-03
 -1       263 1.75395E-02 3.05561E-04-3.07386E-03
 -1       264 1.75395E-02-3.05561E-04-3.07386E-03
 -1       265 2.01529E-02 3.07702E-04-3.07466E-03
 -1       266 2.01529E-02-3.07701E-04-3.07466E-03
 -1       267 2.27724E-02 3.09585E-04-3.07742E-03
 -1       268 2.27724E-02-3.09584E-04-3.07742E-03
 -1       269 2.53978E-02 3.11417E-04-3.08060E-03
 -1       270 2.53978E-02-3.11417E-04-3.08060E-03
 -1       271 2.80293E-02 3.13236E-04-3.08390E-03
 -1       272 2.80293E-02-3.13236E-04-3.08390E-03
 -1       273 3.06666E-02 3.15037E-04-3.08722E-03
 -1       274 3.06666E-02-3.15037E-04-3.08722E-03
 -1       275 3.33099E-02 3.16908E-04-3.08978E-03
 -1       276 3.33099E-02-3.16908E-04-3.08978E-03
 -1       277 3.59593E-02 3.19288E-04-3.08865E-03
 -1       278 3.59593E-02-3.19287E-04-3.08865E-03
 -1       279 3.86169E-02 3.23387E-04-3.07612E-03
 -1       280 3.86169E-02-3.23386E-04-3.07612E-03
 -1       281 4.12871E-02 3.32693E-04-3.04084E-03
 -1       282 4.12871E-02-3.32692E-04-3.04084E-03
 -1       283 4.39818E-02 3.53693E-04-2.97849E-03
 -1       284 4.39818E-02-3.53693E-04-2.97849E-03
 -1       285 4.66765E-02 3.49981E-04-2.93563E-03
 -1       286 4.66765E-02-3.49981E-04-2.93563E-03
 -1       287 4.92323E-02 1.83650E-04-3.36012E-03
 -1       288 4.92323E-02-1.83650E-04-3.36012E-03
 -1       289 2.24402E-03 3.78919E-04-2.98395E-03
 -1       290 2.24402E-03-3.78919E-04-2.98395E-03
 -1       291 4.83326E-03 2.00074E-04-3.94570E-03
 -1       292 4.83326E-03-2.00074E-04-3.94570E-03
 -1       293 7.25942E-03 1.98280E-04-4.07697E-03
 -1       294 7.25942E-03-1.98280E-04-4.07697E-03
 -1       295 9.77823E-03 2.25127E-04-4.06365E-03
 -1       296 9.77823E-03-2.25127E-04-4.06365E-03
 -1       297 1.23421E-02 2.39692E-04-4.02973E-03
 -1       298 1.23421E-02-2.39692E-04-4.02973E-03
 -1       299 1.49353E-02 2.46633E-04-4.01242E-03
 -1       300 1.49353E-02-2.46633E-04-4.01242E-03
 -1       301 1.75420E-02 2.49604E-04-4.00784E-03
 -1       302 1.75420E-02-2.49603E-04-4.00784E-03
 -1       303 2.01562E-02 2.51541E-04-4.00931E-03
 -1       304 2.01562E-02-2.51541E-04-4.00931E-03
 -1       305 2.27761E-02 2.53282E-04-4.01275E-03
 -1       306 2.27761E-02-2.53281E-04-4.01275E-03
 -1       307 2.54018E-02 2.55056E-04-4.01664E-03
 -1       308 2.54018E-02-2.55055E-04-4.01664E-03
 -1       309 2.80332E-02 2.56830E-04-4.02065E-03
 -1       310 2.80332E-02-2.56829E-04-4.02065E-03
 -1       311 3.06702E-02 2.58518E-04-4.02467E-03
 -1       312 3.06702E-02-2.58517E-04-4.02467E-03
 -1       313 3.33125E-02 2.60155E-04-4.02791E-03
 -1       314 3.33125E-02-2.60154E-04-4.02791E-03
 -1       315 3.59606E-02 2.62062E-04-4.02729E-03
 -1       316 3.59606E-02-2.62061E-04-4.02729E-03
 -1       317 3.86174E-02 2.66315E-04-4.01552E-03
 -1       318 3.86174E-02-2.66314E-04-4.01552E-03
 -1       319 4.12966E-02 2.77273E-04-3.98008E-03
 -1       320 4.12966E-02-2.77272E-04-3.98008E-03
 -1       321 4.40142E-02 3.08226E-04-3.92260E-03
 -1       322 4.40142E-02-3.08225E-04-3.92260E-03
 -1       323 4.68323E-02 3.47973E-04-3.87394E-03
 -1       324 4.68323E-02-3.47972E-04-3.87394E-03
 -1       325 4.96271E-02 1.88761E-04-4.17864E-03
 -1       326 4.96271E-02-1.88760E-04-4.17864E-03
 -1       327 2.92040E-03-1.29946E-04-4.34479E-03
 -1       328 2.92040E-03 1.29946E-04-4.34479E-03
 -1       329 4.97160E-03-3.13291E-04-5.02370E-03
 -1       330 4.97160E-03 3.13291E-04-5.02370E-03
 -1       331 7.30393E-03-2.51223E-04-5.22119E-03
 -1       332 7.30393E-03 2.51223E-04-5.22119E-03
 -1       333 9.78213E-03-2.14051E-04-5.20510E-03
 -1       334 9.78213E-03 2.14052E-04-5.20510E-03
 -1       335 1.23396E-02-1.91840E-04-5.17835E-03
 -1       336 1.23396E-02 1.91840E-04-5.17835E-03
 -1       337 1.49341E-02-1.84475E-04-5.16257E-03
 -1       338 1.49341E-02 1.84476E-04-5.16257E-03
 -1       339 1.75427E-02-1.81658E-04-5.15912E-03
 -1       340 1.75427E-02 1.81658E-04-5.15912E-03
 -1       341 2.01580E-02-1.80080E-04-5.16125E-03
 -1       342 2.01580E-02 1.80080E-04-5.16125E-03
 -1       343 2.27784E-02-1.78529E-04-5.16536E-03
 -1       344 2.27784E-02 1.78529E-04-5.16536E-03
 -1       345 2.54041E-02-1.76857E-04-5.16994E-03
 -1       346 2.54041E-02 1.76857E-04-5.16994E-03
 -1       347 2.80355E-02-1.75167E-04-5.17463E-03
 -1       348 2.80355E-02 1.75168E-04-5.17463E-03
 -1       349 3.06723E-02-1.73628E-04-5.17932E-03
 -1       350 3.06723E-02 1.73629E-04-5.17932E-03
 -1       351 3.33139E-02-1.72350E-04-5.18312E-03
 -1       352 3.33139E-02 1.72351E-04-5.18312E-03
 -1       353 3.59599E-02-1.70899E-04-5.18332E-03
 -1       354 3.59599E-02 1.70900E-04-5.18332E-03
 -1       355 3.86136E-02-1.67448E-04-5.17222E-03
 -1       356 3.86136E-02 1.67449E-04-5.17222E-03
 -1       357 4.12898E-02-1.52930E-04-5.14317E-03
 -1       358 4.12898E-02 1.52931E-04-5.14317E-03
 -1       359 4.40264E-02-1.15860E-04-5.07887E-03
 -1       360 4.40264E-02 1.15860E-04-5.07887E-03
 -1       361 4.68787E-02-2.68372E-05-5.10893E-03
 -1       362 4.68787E-02 2.68378E-05-5.10893E-03
 -1       363 5.00822E-02-7.17439E-05-5.11065E-03
 -1       364 5.00822E-02 7.17445E-05-5.11065E-03
 -1       365 1.79437E-03 3.18755E-04-9.94896E-06
 -1       366 2.92050E-03-6.38296E-05-3.38602E-03
 -1       367 4.28957E-03 2.45822E-04-2.61974E-05
 -1       368 4.99157E-03-1.72896E-04-4.18946E-03
 -1       369 6.96617E-03 1.80433E-04-2.91642E-05
 -1       370 7.29692E-03-1.54480E-04-4.39642E-03
 -1       371 9.64876E-03 1.66854E-04-2.96587E-05
 -1       372 9.77643E-03-1.23374E-04-4.40205E-03
 -1       373 1.22857E-02 1.65825E-04-2.92056E-05
 -1       374 1.23364E-02-1.08721E-04-4.37881E-03
 -1       375 1.48993E-02 1.67679E-04-2.89042E-05
 -1       376 1.49328E-02-1.03386E-04-4.36415E-03
 -1       377 1.75083E-02 1.69653E-04-2.87645E-05
 -1       378 1.75421E-02-1.01548E-04-4.36035E-03
 -1       379 2.01208E-02 1.71341E-04-2.87213E-05
 -1       380 2.01575E-02-1.00490E-04-4.36217E-03
 -1       381 2.27393E-02 1.72778E-04-2.87136E-05
 -1       382 2.27779E-02-9.94672E-05-4.36607E-03
 -1       383 2.53644E-02 1.74092E-04-2.87161E-05
 -1       384 2.54036E-02-9.83575E-05-4.37052E-03
 -1       385 2.79960E-02 1.75381E-04-2.87211E-05
 -1       386 2.80350E-02-9.72365E-05-4.37510E-03
 -1       387 3.06343E-02 1.76738E-04-2.87241E-05
 -1       388 3.06718E-02-9.62198E-05-4.37960E-03
 -1       389 3.32793E-02 1.78317E-04-2.87099E-05
 -1       390 3.33134E-02-9.53781E-05-4.38312E-03
 -1       391 3.59303E-02 1.80313E-04-2.86253E-05
 -1       392 3.59592E-02-9.44351E-05-4.38267E-03
 -1       393 3.85824E-02 1.82672E-04-2.83814E-05
 -1       394 3.86114E-02-9.21499E-05-4.37174E-03
 -1       395 4.12194E-02 1.85218E-04-2.77622E-05
 -1       396 4.12843E-02-8.19456E-05-4.34189E-03
 -1       397 4.38051E-02 1.82323E-04-2.73847E-05
 -1       398 4.40166E-02-5.48735E-05-4.29902E-03
 -1       399 4.63107E-02 1.48628E-04-2.75560E-05
 -1       400 4.68707E-02 2.04171E-05-4.31386E-03
 -1       401 4.89352E-02-5.05918E-05-3.94449E-05
 -1       402 5.02471E-02-1.59407E-04-4.64733E-03
 -1       403 1.78133E-03 1.56445E-04-9.01767E-06
 -1       404 2.88659E-03-1.61130E-05-3.23083E-03
 -1       405 4.29053E-03 1.28732E-04-2.60937E-05
 -1       406 5.00156E-03-6.94556E-05-3.99326E-03
 -1       407 6.97640E-03 9.35655E-05-2.89950E-05
 -1       408 7.30281E-03-6.71095E-05-4.22139E-03
 -1       409 9.65015E-03 8.56870E-05-2.96655E-05
 -1       410 9.77449E-03-5.10060E-05-4.23487E-03
 -1       411 1.22853E-02 8.56142E-05-2.91933E-05
 -1       412 1.23350E-02-4.31580E-05-4.21559E-03
 -1       413 1.48988E-02 8.64709E-05-2.89137E-05
 -1       414 1.49320E-02-4.04644E-05-4.20148E-03
 -1       415 1.75079E-02 8.74658E-05-2.87708E-05
 -1       416 1.75416E-02-3.95087E-05-4.19766E-03
 -1       417 2.01205E-02 8.83068E-05-2.87279E-05
 -1       418 2.01571E-02-3.89816E-05-4.19933E-03
 -1       419 2.27390E-02 8.90270E-05-2.87193E-05
 -1       420 2.27775E-02-3.84696E-05-4.20314E-03
 -1       421 2.53641E-02 8.96852E-05-2.87216E-05
 -1       422 2.54033E-02-3.79161E-05-4.20754E-03
 -1       423 2.79957E-02 9.03305E-05-2.87263E-05
 -1       424 2.80347E-02-3.73568E-05-4.21208E-03
 -1       425 3.06340E-02 9.10106E-05-2.87288E-05
 -1       426 3.06715E-02-3.68509E-05-4.21651E-03
 -1       427 3.32789E-02 9.18032E-05-2.87131E-05
 -1       428 3.33130E-02-3.64251E-05-4.21986E-03
 -1       429 3.59298E-02 9.27826E-05-2.86282E-05
 -1       430 3.59586E-02-3.59865E-05-4.21920E-03
 -1       431 3.85816E-02 9.39935E-05-2.83816E-05
 -1       432 3.86100E-02-3.46488E-05-4.20808E-03
 -1       433 4.12190E-02 9.49931E-05-2.78054E-05
 -1       434 4.12819E-02-3.01906E-05-4.18024E-03
 -1       435 4.38104E-02 9.61184E-05-2.73468E-05
 -1       436 4.40131E-02-1.15802E-05-4.14265E-03
 -1       437 4.63404E-02 6.96056E-05-2.79991E-05
 -1       438 4.69173E-02 1.63185E-05-4.18978E-03
 -1       439 4.88621E-02-2.56496E-05-3.92082E-05
 -1       440 5.01393E-02-1.00923E-04-4.49303E-03
 -1       441 1.77858E-03 1.65875E-11-8.71355E-06
 -1       442 2.87626E-03 8.65520E-12-3.18658E-03
 -1       443 4.28947E-03 3.36912E-11-2.59195E-05
 -1       444 5.00242E-03 2.94399E-11-3.93368E-03
 -1       445 6.97932E-03 6.09413E-11-2.89063E-05
 -1       446 7.30583E-03 5.67020E-11-4.16704E-03
 -1       447 9.65102E-03 9.13988E-11-2.95912E-05
 -1       448 9.77426E-03 8.75840E-11-4.18327E-03
 -1       449 1.22851E-02 1.23355E-10-2.91353E-05
 -1       450 1.23346E-02 1.19922E-10-4.16525E-03
 -1       451 1.48986E-02 1.55030E-10-2.88551E-05
 -1       452 1.49317E-02 1.52019E-10-4.15140E-03
 -1       453 1.75078E-02 1.85133E-10-2.87142E-05
 -1       454 1.75414E-02 1.82607E-10-4.14757E-03
 -1       455 2.01204E-02 2.12900E-10-2.86703E-05
 -1       456 2.01570E-02 2.10804E-10-4.14921E-03
 -1       457 2.27390E-02 2.37768E-10-2.86616E-05
 -1       458 2.27774E-02 2.36050E-10-4.15299E-03
 -1       459 2.53641E-02 2.59438E-10-2.86637E-05
 -1       460 2.54032E-02 2.58038E-10-4.15737E-03
 -1       461 2.79956E-02 2.77820E-10-2.86683E-05
 -1       462 2.80346E-02 2.76664E-10-4.16190E-03
 -1       463 3.06339E-02 2.92929E-10-2.86704E-05
 -1       464 3.06714E-02 2.91974E-10-4.16630E-03
 -1       465 3.32789E-02 3.04927E-10-2.86548E-05
 -1       466 3.33129E-02 3.04142E-10-4.16960E-03
 -1       467 3.59296E-02 3.14053E-10-2.85672E-05
 -1       468 3.59583E-02 3.13438E-10-4.16889E-03
 -1       469 3.85814E-02 3.20686E-10-2.83288E-05
 -1       470 3.86098E-02 3.20209E-10-4.15770E-03
 -1       471 4.12183E-02 3.25188E-10-2.77403E-05
 -1       472 4.12800E-02 3.24872E-10-4.13060E-03
 -1       473 4.38147E-02 3.28032E-10-2.73340E-05
 -1       474 4.40164E-02 3.27901E-10-4.09524E-03
 -1       475 4.63444E-02 3.29333E-10-2.79612E-05
 -1       476 4.69274E-02 3.29816E-10-4.15140E-03
 -1       477 4.88371E-02 3.29927E-10-3.94460E-05
 -1       478 5.00951E-02 3.31131E-10-4.43932E-03
 -1       479 1.78133E-03-1.56445E-04-9.01766E-06
 -1       480 2.88659E-03 1.61131E-05-3.23083E-03
 -1       481 4.29053E-03-1.28732E-04-2.60937E-05
 -1       482 5.00156E-03 6.94557E-05-3.99326E-03
 -1       483 6.97640E-03-9.35654E-05-2.89950E-05
 -1       484 7.30281E-03 6.71096E-05-4.22139E-03
 -1       485 9.65015E-03-8.56868E-05-2.96655E-05
 -1       486 9.77449E-03 5.10062E-05-4.23487E-03
 -1       487 1.22853E-02-8.56140E-05-2.91933E-05
 -1       488 1.23350E-02 4.31583E-05-4.21559E-03
 -1       489 1.48988E-02-8.64706E-05-2.89137E-05
 -1       490 1.49320E-02 4.04647E-05-4.20148E-03
 -1       491 1.75079E-02-8.74654E-05-2.87708E-05
 -1       492 1.75416E-02 3.95091E-05-4.19766E-03
 -1       493 2.01205E-02-8.83064E-05-2.87279E-05
 -1       494 2.01571E-02 3.89820E-05-4.19933E-03
 -1       495 2.27390E-02-8.90265E-05-2.87193E-05
 -1       496 2.27775E-02 3.84701E-05-4.20314E-03
 -1       497 2.53641E-02-8.96847E-05-2.87216E-05
 -1       498 2.54033E-02 3.79166E-05-4.20754E-03
 -1       499 2.79957E-02-9.03300E-05-2.87263E-05
 -1       500 2.80347E-02 3.73573E-05-4.21208E-03
 -1       501 3.06340E-02-9.10100E-05-2.87288E-05
 -1       502 3.06715E-02 3.68515E-05-4.21651E-03
 -1       503 3.32789E-02-9.18026E-05-2.87131E-05
 -1       504 3.33130E-02 3.64257E-05-4.21986E-03
 -1       505 3.59298E-02-9.27820E-05-2.86282E-05
 -1       506 3.59586E-02 3.59871E-05-4.21920E-03
 -1       507 3.85816E-02-9.39929E-05-2.83816E-05
 -1       508 3.86100E-02 3.46494E-05-4.20808E-03
 -1       509 4.12190E-02-9.49925E-05-2.78054E-05
 -1       510 4.12819E-02 3.01913E-05-4.18024E-03
 -1       511 4.38104E-02-9.61178E-05-2.73468E-05
 -1       512 4.40131E-02 1.15809E-05-4.14265E-03
 -1       513 4.63404E-02-6.96050E-05-2.79991E-05
 -1       514 4.69173E-02-1.63178E-05-4.18978E-03
 -1       515 4.88621E-02 2.56502E-05-3.92082E-05
 -1       516 5.01393E-02 1.00924E-04-4.49303E-03
 -1       517 1.79437E-03-3.18755E-04-9.94897E-06
 -1       518 2.92050E-03 6.38297E-05-3.38602E-03
 -1       519 4.28957E-03-2.45822E-04-2.61974E-05
 -1       520 4.99157E-03 1.72896E-04-4.18946E-03
 -1       521 6.96617E-03-1.80433E-04-2.91642E-05
 -1       522 7.29692E-03 1.54480E-04-4.39642E-03
 -1       523 9.64876E-03-1.66854E-04-2.96587E-05
 -1       524 9.77643E-03 1.23375E-04-4.40205E-03
 -1       525 1.22857E-02-1.65825E-04-2.92056E-05
 -1       526 1.23364E-02 1.08721E-04-4.37881E-03
 -1       527 1.48993E-02-1.67679E-04-2.89042E-05
 -1       528 1.49328E-02 1.03386E-04-4.36415E-03
 -1       529 1.75083E-02-1.69653E-04-2.87645E-05
 -1       530 1.75421E-02 1.01548E-04-4.36035E-03
 -1       531 2.01208E-02-1.71341E-04-2.87213E-05
 -1       532 2.01575E-02 1.00490E-04-4.36217E-03
 -1       533 2.27393E-02-1.72777E-04-2.87136E-05
 -1       534 2.27779E-02 9.94676E-05-4.36607E-03
 -1       535 2.53644E-02-1.74092E-04-2.87161E-05
 -1       536 2.54036E-02 9.83580E-05-4.37052E-03
 -1       537 2.79960E-02-1.75380E-04-2.87211E-05
 -1       538 2.80350E-02 9.72370E-05-4.37510E-03
 -1       539 3.06343E-02-1.76738E-04-2.87241E-05
 -1       540 3.06718E-02 9.62204E-05-4.37960E-03
 -1       541 3.32793E-02-1.78316E-04-2.87099E-05
 -1       542 3.33134E-02 9.53787E-05-4.38312E-03
 -1       543 3.59303E-02-1.80312E-04-2.86253E-05
 -1       544 3.59592E-02 9.44357E-05-4.38267E-03
 -1       545 3.85824E-02-1.82672E-04-2.83814E-05
 -1       546 3.86114E-02 9.21506E-05-4.37174E-03
 -1       547 4.12194E-02-1.85217E-04-2.77622E-05
 -1       548 4.12843E-02 8.19463E-05-4.34189E-03
 -1       549 4.38051E-02-1.82322E-04-2.73847E-05
 -1       550 4.40166E-02 5.48741E-05-4.29902E-03
 -1       551 4.63107E-02-1.48628E-04-2.75560E-05
 -1       552 4.68707E-02-2.04164E-05-4.31386E-03
 -1       553 4.89352E-02 5.05925E-05-3.94449E-05
 -1       554 5.02471E-02 1.59408E-04-4.64733E-03
 -1       555 1.80970E-03 3.21256E-04-4.42233E-04
 -1       556 4.31758E-03 2.49079E-04-7.05153E-04
 -1       557 6.99160E-03 1.85238E-04-7.79732E-04
 -1       558 9.66623E-03 1.72828E-04-7.79289E-04
 -1       559 1.22982E-02 1.72380E-04-7.67724E-04
 -1       560 1.49104E-02 1.74381E-04-7.61071E-04
 -1       561 1.75191E-02 1.76353E-04-7.58852E-04
 -1       562 2.01316E-02 1.78017E-04-7.58756E-04
 -1       563 2.27502E-02 1.79433E-04-7.59398E-04
 -1       564 2.53753E-02 1.80734E-04-7.60220E-04
 -1       565 2.80069E-02 1.82012E-04-7.61085E-04
 -1       566 3.06451E-02 1.83353E-04-7.61944E-04
 -1       567 3.32900E-02 1.84910E-04-7.62489E-04
 -1       568 3.59409E-02 1.86852E-04-7.61652E-04
 -1       569 3.85932E-02 1.89329E-04-7.56855E-04
 -1       570 4.12335E-02 1.91888E-04-7.43563E-04
 -1       571 4.38268E-02 1.91647E-04-7.23703E-04
 -1       572 4.63461E-02 1.54755E-04-7.31282E-04
 -1       573 4.89837E-02-2.78141E-05-9.57052E-04
 -1       574 1.79721E-03 1.58501E-04-4.31727E-04
 -1       575 4.31869E-03 1.31425E-04-6.93320E-04
 -1       576 7.00150E-03 9.69930E-05-7.69642E-04
 -1       577 9.66736E-03 8.97506E-05-7.71067E-04
 -1       578 1.22978E-02 8.99604E-05-7.60402E-04
 -1       579 1.49098E-02 9.08882E-05-7.54024E-04
 -1       580 1.75186E-02 9.18810E-05-7.51843E-04
 -1       581 2.01312E-02 9.27090E-05-7.51729E-04
 -1       582 2.27499E-02 9.34188E-05-7.52353E-04
 -1       583 2.53750E-02 9.40705E-05-7.53163E-04
 -1       584 2.80066E-02 9.47103E-05-7.54019E-04
 -1       585 3.06447E-02 9.53830E-05-7.54860E-04
 -1       586 3.32896E-02 9.61603E-05-7.55376E-04
 -1       587 3.59403E-02 9.71323E-05-7.54506E-04
 -1       588 3.85924E-02 9.83264E-05-7.49827E-04
 -1       589 4.12326E-02 9.96029E-05-7.37047E-04
 -1       590 4.38331E-02 1.01129E-04-7.19021E-04
 -1       591 4.63708E-02 7.57838E-05-7.30342E-04
 -1       592 4.89259E-02-1.77556E-05-9.43897E-04
 -1       593 1.79469E-03 1.29295E-11-4.26799E-04
 -1       594 4.31772E-03 3.43202E-11-6.87563E-04
 -1       595 7.00429E-03 6.04800E-11-7.64389E-04
 -1       596 9.66813E-03 9.08104E-11-7.66428E-04
 -1       597 1.22975E-02 1.22545E-10-7.56062E-04
 -1       598 1.49096E-02 1.54111E-10-7.49780E-04
 -1       599 1.75185E-02 1.84179E-10-7.47613E-04
 -1       600 2.01311E-02 2.11937E-10-7.47495E-04
 -1       601 2.27498E-02 2.36828E-10-7.48113E-04
 -1       602 2.53749E-02 2.58542E-10-7.48919E-04
 -1       603 2.80065E-02 2.76973E-10-7.49771E-04
 -1       604 3.06446E-02 2.92150E-10-7.50606E-04
 -1       605 3.32895E-02 3.04223E-10-7.51111E-04
 -1       606 3.59401E-02 3.13441E-10-7.50238E-04
 -1       607 3.85921E-02 3.20161E-10-7.45586E-04
 -1       608 4.12321E-02 3.24769E-10-7.33019E-04
 -1       609 4.38368E-02 3.27662E-10-7.15568E-04
 -1       610 4.63756E-02 3.29262E-10-7.27961E-04
 -1       611 4.89009E-02 3.30181E-10-9.37800E-04
 -1       612 1.79721E-03-1.58501E-04-4.31727E-04
 -1       613 4.31869E-03-1.31425E-04-6.93320E-04
 -1       614 7.00150E-03-9.69929E-05-7.69642E-04
 -1       615 9.66736E-03-8.97504E-05-7.71067E-04
 -1       616 1.22978E-02-8.99602E-05-7.60402E-04
 -1       617 1.49098E-02-9.08879E-05-7.54024E-04
 -1       618 1.75186E-02-9.18806E-05-7.51843E-04
 -1       619 2.01312E-02-9.27086E-05-7.51729E-04
 -1       620 2.27499E-02-9.34183E-05-7.52353E-04
 -1       621 2.53750E-02-9.40700E-05-7.53163E-04
 -1       622 2.80066E-02-9.47097E-05-7.54019E-04
 -1       623 3.06447E-02-9.53824E-05-7.54860E-04
 -1       624 3.32896E-02-9.61597E-05-7.55376E-04
 -1       625 3.59403E-02-9.71316E-05-7.54506E-04
 -1       626 3.85924E-02-9.83258E-05-7.49827E-04
 -1       627 4.12326E-02-9.96023E-05-7.37047E-04
 -1       628 4.38331E-02-1.01129E-04-7.19021E-04
 -1       629 4.63708E-02-7.57831E-05-7.30342E-04
 -1       630 4.89259E-02 1.77562E-05-9.43897E-04
 -1       631 1.80970E-03-3.21256E-04-4.42233E-04
 -1       632 4.31758E-03-2.49079E-04-7.05153E-04
 -1       633 6.99160E-03-1.85238E-04-7.79732E-04
 -1       634 9.66623E-03-1.72828E-04-7.79289E-04
 -1       635 1.22982E-02-1.72380E-04-7.67724E-04
 -1       636 1.49104E-02-1.74381E-04-7.61071E-04
 -1       637 1.75191E-02-1.76353E-04-7.58852E-04
 -1       638 2.01316E-02-1.78016E-04-7.58756E-04
 -1       639 2.27502E-02-1.79432E-04-7.59398E-04
 -1       640 2.53753E-02-1.80733E-04-7.60220E-04
 -1       641 2.80069E-02-1.82011E-04-7.61085E-04
 -1       642 3.06451E-02-1.83352E-04-7.61944E-04
 -1       643 3.32900E-02-1.84909E-04-7.62489E-04
 -1       644 3.59409E-02-1.86852E-04-7.61652E-04
 -1       645 3.85932E-02-1.89329E-04-7.56855E-04
 -1       646 4.12335E-02-1.91887E-04-7.43563E-04
 -1       647 4.38268E-02-1.91646E-04-7.23703E-04
 -1       648 4.63461E-02-1.54755E-04-7.31282E-04
 -1       649 4.89837E-02 2.78148E-05-9.57052E-04
 -1       650 1.84164E-03 3.28649E-04-8.95506E-04
 -1       651 4.37974E-03 2.57804E-04-1.39755E-03
 -1       652 7.04224E-03 1.98554E-04-1.53150E-03
 -1       653 9.69271E-03 1.89931E-04-1.52820E-03
 -1       654 1.23117E-02 1.91173E-04-1.50717E-03
 -1       655 1.49198E-02 1.93607E-04-1.49523E-03
 -1       656 1.75277E-02 1.95604E-04-1.49131E-03
 -1       657 2.01404E-02 1.97222E-04-1.49128E-03
 -1       658 2.27592E-02 1.98601E-04-1.49258E-03
 -1       659 2.53844E-02 1.99884E-04-1.49420E-03
 -1       660 2.80159E-02 2.01146E-04-1.49591E-03
 -1       661 3.06539E-02 2.02456E-04-1.49760E-03
 -1       662 3.32985E-02 2.03946E-04-1.49873E-03
 -1       663 3.59491E-02 2.05826E-04-1.49732E-03
 -1       664 3.86028E-02 2.08302E-04-1.48865E-03
 -1       665 4.12513E-02 2.12070E-04-1.46528E-03
 -1       666 4.38694E-02 2.14794E-04-1.42584E-03
 -1       667 4.64312E-02 1.84211E-04-1.44546E-03
 -1       668 4.89834E-02 6.19489E-06-1.78669E-03
 -1       669 1.83152E-03 1.65108E-04-8.67548E-04
 -1       670 4.38114E-03 1.39033E-04-1.36463E-03
 -1       671 7.05125E-03 1.06980E-04-1.50207E-03
 -1       672 9.69317E-03 1.01706E-04-1.50246E-03
 -1       673 1.23110E-02 1.02765E-04-1.48316E-03
 -1       674 1.49192E-02 1.03897E-04-1.47174E-03
 -1       675 1.75273E-02 1.04902E-04-1.46788E-03
 -1       676 2.01400E-02 1.05706E-04-1.46781E-03
 -1       677 2.27589E-02 1.06397E-04-1.46908E-03
 -1       678 2.53841E-02 1.07039E-04-1.47068E-03
 -1       679 2.80156E-02 1.07671E-04-1.47237E-03
 -1       680 3.06536E-02 1.08328E-04-1.47403E-03
 -1       681 3.32981E-02 1.09074E-04-1.47510E-03
 -1       682 3.59485E-02 1.10005E-04-1.47364E-03
 -1       683 3.86018E-02 1.11220E-04-1.46512E-03
 -1       684 4.12500E-02 1.13033E-04-1.44285E-03
 -1       685 4.38744E-02 1.16135E-04-1.40682E-03
 -1       686 4.64544E-02 9.40309E-05-1.43331E-03
 -1       687 4.89323E-02 2.94339E-06-1.75928E-03
 -1       688 1.83001E-03 1.23386E-11-8.54901E-04
 -1       689 4.38041E-03 3.37399E-11-1.34946E-03
 -1       690 7.05377E-03 6.01512E-11-1.48792E-03
 -1       691 9.69372E-03 9.03150E-11-1.48951E-03
 -1       692 1.23107E-02 1.22026E-10-1.47079E-03
 -1       693 1.49190E-02 1.53569E-10-1.45955E-03
 -1       694 1.75272E-02 1.83663E-10-1.45572E-03
 -1       695 2.01399E-02 2.11453E-10-1.45564E-03
 -1       696 2.27588E-02 2.36383E-10-1.45690E-03
 -1       697 2.53840E-02 2.58139E-10-1.45849E-03
 -1       698 2.80155E-02 2.76606E-10-1.46017E-03
 -1       699 3.06535E-02 2.91822E-10-1.46182E-03
 -1       700 3.32979E-02 3.03936E-10-1.46287E-03
 -1       701 3.59483E-02 3.13203E-10-1.46139E-03
 -1       702 3.86015E-02 3.19968E-10-1.45295E-03
 -1       703 4.12493E-02 3.24621E-10-1.43102E-03
 -1       704 4.38776E-02 3.27575E-10-1.39627E-03
 -1       705 4.64588E-02 3.29293E-10-1.42445E-03
 -1       706 4.89113E-02 3.30392E-10-1.74529E-03
 -1       707 1.83152E-03-1.65108E-04-8.67548E-04
 -1       708 4.38114E-03-1.39033E-04-1.36463E-03
 -1       709 7.05125E-03-1.06979E-04-1.50207E-03
 -1       710 9.69317E-03-1.01706E-04-1.50246E-03
 -1       711 1.23110E-02-1.02764E-04-1.48316E-03
 -1       712 1.49192E-02-1.03897E-04-1.47174E-03
 -1       713 1.75273E-02-1.04901E-04-1.46788E-03
 -1       714 2.01400E-02-1.05705E-04-1.46781E-03
 -1       715 2.27589E-02-1.06397E-04-1.46908E-03
 -1       716 2.53841E-02-1.07039E-04-1.47068E-03
 -1       717 2.80156E-02-1.07671E-04-1.47237E-03
 -1       718 3.06536E-02-1.08327E-04-1.47403E-03
 -1       719 3.32981E-02-1.09073E-04-1.47510E-03
 -1       720 3.59485E-02-1.10004E-04-1.47364E-03
 -1       721 3.86018E-02-1.11219E-04-1.46512E-03
 -1       722 4.12500E-02-1.13032E-04-1.44285E-03
 -1       723 4.38744E-02-1.16135E-04-1.40682E-03
 -1       724 4.64544E-02-9.40302E-05-1.43331E-03
 -1       725 4.89323E-02-2.94273E-06-1.75928E-03
 -1       726 1.84164E-03-3.28649E-04-8.95506E-04
 -1       727 4.37974E-03-2.57804E-04-1.39755E-03
 -1       728 7.04224E-03-1.98554E-04-1.53150E-03
 -1       729 9.69271E-03-1.89930E-04-1.52820E-03
 -1       730 1.23117E-02-1.91173E-04-1.50717E-03
 -1       731 1.49198E-02-1.93607E-04-1.49523E-03
 -1       732 1.75277E-02-1.95603E-04-1.49131E-03
 -1       733 2.01404E-02-1.97221E-04-1.49128E-03
 -1       734 2.27592E-02-1.98601E-04-1.49258E-03
 -1       735 2.53844E-02-1.99883E-04-1.49420E-03
 -1       736 2.80159E-02-2.01145E-04-1.49591E-03
 -1       737 3.06539E-02-2.02455E-04-1.49760E-03
 -1       738 3.32985E-02-2.03945E-04-1.49873E-03
 -1       739 3.59491E-02-2.05826E-04-1.49732E-03
 -1       740 3.86028E-02-2.08301E-04-1.48865E-03
 -1       741 4.12513E-02-2.12070E-04-1.46528E-03
 -1       742 4.38694E-02-2.14793E-04-1.42584E-03
 -1       743 4.64312E-02-1.84210E-04-1.44546E-03
 -1       744 4.89834E-02-6.19423E-06-1.78669E-03
 -1       745 1.90101E-03 3.39408E-04-1.39301E-03
 -1       746 4.48357E-03 2.68674E-04-2.11389E-03
 -1       747 7.11397E-03 2.17921E-04-2.28394E-03
 -1       748 9.72343E-03 2.15996E-04-2.27609E-03
 -1       749 1.23244E-02 2.19851E-04-2.24898E-03
 -1       750 1.49272E-02 2.22880E-04-2.23350E-03
 -1       751 1.75343E-02 2.24912E-04-2.22854E-03
 -1       752 2.01473E-02 2.26455E-04-2.22876E-03
 -1       753 2.27664E-02 2.27781E-04-2.23073E-03
 -1       754 2.53917E-02 2.29039E-04-2.23313E-03
 -1       755 2.80232E-02 2.30281E-04-2.23563E-03
 -1       756 3.06609E-02 2.31545E-04-2.23811E-03
 -1       757 3.33049E-02 2.32934E-04-2.23986E-03
 -1       758 3.59550E-02 2.34688E-04-2.23823E-03
 -1       759 3.86104E-02 2.37214E-04-2.22700E-03
 -1       760 4.12687E-02 2.42345E-04-2.19677E-03
 -1       761 4.39266E-02 2.50584E-04-2.14596E-03
 -1       762 4.65456E-02 2.30441E-04-2.15413E-03
 -1       763 4.90760E-02 6.01318E-05-2.56582E-03
 -1       764 1.89644E-03 1.74810E-04-1.32958E-03
 -1       765 4.48574E-03 1.48804E-04-2.03938E-03
 -1       766 7.12133E-03 1.21077E-04-2.21516E-03
 -1       767 9.72288E-03 1.19343E-04-2.21285E-03
 -1       768 1.23234E-02 1.21677E-04-2.18820E-03
 -1       769 1.49265E-02 1.23112E-04-2.17341E-03
 -1       770 1.75339E-02 1.24130E-04-2.16853E-03
 -1       771 2.01469E-02 1.24895E-04-2.16870E-03
 -1       772 2.27661E-02 1.25559E-04-2.17062E-03
 -1       773 2.53914E-02 1.26189E-04-2.17298E-03
 -1       774 2.80229E-02 1.26811E-04-2.17545E-03
 -1       775 3.06606E-02 1.27445E-04-2.17789E-03
 -1       776 3.33045E-02 1.28141E-04-2.17955E-03
 -1       777 3.59544E-02 1.29001E-04-2.17782E-03
 -1       778 3.86093E-02 1.30254E-04-2.16679E-03
 -1       779 4.12669E-02 1.32696E-04-2.13803E-03
 -1       780 4.39290E-02 1.38595E-04-2.09222E-03
 -1       781 4.65680E-02 1.22378E-04-2.11064E-03
 -1       782 4.90360E-02 3.35790E-05-2.50799E-03
 -1       783 1.89707E-03 1.16829E-11-1.30305E-03
 -1       784 4.48544E-03 3.29736E-11-2.00758E-03
 -1       785 7.12337E-03 5.95748E-11-2.18515E-03
 -1       786 9.72310E-03 8.97492E-11-2.18455E-03
 -1       787 1.23229E-02 1.21490E-10-2.16075E-03
 -1       788 1.49263E-02 1.53075E-10-2.14621E-03
 -1       789 1.75337E-02 1.83230E-10-2.14137E-03
 -1       790 2.01468E-02 2.11081E-10-2.14151E-03
 -1       791 2.27660E-02 2.36068E-10-2.14341E-03
 -1       792 2.53913E-02 2.57874E-10-2.14577E-03
 -1       793 2.80228E-02 2.76384E-10-2.14823E-03
 -1       794 3.06605E-02 2.91634E-10-2.15065E-03
 -1       795 3.33044E-02 3.03780E-10-2.15228E-03
 -1       796 3.59542E-02 3.13080E-10-2.15052E-03
 -1       797 3.86089E-02 3.19875E-10-2.13956E-03
 -1       798 4.12660E-02 3.24559E-10-2.11134E-03
 -1       799 4.39315E-02 3.27564E-10-2.06718E-03
 -1       800 4.65725E-02 3.29381E-10-2.08889E-03
 -1       801 4.90185E-02 3.30577E-10-2.47970E-03
 -1       802 1.89644E-03-1.74810E-04-1.32958E-03
 -1       803 4.48574E-03-1.48803E-04-2.03938E-03
 -1       804 7.12133E-03-1.21077E-04-2.21516E-03
 -1       805 9.72288E-03-1.19343E-04-2.21285E-03
 -1       806 1.23234E-02-1.21677E-04-2.18820E-03
 -1       807 1.49265E-02-1.23111E-04-2.17341E-03
 -1       808 1.75339E-02-1.24129E-04-2.16853E-03
 -1       809 2.01469E-02-1.24894E-04-2.16870E-03
 -1       810 2.27661E-02-1.25558E-04-2.17062E-03
 -1       811 2.53914E-02-1.26189E-04-2.17298E-03
 -1       812 2.80229E-02-1.26811E-04-2.17545E-03
 -1       813 3.06606E-02-1.27444E-04-2.17789E-03
 -1       814 3.33045E-02-1.28140E-04-2.17955E-03
 -1       815 3.59544E-02-1.29001E-04-2.17782E-03
 -1       816 3.86093E-02-1.30253E-04-2.16679E-03
 -1       817 4.12669E-02-1.32695E-04-2.13803E-03
 -1       818 4.39290E-02-1.38595E-04-2.09222E-03
 -1       819 4.65680E-02-1.22377E-04-2.11064E-03
 -1       820 4.90360E-02-3.35784E-05-2.50799E-03
 -1       821 1.90101E-03-3.39408E-04-1.39301E-03
 -1       822 4.48357E-03-2.68674E-04-2.11389E-03
 -1       823 7.11397E-03-2.17921E-04-2.28394E-03
 -1       824 9.72343E-03-2.15996E-04-2.27609E-03
 -1       825 1.23244E-02-2.19851E-04-2.24898E-03
 -1       826 1.49272E-02-2.22880E-04-2.23350E-03
 -1       827 1.75343E-02-2.24912E-04-2.22854E-03
 -1       828 2.01473E-02-2.26454E-04-2.22876E-03
 -1       829 2.27664E-02-2.27781E-04-2.23073E-03
 -1       830 2.53917E-02-2.29038E-04-2.23313E-03
 -1       831 2.80232E-02-2.30281E-04-2.23563E-03
 -1       832 3.06609E-02-2.31544E-04-2.23811E-03
 -1       833 3.33049E-02-2.32933E-04-2.23986E-03
 -1       834 3.59550E-02-2.34687E-04-2.23823E-03
 -1       835 3.86104E-02-2.37214E-04-2.22700E-03
 -1       836 4.12687E-02-2.42344E-04-2.19677E-03
 -1       837 4.39266E-02-2.50584E-04-2.14596E-03
 -1       838 4.65456E-02-2.30440E-04-2.15413E-03
 -1       839 4.90760E-02-6.01312E-05-2.56582E-03
 -1       840 2.01395E-03 3.41804E-04-1.96220E-03
 -1       841 4.64105E-03 2.63718E-04-2.85459E-03
 -1       842 7.19466E-03 2.27173E-04-3.02956E-03
 -1       843 9.75135E-03 2.35174E-04-3.02049E-03
 -1       844 1.23347E-02 2.42065E-04-2.99156E-03
 -1       845 1.49321E-02 2.45822E-04-2.97443E-03
 -1       846 1.75388E-02 2.47857E-04-2.96933E-03
 -1       847 2.01523E-02 2.49286E-04-2.96998E-03
 -1       848 2.27719E-02 2.50541E-04-2.97262E-03
 -1       849 2.53974E-02 2.51767E-04-2.97575E-03
 -1       850 2.80288E-02 2.52985E-04-2.97899E-03
 -1       851 3.06661E-02 2.54189E-04-2.98221E-03
 -1       852 3.33093E-02 2.55440E-04-2.98458E-03
 -1       853 3.59585E-02 2.56994E-04-2.98316E-03
 -1       854 3.86151E-02 2.59599E-04-2.97080E-03
 -1       855 4.12829E-02 2.65940E-04-2.93764E-03
 -1       856 4.39777E-02 2.81544E-04-2.88508E-03
 -1       857 4.66940E-02 2.79519E-04-2.86987E-03
 -1       858 4.93104E-02 1.13717E-04-3.29807E-03
 -1       859 2.02022E-03 1.74528E-04-1.83583E-03
 -1       860 4.64365E-03 1.43561E-04-2.70937E-03
 -1       861 7.19976E-03 1.23601E-04-2.89392E-03
 -1       862 9.74968E-03 1.26856E-04-2.89177E-03
 -1       863 1.23333E-02 1.30771E-04-2.86594E-03
 -1       864 1.49313E-02 1.32574E-04-2.84959E-03
 -1       865 1.75384E-02 1.33591E-04-2.84455E-03
 -1       866 2.01520E-02 1.34297E-04-2.84511E-03
 -1       867 2.27716E-02 1.34924E-04-2.84769E-03
 -1       868 2.53971E-02 1.35538E-04-2.85077E-03
 -1       869 2.80285E-02 1.36148E-04-2.85397E-03
 -1       870 3.06658E-02 1.36750E-04-2.85713E-03
 -1       871 3.33090E-02 1.37376E-04-2.85938E-03
 -1       872 3.59579E-02 1.38129E-04-2.85783E-03
 -1       873 3.86138E-02 1.39430E-04-2.84559E-03
 -1       874 4.12803E-02 1.42448E-04-2.81428E-03
 -1       875 4.39774E-02 1.52241E-04-2.76735E-03
 -1       876 4.67151E-02 1.45535E-04-2.76830E-03
 -1       877 4.92792E-02 5.61388E-05-3.18513E-03
 -1       878 2.02297E-03 1.09631E-11-1.79221E-03
 -1       879 4.64381E-03 3.20107E-11-2.65755E-03
 -1       880 7.20119E-03 5.87831E-11-2.84457E-03
 -1       881 9.74956E-03 8.90853E-11-2.84472E-03
 -1       882 1.23327E-02 1.20937E-10-2.81990E-03
 -1       883 1.49311E-02 1.52628E-10-2.80385E-03
 -1       884 1.75383E-02 1.82885E-10-2.79883E-03
 -1       885 2.01519E-02 2.10826E-10-2.79937E-03
 -1       886 2.27715E-02 2.35886E-10-2.80192E-03
 -1       887 2.53970E-02 2.57750E-10-2.80499E-03
 -1       888 2.80284E-02 2.76302E-10-2.80818E-03
 -1       889 3.06657E-02 2.91582E-10-2.81132E-03
 -1       890 3.33089E-02 3.03750E-10-2.81353E-03
 -1       891 3.59577E-02 3.13067E-10-2.81193E-03
 -1       892 3.86134E-02 3.19876E-10-2.79978E-03
 -1       893 4.12791E-02 3.24577E-10-2.76909E-03
 -1       894 4.39790E-02 3.27616E-10-2.72412E-03
 -1       895 4.67202E-02 3.29501E-10-2.73028E-03
 -1       896 4.92623E-02 3.30765E-10-3.13953E-03
 -1       897 2.02022E-03-1.74528E-04-1.83583E-03
 -1       898 4.64365E-03-1.43561E-04-2.70937E-03
 -1       899 7.19976E-03-1.23601E-04-2.89392E-03
 -1       900 9.74968E-03-1.26856E-04-2.89177E-03
 -1       901 1.23333E-02-1.30771E-04-2.86594E-03
 -1       902 1.49313E-02-1.32574E-04-2.84959E-03
 -1       903 1.75384E-02-1.33590E-04-2.84455E-03
 -1       904 2.01520E-02-1.34297E-04-2.84511E-03
 -1       905 2.27716E-02-1.34924E-04-2.84769E-03
 -1       906 2.53971E-02-1.35538E-04-2.85077E-03
 -1       907 2.80285E-02-1.36148E-04-2.85397E-03
 -1       908 3.06658E-02-1.36750E-04-2.85713E-03
 -1       909 3.33090E-02-1.37376E-04-2.85938E-03
 -1       910 3.59579E-02-1.38129E-04-2.85783E-03
 -1       911 3.86138E-02-1.39429E-04-2.84559E-03
 -1       912 4.12803E-02-1.42447E-04-2.81428E-03
 -1       913 4.39774E-02-1.52240E-04-2.76735E-03
 -1       914 4.67151E-02-1.45535E-04-2.76830E-03
 -1       915 4.92792E-02-5.61381E-05-3.18513E-03
 -1       916 2.01395E-03-3.41804E-04-1.96220E-03
 -1       917 4.64105E-03-2.63717E-04-2.85459E-03
 -1       918 7.19466E-03-2.27173E-04-3.02956E-03
 -1       919 9.75135E-03-2.35173E-04-3.02049E-03
 -1       920 1.23347E-02-2.42065E-04-2.99156E-03
 -1       921 1.49321E-02-2.45822E-04-2.97443E-03
 -1       922 1.75388E-02-2.47857E-04-2.96933E-03
 -1       923 2.01523E-02-2.49286E-04-2.96998E-03
 -1       924 2.27719E-02-2.50540E-04-2.97262E-03
 -1       925 2.53974E-02-2.51766E-04-2.97575E-03
 -1       926 2.80288E-02-2.52984E-04-2.97899E-03
 -1       927 3.06661E-02-2.54188E-04-2.98221E-03
 -1       928 3.33093E-02-2.55439E-04-2.98458E-03
 -1       929 3.59585E-02-2.56993E-04-2.98316E-03
 -1       930 3.86151E-02-2.59598E-04-2.97080E-03
 -1       931 4.12829E-02-2.65939E-04-2.93764E-03
 -1       932 4.39777E-02-2.81543E-04-2.88508E-03
 -1       933 4.66940E-02-2.79518E-04-2.86987E-03
 -1       934 4.93104E-02-1.13716E-04-3.29807E-03
 -1       935 2.26416E-03 2.77788E-04-2.61771E-03
 -1       936 4.85358E-03 1.72406E-04-3.57654E-03
 -1       937 7.25620E-03 1.63062E-04-3.73656E-03
 -1       938 9.77252E-03 1.81839E-04-3.73803E-03
 -1       939 1.23393E-02 1.92414E-04-3.70923E-03
 -1       940 1.49340E-02 1.96931E-04-3.69297E-03
 -1       941 1.75414E-02 1.98914E-04-3.68830E-03
 -1       942 2.01557E-02 2.00180E-04-3.68954E-03
 -1       943 2.27757E-02 2.01339E-04-3.69283E-03
 -1       944 2.54013E-02 2.02521E-04-3.69663E-03
 -1       945 2.80327E-02 2.03705E-04-3.70057E-03
 -1       946 3.06697E-02 2.04832E-04-3.70446E-03
 -1       947 3.33121E-02 2.05900E-04-3.70744E-03
 -1       948 3.59598E-02 2.07187E-04-3.70643E-03
 -1       949 3.86154E-02 2.09727E-04-3.69462E-03
 -1       950 4.12905E-02 2.17747E-04-3.66117E-03
 -1       951 4.40067E-02 2.39222E-04-3.61506E-03
 -1       952 4.68331E-02 2.73200E-04-3.59448E-03
 -1       953 4.97291E-02 8.27407E-05-3.97474E-03
 -1       954 2.27291E-03 1.11521E-04-2.42505E-03
 -1       955 4.85558E-03 7.14716E-05-3.36097E-03
 -1       956 7.25995E-03 6.27929E-05-3.53417E-03
 -1       957 9.77009E-03 7.21791E-05-3.54369E-03
 -1       958 1.23375E-02 7.79139E-05-3.51831E-03
 -1       959 1.49332E-02 8.01386E-05-3.50279E-03
 -1       960 1.75409E-02 8.11281E-05-3.49814E-03
 -1       961 2.01554E-02 8.17527E-05-3.49926E-03
 -1       962 2.27754E-02 8.23274E-05-3.50247E-03
 -1       963 2.54010E-02 8.29160E-05-3.50622E-03
 -1       964 2.80324E-02 8.35052E-05-3.51011E-03
 -1       965 3.06694E-02 8.40648E-05-3.51392E-03
 -1       966 3.33117E-02 8.45963E-05-3.51676E-03
 -1       967 3.59592E-02 8.52079E-05-3.51560E-03
 -1       968 3.86140E-02 8.65198E-05-3.50371E-03
 -1       969 4.12872E-02 9.02199E-05-3.47242E-03
 -1       970 4.40048E-02 1.04033E-04-3.43165E-03
 -1       971 4.68558E-02 1.13486E-04-3.43400E-03
 -1       972 4.96906E-02 1.30891E-05-3.80868E-03
 -1       973 2.27344E-03 1.00389E-11-2.38910E-03
 -1       974 4.85564E-03 3.08349E-11-3.30944E-03
 -1       975 7.26171E-03 5.78085E-11-3.48720E-03
 -1       976 9.76971E-03 8.83458E-11-3.49911E-03
 -1       977 1.23369E-02 1.20398E-10-3.47494E-03
 -1       978 1.49329E-02 1.52261E-10-3.45971E-03
 -1       979 1.75408E-02 1.82663E-10-3.45507E-03
 -1       980 2.01552E-02 2.10721E-10-3.45617E-03
 -1       981 2.27753E-02 2.35869E-10-3.45935E-03
 -1       982 2.54009E-02 2.57796E-10-3.46309E-03
 -1       983 2.80323E-02 2.76388E-10-3.46696E-03
 -1       984 3.06693E-02 2.91689E-10-3.47074E-03
 -1       985 3.33116E-02 3.03865E-10-3.47354E-03
 -1       986 3.59590E-02 3.13182E-10-3.47232E-03
 -1       987 3.86137E-02 3.19984E-10-3.46048E-03
 -1       988 4.12856E-02 3.24680E-10-3.42988E-03
 -1       989 4.40066E-02 3.27729E-10-3.39105E-03
 -1       990 4.68624E-02 3.29648E-10-3.40185E-03
 -1       991 4.96664E-02 3.30953E-10-3.76054E-03
 -1       992 2.27291E-03-1.11521E-04-2.42505E-03
 -1       993 4.85558E-03-7.14715E-05-3.36097E-03
 -1       994 7.25995E-03-6.27928E-05-3.53417E-03
 -1       995 9.77009E-03-7.21790E-05-3.54369E-03
 -1       996 1.23375E-02-7.79137E-05-3.51831E-03
 -1       997 1.49332E-02-8.01383E-05-3.50279E-03
 -1       998 1.75409E-02-8.11277E-05-3.49814E-03
 -1       999 2.01554E-02-8.17523E-05-3.49926E-03
 -1      1000 2.27754E-02-8.23270E-05-3.50247E-03
 -1      1001 2.54010E-02-8.29155E-05-3.50622E-03
 -1      1002 2.80324E-02-8.35047E-05-3.51011E-03
 -1      1003 3.06694E-02-8.40643E-05-3.51392E-03
 -1      1004 3.33117E-02-8.45957E-05-3.51676E-03
 -1      1005 3.59592E-02-8.52072E-05-3.51560E-03
 -1      1006 3.86140E-02-8.65192E-05-3.50371E-03
 -1      1007 4.12872E-02-9.02193E-05-3.47242E-03
 -1      1008 4.40048E-02-1.04032E-04-3.43165E-03
 -1      1009 4.68558E-02-1.13486E-04-3.43400E-03
 -1      1010 4.96906E-02-1.30885E-05-3.80868E-03
 -1      1011 2.26416E-03-2.77788E-04-2.61771E-03
 -1      1012 4.85358E-03-1.72406E-04-3.57654E-03
 -1      1013 7.25620E-03-1.63062E-04-3.73656E-03
 -1      1014 9.77252E-03-1.81839E-04-3.73803E-03
 -1      1015 1.23393E-02-1.92414E-04-3.70923E-03
 -1      1016 1.49340E-02-1.96930E-04-3.69297E-03
 -1      1017 1.75414E-02-1.98914E-04-3.68830E-03
 -1      1018 2.01557E-02-2.00179E-04-3.68954E-03
 -1      1019 2.27757E-02-2.01338E-04-3.69283E-03
 -1      1020 2.54013E-02-2.02521E-04-3.69663E-03
 -1      1021 2.80327E-02-2.03704E-04-3.70057E-03
 -1      1022 3.06697E-02-2.04832E-04-3.70446E-03
 -1      1023 3.33121E-02-2.05900E-04-3.70744E-03
 -1      1024 3.59598E-02-2.07186E-04-3.70643E-03
 -1      1025 3.86154E-02-2.09726E-04-3.69462E-03
 -1      1026 4.12905E-02-2.17747E-04-3.66117E-03
 -1      1027 4.40067E-02-2.39221E-04-3.61506E-03
 -1      1028 4.68331E-02-2.73199E-04-3.59448E-03
 -1      1029 4.97291E-02-8.27401E-05-3.97474E-03
 -1      1030 0.00000E+00 0.00000E+00 0.00000E+00
 -1      1031 0.00000E+00 0.00000E+00 0.00000E+00
 -1      1032 0.00000E+00 0.00000E+00 0.00000E+00
 -1      1033 0.00000E+00 0.00000E+00 0.00000E+00
 -1      1034 0.00000E+00 0.00000E+00 0.00000E+00
 -1      1035 0.00000E+00 0.00000E+00 0.00000E+00
 -1      1036 0.00000E+00 0.00000E+00 0.00000E+00
 -1      1037 0.00000E+00 0.00000E+00 0.00000E+00
 -1      1038 0.00000E+00 0.00000E+00 0.00000E+00
 -1      1039 0.00000E+00 0.00000E+00 0.00000E+00
 -1      1040 0.00000E+00 0.00000E+00 0.00000E+00
 -1      1041 0.00000E+00 0.00000E+00 0.00000E+00
 -1      1042 0.00000E+00 0.00000E+00 0.00000E+00
 -1      1043 0.00000E+00 0.00000E+00 0.00000E+00
 -1      1044 0.00000E+00 0.00000E+00 0.00000E+00
 -1      1045 0.00000E+00 0.00000E+00 0.00000E+00
 -1      1046 0.00000E+00 0.00000E+00 0.00000E+00
 -1      1047 0.00000E+00 0.00000E+00 0.00000E+00
 -1      1048 0.00000E+00 0.00000E+00 0.00000E+00
 -1      1049 0.00000E+00 0.00000E+00 0.00000E+00
 -1      1050 0.00000E+00 0.00000E+00 0.00000E+00
 -1      1051 0.00000E+00 0.00000E+00 0.00000E+00
 -1      1052 0.00000E+00 0.00000E+00 0.00000E+00
 -1      1053 0.00000E+00 0.00000E+00 0.00000E+00
 -1      1054 0.00000E+00 0.00000E+00 0.00000E+00
 -1      1055 0.00000E+00 0.00000E+00 0.00000E+00
 -1      1056-9.96474E-08-7.79414E-08-7.07238E-08
 -1      1057 3.71582E-08-4.56279E-09-1.07976E-08
 -1      1058-9.78945E-08-6.36655E-08-5.04247E-08
 -1      1059 3.48500E-08-1.08760E-09-1.03315E-08
 -1      1060-1.06612E-07-5.95441E-08-5.67547E-08
 -1      1061 3.25569E-08 1.95970E-10-9.36978E-09
 -1      1062-1.20508E-07-5.25832E-08-6.64067E-08
 -1      1063 3.08397E-08 4.66085E-10-8.26529E-09
 -1      1064-1.34688E-07-3.96682E-08-7.59570E-08
 -1      1065 2.97295E-08 3.85269E-10-7.31657E-09
 -1      1066-1.44981E-07-2.13738E-08-8.26739E-08
 -1      1067 2.91264E-08 2.02570E-10-6.67089E-09
 -1      1068-1.48714E-07-1.94780E-13-8.50775E-08
 -1      1069 2.89374E-08-6.25065E-17-6.44240E-09
 -1      1070-1.44981E-07 2.13735E-08-8.26741E-08
 -1      1071 2.91264E-08-2.02570E-10-6.67089E-09
 -1      1072-1.34688E-07 3.96681E-08-7.59573E-08
 -1      1073 2.97295E-08-3.85269E-10-7.31657E-09
 -1      1074-1.20508E-07 5.25832E-08-6.64070E-08
 -1      1075 3.08397E-08-4.66085E-10-8.26529E-09
 -1      1076-1.06612E-07 5.95443E-08-5.67549E-08
 -1      1077 3.25569E-08-1.95970E-10-9.36978E-09
 -1      1078-9.78945E-08 6.36657E-08-5.04249E-08
 -1      1079 3.48500E-08 1.08760E-09-1.03315E-08
 -1      1080-9.96474E-08 7.79417E-08-7.07241E-08
 -1      1081 3.71582E-08 4.56279E-09-1.07976E-08
 -1      1082-1.55681E-07-1.04180E-07-8.49045E-08
 -1      1083 6.66406E-08-1.00780E-10-1.00011E-08
 -1      1084-1.54637E-07-1.02930E-07-7.99519E-08
 -1      1085 6.17095E-08 4.73219E-10-1.10035E-08
 -1      1086-1.68280E-07-9.57935E-08-9.16369E-08
 -1      1087 5.73371E-08 9.66231E-10-9.28152E-09
 -1      1088-1.89967E-07-8.32273E-08-1.11297E-07
 -1      1089 5.38203E-08 9.62191E-10-7.22807E-09
 -1      1090-2.11928E-07-6.21197E-08-1.30184E-07
 -1      1091 5.13301E-08 6.99052E-10-5.32022E-09
 -1      1092-2.27790E-07-3.32665E-08-1.43407E-07
 -1      1093 4.98760E-08 3.53698E-10-3.98346E-09
 -1      1094-2.33519E-07-3.61764E-13-1.48103E-07
 -1      1095 4.94018E-08-9.51477E-17-3.50390E-09
 -1      1096-2.27790E-07 3.32659E-08-1.43408E-07
 -1      1097 4.98760E-08-3.53698E-10-3.98346E-09
 -1      1098-2.11929E-07 6.21195E-08-1.30184E-07
 -1      1099 5.13301E-08-6.99052E-10-5.32022E-09
 -1      1100-1.89967E-07 8.32275E-08-1.11298E-07
 -1      1101 5.38203E-08-9.62191E-10-7.22807E-09
 -1      1102-1.68280E-07 9.57938E-08-9.16375E-08
 -1      1103 5.73371E-08-9.66231E-10-9.28152E-09
 -1      1104-1.54637E-07 1.02930E-07-7.99524E-08
 -1      1105 6.17095E-08-4.73219E-10-1.10035E-08
 -1      1106-1.55680E-07 1.04180E-07-8.49049E-08
 -1      1107 6.66406E-08 1.00780E-10-1.00011E-08
 -1      1108-1.80651E-07-1.04412E-07-7.07267E-08
 -1      1109 8.58835E-08 4.03203E-09-3.77822E-09
 -1      1110-1.78170E-07-1.08114E-07-8.66231E-08
 -1      1111 7.90022E-08 3.51451E-09-5.27117E-09
 -1      1112-1.94264E-07-1.03967E-07-1.10268E-07
 -1      1113 7.27891E-08 2.93282E-09-3.98433E-09
 -1      1114-2.19698E-07-9.05690E-08-1.39166E-07
 -1      1115 6.73601E-08 2.34225E-09-1.62459E-09
 -1      1116-2.45449E-07-6.73409E-08-1.66290E-07
 -1      1117 6.32080E-08 1.61445E-09 7.86196E-10
 -1      1118-2.63709E-07-3.58707E-08-1.84828E-07
 -1      1119 6.06365E-08 8.13793E-10 2.54663E-09
 -1      1120-2.70190E-07-6.15800E-13-1.91306E-07
 -1      1121 5.97719E-08-1.04606E-16 3.18949E-09
 -1      1122-2.63709E-07 3.58699E-08-1.84830E-07
 -1      1123 6.06365E-08-8.13793E-10 2.54663E-09
 -1      1124-2.45449E-07 6.73407E-08-1.66292E-07
 -1      1125 6.32080E-08-1.61445E-09 7.86196E-10
 -1      1126-2.19698E-07 9.05693E-08-1.39168E-07
 -1      1127 6.73601E-08-2.34225E-09-1.62459E-09
 -1      1128-1.94264E-07 1.03967E-07-1.10269E-07
 -1      1129 7.27891E-08-2.93282E-09-3.98433E-09
 -1      1130-1.78170E-07 1.08114E-07-8.66237E-08
 -1      1131 7.90022E-08-3.51451E-09-5.27117E-09
 -1      1132-1.80651E-07 1.04412E-07-7.07273E-08
 -1      1133 8.58835E-08-4.03203E-09-3.77822E-09
 -1      1134-1.75389E-07-7.87896E-08-4.80486E-08
 -1      1135 9.53364E-08 7.10926E-09 2.76903E-09
 -1      1136-1.72525E-07-8.40021E-08-8.19702E-08
 -1      1137 8.78657E-08 6.33344E-09 1.21440E-09
 -1      1138-1.86462E-07-8.28269E-08-1.16545E-07
 -1      1139 8.05371E-08 5.45425E-09 1.70192E-09
 -1      1140-2.10296E-07-7.32066E-08-1.53612E-07
 -1      1141 7.39391E-08 4.36713E-09 3.47605E-09
 -1      1142-2.34558E-07-5.42937E-08-1.86737E-07
 -1      1143 6.87395E-08 3.01181E-09 5.57782E-09
 -1      1144-2.50731E-07-2.86054E-08-2.08340E-07
 -1      1145 6.53598E-08 1.49889E-09 7.19925E-09
 -1      1146-2.56108E-07-1.06395E-12-2.15636E-07
 -1      1147 6.41611E-08-1.00441E-16 7.81649E-09
 -1      1148-2.50731E-07 2.86041E-08-2.08343E-07
 -1      1149 6.53598E-08-1.49889E-09 7.19925E-09
 -1      1150-2.34559E-07 5.42940E-08-1.86741E-07
 -1      1151 6.87395E-08-3.01181E-09 5.57782E-09
 -1      1152-2.10297E-07 7.32074E-08-1.53614E-07
 -1      1153 7.39391E-08-4.36713E-09 3.47605E-09
 -1      1154-1.86462E-07 8.28276E-08-1.16546E-07
 -1      1155 8.05371E-08-5.45425E-09 1.70192E-09
 -1      1156-1.72525E-07 8.40026E-08-8.19710E-08
 -1      1157 8.78657E-08-6.33344E-09 1.21440E-09
 -1      1158-1.75389E-07 7.87901E-08-4.80491E-08
 -1      1159 9.53364E-08-7.10927E-09 2.76903E-09
 -1      1160-1.48991E-07-3.40253E-08-3.16653E-08
 -1      1161 9.96127E-08 9.08965E-09 6.60767E-09
 -1      1162-1.45817E-07-3.69818E-08-7.59902E-08
 -1      1163 9.26154E-08 8.34451E-09 4.95554E-09
 -1      1164-1.49301E-07-3.74118E-08-1.16824E-07
 -1      1165 8.50998E-08 7.59127E-09 4.48590E-09
 -1      1166-1.61938E-07-3.35570E-08-1.58537E-07
 -1      1167 7.92619E-08 6.45244E-09 5.48539E-09
 -1      1168-1.75826E-07-2.43720E-08-1.94146E-07
 -1      1169 7.51813E-08 4.27278E-09 6.96196E-09
 -1      1170-1.82308E-07-1.24082E-08-2.16003E-07
 -1      1171 7.18531E-08 1.90661E-09 7.86453E-09
 -1      1172-1.84205E-07-2.06472E-12-2.23068E-07
 -1      1173 7.06888E-08-9.30912E-17 8.17186E-09
 -1      1174-1.82309E-07 1.24073E-08-2.16012E-07
 -1      1175 7.18531E-08-1.90661E-09 7.86453E-09
 -1      1176-1.75827E-07 2.43736E-08-1.94152E-07
 -1      1177 7.51813E-08-4.27278E-09 6.96196E-09
 -1      1178-1.61939E-07 3.35577E-08-1.58539E-07
 -1      1179 7.92619E-08-6.45244E-09 5.48539E-09
 -1      1180-1.49302E-07 3.74122E-08-1.16825E-07
 -1      1181 8.50998E-08-7.59127E-09 4.48590E-09
 -1      1182-1.45818E-07 3.69820E-08-7.59910E-08
 -1      1183 9.26154E-08-8.34451E-09 4.95554E-09
 -1      1184-1.48991E-07 3.40256E-08-3.16657E-08
 -1      1185 9.96127E-08-9.08965E-09 6.60767E-09
 -1      1186-1.22364E-07 1.69667E-08-2.67136E-08
 -1      1187 1.04922E-07 1.07720E-08 7.40178E-09
 -1      1188-1.14578E-07 1.56791E-08-7.43828E-08
 -1      1189 9.83164E-08 9.58942E-09 5.82346E-09
 -1      1190-9.87466E-08 1.56471E-08-1.17725E-07
 -1      1191 9.07339E-08 7.69624E-09 4.62260E-09
 -1      1192-8.26476E-08 1.50524E-08-1.61891E-07
 -1      1193 8.23646E-08 5.37017E-09 7.68027E-09
 -1      1194-6.95198E-08 1.15505E-08-1.97113E-07
 -1      1195 7.53637E-08 3.24367E-09 1.19446E-08
 -1      1196-6.21307E-08 5.94883E-09-2.18794E-07
 -1      1197 7.19115E-08 1.49670E-09 1.23199E-08
 -1      1198-5.99459E-08 1.35767E-12-2.25619E-07
 -1      1199 7.09654E-08-9.25694E-17 1.25536E-08
 -1      1200-6.21366E-08-5.94781E-09-2.18815E-07
 -1      1201 7.19115E-08-1.49670E-09 1.23199E-08
 -1      1202-6.95233E-08-1.15513E-08-1.97117E-07
 -1      1203 7.53637E-08-3.24367E-09 1.19446E-08
 -1      1204-8.26493E-08-1.50531E-08-1.61893E-07
 -1      1205 8.23646E-08-5.37017E-09 7.68027E-09
 -1      1206-9.87476E-08-1.56474E-08-1.17726E-07
 -1      1207 9.07339E-08-7.69624E-09 4.62260E-09
 -1      1208-1.14578E-07-1.56792E-08-7.43836E-08
 -1      1209 9.83164E-08-9.58942E-09 5.82346E-09
 -1      1210-1.22364E-07-1.69668E-08-2.67141E-08
 -1      1211 1.04922E-07-1.07720E-08 7.40178E-09
 -1      1212 0.00000E+00 0.00000E+00 0.00000E+00
 -1      1213 0.00000E+00 0.00000E+00 0.00000E+00
 -1      1214 0.00000E+00 0.00000E+00 0.00000E+00
 -1      1215 0.00000E+00 0.00000E+00 0.00000E+00
 -1      1216 0.00000E+00 0.00000E+00 0.00000E+00
 -1      1217 0.00000E+00 0.00000E+00 0.00000E+00
 -1      1218 0.00000E+00 0.00000E+00 0.00000E+00
 -1      1219 0.00000E+00 0.00000E+00 0.00000E+00
 -1      1220 0.00000E+00 0.00000E+00 0.00000E+00
 -1      1221 0.00000E+00 0.00000E+00 0.00000E+00
 -1      1222 0.00000E+00 0.00000E+00 0.00000E+00
 -1      1223 0.00000E+00 0.00000E+00 0.00000E+00
 -1      1224 0.00000E+00 0.00000E+00 0.00000E+00
 -1      1225 0.00000E+00 0.00000E+00 0.00000E+00
 -1      1226 0.00000E+00 0.00000E+00 0.00000E+00
 -1      1227 0.00000E+00 0.00000E+00 0.00000E+00
 -1      1228 0.00000E+00 0.00000E+00 0.00000E+00
 -1      1229 0.00000E+00 0.00000E+00 0.00000E+00
 -1      1230 0.00000E+00 0.00000E+00 0.00000E+00
 -1      1231 0.00000E+00 0.00000E+00 0.00000E+00
 -1      1232 0.00000E+00 0.00000E+00 0.00000E+00
 -1      1233 0.00000E+00 0.00000E+00 0.00000E+00
 -1      1234 0.00000E+00 0.00000E+00 0.00000E+00
 -1      1235 0.00000E+00 0.00000E+00 0.00000E+00
 -1      1236 0.00000E+00 0.00000E+00 0.00000E+00
 -1      1237 0.00000E+00 0.00000E+00 0.00000E+00
 -1      1238 0.00000E+00 0.00000E+00 0.00000E+00
 -1      1239 0.00000E+00 0.00000E+00 0.00000E+00
 -1      1240 0.00000E+00 0.00000E+00 0.00000E+00
 -1      1241 0.00000E+00 0.00000E+00 0.00000E+00
 -1      1242 0.00000E+00 0.00000E+00 0.00000E+00
 -1      1243 0.00000E+00 0.00000E+00 0.00000E+00
 -1      1244 0.00000E+00 0.00000E+00 0.00000E+00
 -1      1245 0.00000E+00 0.00000E+00 0.00000E+00
 -1      1246 0.00000E+00 0.00000E+00 0.00000E+00
 -1      1247 0.00000E+00 0.00000E+00 0.00000E+00
 -1      1248 0.00000E+00 0.00000E+00 0.00000E+00
 -1      1249 0.00000E+00 0.00000E+00 0.00000E+00
 -1      1250 0.00000E+00 0.00000E+00 0.00000E+00
 -1      1251 0.00000E+00 0.00000E+00 0.00000E+00
 -1      1252 0.00000E+00 0.00000E+00 0.00000E+00
 -1      1253 0.00000E+00 0.00000E+00 0.00000E+00
 -1      1254 0.00000E+00 0.00000E+00 0.00000E+00
 -1      1255 0.00000E+00 0.00000E+00 0.00000E+00
 -1      1256 0.00000E+00 0.00000E+00 0.00000E+00
 -1      1257 0.00000E+00 0.00000E+00 0.00000E+00
 -1      1258-8.98575E-08-1.04576E-07-6.76015E-08
 -1      1259-8.98574E-08 1.04576E-07-6.76015E-08
 -1      1260-8.55166E-08-1.78053E-07-1.19218E-07
 -1      1261-8.55165E-08 1.78053E-07-1.19218E-07
 -1      1262-5.44522E-08-2.30221E-07-1.53331E-07
 -1      1263-5.44522E-08 2.30221E-07-1.53331E-07
 -1      1264-2.53278E-08-2.54057E-07-1.68522E-07
 -1      1265-2.53278E-08 2.54057E-07-1.68522E-07
 -1      1266-8.02051E-09-2.60520E-07-1.71854E-07
 -1      1267-8.02051E-09 2.60520E-07-1.71854E-07
 -1      1268-5.08702E-10-2.60683E-07-1.71417E-07
 -1      1269-5.08703E-10 2.60683E-07-1.71417E-07
 -1      1270 2.19239E-09-2.59816E-07-1.70740E-07
 -1      1271 2.19239E-09 2.59816E-07-1.70740E-07
 -1      1272 3.25566E-09-2.59367E-07-1.70531E-07
 -1      1273 3.25566E-09 2.59367E-07-1.70531E-07
 -1      1274 3.89237E-09-2.59314E-07-1.70602E-07
 -1      1275 3.89237E-09 2.59314E-07-1.70602E-07
 -1      1276 4.40400E-09-2.59412E-07-1.70737E-07
 -1      1277 4.40400E-09 2.59412E-07-1.70737E-07
 -1      1278 4.86505E-09-2.59511E-07-1.70844E-07
 -1      1279 4.86505E-09 2.59511E-07-1.70844E-07
 -1      1280 5.38442E-09-2.59518E-07-1.70883E-07
 -1      1281 5.38442E-09 2.59518E-07-1.70883E-07
 -1      1282 6.16907E-09-2.59272E-07-1.70760E-07
 -1      1283 6.16907E-09 2.59272E-07-1.70760E-07
 -1      1284 7.41736E-09-2.58426E-07-1.70206E-07
 -1      1285 7.41736E-09 2.58426E-07-1.70206E-07
 -1      1286 8.82162E-09-2.56556E-07-1.68797E-07
 -1      1287 8.82162E-09 2.56556E-07-1.68797E-07
 -1      1288 8.71131E-09-2.53986E-07-1.66581E-07
 -1      1289 8.71131E-09 2.53986E-07-1.66581E-07
 -1      1290 4.83903E-09-2.53435E-07-1.65810E-07
 -1      1291 4.83903E-09 2.53435E-07-1.65810E-07
 -1      1292 1.19403E-09-2.60199E-07-1.71514E-07
 -1      1293 1.19403E-09 2.60199E-07-1.71514E-07
 -1      1294 1.78565E-08-2.73028E-07-1.83155E-07
 -1      1295 1.78565E-08 2.73028E-07-1.83155E-07
 -1      1296 7.04616E-08-2.58121E-07-1.74885E-07
 -1      1297 7.04616E-08 2.58121E-07-1.74885E-07
 -1      1298 1.13340E-07-1.69184E-07-1.12323E-07
 -1      1299 1.13340E-07 1.69184E-07-1.12323E-07
 -1      1300 9.77829E-08-6.71895E-08-4.07692E-08
 -1      1301 9.77829E-08 6.71895E-08-4.07692E-08
 -1      1302 5.52062E-08-1.56627E-08-5.04293E-09
 -1      1303 5.52062E-08 1.56627E-08-5.04293E-09
 -1      1304-1.54928E-07-1.60270E-07-9.29329E-08
 -1      1305-1.54928E-07 1.60270E-07-9.29331E-08
 -1      1306-1.36603E-07-2.71431E-07-1.59921E-07
 -1      1307-1.36603E-07 2.71431E-07-1.59921E-07
 -1      1308-8.87367E-08-3.53047E-07-2.07128E-07
 -1      1309-8.87367E-08 3.53047E-07-2.07128E-07
 -1      1310-4.23165E-08-3.89403E-07-2.25275E-07
 -1      1311-4.23165E-08 3.89403E-07-2.25275E-07
 -1      1312-1.42164E-08-3.99519E-07-2.27372E-07
 -1      1313-1.42164E-08 3.99519E-07-2.27372E-07
 -1      1314-1.24828E-09-3.99916E-07-2.25389E-07
 -1      1315-1.24828E-09 3.99916E-07-2.25389E-07
 -1      1316 3.96617E-09-3.98707E-07-2.24053E-07
 -1      1317 3.96617E-09 3.98707E-07-2.24053E-07
 -1      1318 6.28639E-09-3.98082E-07-2.23762E-07
 -1      1319 6.28639E-09 3.98082E-07-2.23762E-07
 -1      1320 7.67518E-09-3.98033E-07-2.23932E-07
 -1      1321 7.67518E-09 3.98033E-07-2.23932E-07
 -1      1322 8.71135E-09-3.98199E-07-2.24168E-07
 -1      1323 8.71135E-09 3.98199E-07-2.24168E-07
 -1      1324 9.58976E-09-3.98356E-07-2.24347E-07
 -1      1325 9.58976E-09 3.98356E-07-2.24347E-07
 -1      1326 1.05218E-08-3.98368E-07-2.24451E-07
 -1      1327 1.05218E-08 3.98368E-07-2.24451E-07
 -1      1328 1.18408E-08-3.97989E-07-2.24374E-07
 -1      1329 1.18408E-08 3.97989E-07-2.24374E-07
 -1      1330 1.38535E-08-3.96700E-07-2.23705E-07
 -1      1331 1.38535E-08 3.96700E-07-2.23705E-07
 -1      1332 1.61434E-08-3.93858E-07-2.21633E-07
 -1      1333 1.61434E-08 3.93858E-07-2.21633E-07
 -1      1334 1.63831E-08-3.89910E-07-2.17874E-07
 -1      1335 1.63831E-08 3.89910E-07-2.17874E-07
 -1      1336 1.14689E-08-3.88813E-07-2.16000E-07
 -1      1337 1.14689E-08 3.88813E-07-2.16000E-07
 -1      1338 7.33896E-09-3.98506E-07-2.25662E-07
 -1      1339 7.33896E-09 3.98506E-07-2.25662E-07
 -1      1340 3.35259E-08-4.18727E-07-2.48153E-07
 -1      1341 3.35259E-08 4.18727E-07-2.48153E-07
 -1      1342 1.12757E-07-3.98303E-07-2.41467E-07
 -1      1343 1.12757E-07 3.98303E-07-2.41467E-07
 -1      1344 1.77229E-07-2.59929E-07-1.50272E-07
 -1      1345 1.77229E-07 2.59929E-07-1.50272E-07
 -1      1346 1.54117E-07-1.01424E-07-4.52670E-08
 -1      1347 1.54117E-07 1.01424E-07-4.52670E-08
 -1      1348 9.43047E-08-2.45875E-08 2.27342E-10
 -1      1349 9.43047E-08 2.45875E-08 2.27341E-10
 -1      1350-1.83863E-07-1.72732E-07-9.43029E-08
 -1      1351-1.83863E-07 1.72732E-07-9.43031E-08
 -1      1352-1.57859E-07-2.97100E-07-1.58390E-07
 -1      1353-1.57859E-07 2.97100E-07-1.58390E-07
 -1      1354-1.02996E-07-3.87911E-07-2.05540E-07
 -1      1355-1.02996E-07 3.87911E-07-2.05540E-07
 -1      1356-5.09369E-08-4.27967E-07-2.21047E-07
 -1      1357-5.09369E-08 4.27967E-07-2.21047E-07
 -1      1358-1.83458E-08-4.39163E-07-2.19824E-07
 -1      1359-1.83458E-08 4.39163E-07-2.19824E-07
 -1      1360-2.16464E-09-4.39810E-07-2.15927E-07
 -1      1361-2.16464E-09 4.39810E-07-2.15927E-07
 -1      1362 5.22524E-09-4.38733E-07-2.13955E-07
 -1      1363 5.22524E-09 4.38733E-07-2.13955E-07
 -1      1364 8.91229E-09-4.38254E-07-2.13609E-07
 -1      1365 8.91229E-09 4.38254E-07-2.13609E-07
 -1      1366 1.11331E-08-4.38338E-07-2.13857E-07
 -1      1367 1.11331E-08 4.38338E-07-2.13857E-07
 -1      1368 1.26916E-08-4.38599E-07-2.14154E-07
 -1      1369 1.26916E-08 4.38599E-07-2.14154E-07
 -1      1370 1.39339E-08-4.38812E-07-2.14376E-07
 -1      1371 1.39339E-08 4.38812E-07-2.14376E-07
 -1      1372 1.51634E-08-4.38843E-07-2.14546E-07
 -1      1373 1.51634E-08 4.38843E-07-2.14546E-07
 -1      1374 1.67655E-08-4.38435E-07-2.14589E-07
 -1      1375 1.67655E-08 4.38435E-07-2.14589E-07
 -1      1376 1.90853E-08-4.37017E-07-2.14022E-07
 -1      1377 1.90853E-08 4.37017E-07-2.14022E-07
 -1      1378 2.18159E-08-4.33839E-07-2.11725E-07
 -1      1379 2.18159E-08 4.33839E-07-2.11725E-07
 -1      1380 2.29292E-08-4.29254E-07-2.06985E-07
 -1      1381 2.29292E-08 4.29254E-07-2.06985E-07
 -1      1382 1.95884E-08-4.27470E-07-2.04124E-07
 -1      1383 1.95884E-08 4.27470E-07-2.04124E-07
 -1      1384 1.71145E-08-4.37332E-07-2.16745E-07
 -1      1385 1.71145E-08 4.37332E-07-2.16745E-07
 -1      1386 4.46731E-08-4.61230E-07-2.47988E-07
 -1      1387 4.46731E-08 4.61230E-07-2.47988E-07
 -1      1388 1.28197E-07-4.44263E-07-2.45765E-07
 -1      1389 1.28197E-07 4.44263E-07-2.45765E-07
 -1      1390 1.96727E-07-2.86715E-07-1.47394E-07
 -1      1391 1.96727E-07 2.86715E-07-1.47394E-07
 -1      1392 1.72678E-07-1.07680E-07-3.32968E-08
 -1      1393 1.72678E-07 1.07680E-07-3.32968E-08
 -1      1394 1.13117E-07-2.57119E-08 9.58811E-09
 -1      1395 1.13117E-07 2.57119E-08 9.58811E-09
 -1      1396-1.77269E-07-1.38428E-07-8.29225E-08
 -1      1397-1.77269E-07 1.38428E-07-8.29226E-08
 -1      1398-1.49919E-07-2.43732E-07-1.33105E-07
 -1      1399-1.49920E-07 2.43732E-07-1.33105E-07
 -1      1400-9.94364E-08-3.21284E-07-1.73274E-07
 -1      1401-9.94365E-08 3.21284E-07-1.73274E-07
 -1      1402-5.22116E-08-3.55977E-07-1.84213E-07
 -1      1403-5.22117E-08 3.55977E-07-1.84213E-07
 -1      1404-2.08764E-08-3.66045E-07-1.79691E-07
 -1      1405-2.08764E-08 3.66045E-07-1.79691E-07
 -1      1406-3.40537E-09-3.67146E-07-1.74190E-07
 -1      1407-3.40538E-09 3.67146E-07-1.74190E-07
 -1      1408 5.82527E-09-3.66761E-07-1.71704E-07
 -1      1409 5.82527E-09 3.66761E-07-1.71704E-07
 -1      1410 1.09121E-08-3.66772E-07-1.71279E-07
 -1      1411 1.09121E-08 3.66772E-07-1.71279E-07
 -1      1412 1.39784E-08-3.67124E-07-1.71540E-07
 -1      1413 1.39784E-08 3.67124E-07-1.71540E-07
 -1      1414 1.60189E-08-3.67508E-07-1.71846E-07
 -1      1415 1.60189E-08 3.67508E-07-1.71846E-07
 -1      1416 1.75550E-08-3.67772E-07-1.72079E-07
 -1      1417 1.75550E-08 3.67772E-07-1.72079E-07
 -1      1418 1.89681E-08-3.67836E-07-1.72296E-07
 -1      1419 1.89681E-08 3.67836E-07-1.72296E-07
 -1      1420 2.06249E-08-3.67502E-07-1.72461E-07
 -1      1421 2.06249E-08 3.67502E-07-1.72461E-07
 -1      1422 2.28281E-08-3.66272E-07-1.72072E-07
 -1      1423 2.28281E-08 3.66272E-07-1.72072E-07
 -1      1424 2.55099E-08-3.63442E-07-1.69839E-07
 -1      1425 2.55099E-08 3.63442E-07-1.69839E-07
 -1      1426 2.77227E-08-3.59171E-07-1.64777E-07
 -1      1427 2.77227E-08 3.59171E-07-1.64777E-07
 -1      1428 2.81701E-08-3.57019E-07-1.61507E-07
 -1      1429 2.81701E-08 3.57019E-07-1.61507E-07
 -1      1430 3.01376E-08-3.64603E-07-1.76172E-07
 -1      1431 3.01376E-08 3.64603E-07-1.76172E-07
 -1      1432 5.29650E-08-3.85949E-07-2.12019E-07
 -1      1433 5.29650E-08 3.85949E-07-2.12019E-07
 -1      1434 1.18607E-07-3.76926E-07-2.11231E-07
 -1      1435 1.18607E-07 3.76926E-07-2.11231E-07
 -1      1436 1.73155E-07-2.40715E-07-1.22858E-07
 -1      1437 1.73155E-07 2.40715E-07-1.22858E-07
 -1      1438 1.55719E-07-8.70415E-08-1.81202E-08
 -1      1439 1.55719E-07 8.70415E-08-1.81202E-08
 -1      1440 1.13499E-07-2.02840E-08 1.81563E-08
 -1      1441 1.13499E-07 2.02840E-08 1.81563E-08
 -1      1442-1.44924E-07-6.35724E-08-7.10272E-08
 -1      1443-1.44924E-07 6.35723E-08-7.10273E-08
 -1      1444-1.20392E-07-1.16349E-07-1.07351E-07
 -1      1445-1.20392E-07 1.16349E-07-1.07351E-07
 -1      1446-8.40163E-08-1.60847E-07-1.40245E-07
 -1      1447-8.40164E-08 1.60847E-07-1.40245E-07
 -1      1448-4.92876E-08-1.83411E-07-1.47738E-07
 -1      1449-4.92876E-08 1.83411E-07-1.47738E-07
 -1      1450-2.28472E-08-1.91262E-07-1.41123E-07
 -1      1451-2.28472E-08 1.91262E-07-1.41123E-07
 -1      1452-5.16654E-09-1.93333E-07-1.34595E-07
 -1      1453-5.16654E-09 1.93333E-07-1.34595E-07
 -1      1454 5.67135E-09-1.94195E-07-1.31669E-07
 -1      1455 5.67135E-09 1.94195E-07-1.31669E-07
 -1      1456 1.20599E-08-1.94990E-07-1.31064E-07
 -1      1457 1.20599E-08 1.94990E-07-1.31064E-07
 -1      1458 1.58667E-08-1.95714E-07-1.31240E-07
 -1      1459 1.58667E-08 1.95714E-07-1.31240E-07
 -1      1460 1.82848E-08-1.96241E-07-1.31496E-07
 -1      1461 1.82848E-08 1.96241E-07-1.31496E-07
 -1      1462 2.00241E-08-1.96550E-07-1.31706E-07
 -1      1463 2.00241E-08 1.96550E-07-1.31706E-07
 -1      1464 2.15272E-08-1.96653E-07-1.31941E-07
 -1      1465 2.15272E-08 1.96653E-07-1.31941E-07
 -1      1466 2.30841E-08-1.96462E-07-1.32181E-07
 -1      1467 2.30841E-08 1.96462E-07-1.32181E-07
 -1      1468 2.48590E-08-1.95661E-07-1.31928E-07
 -1      1469 2.48590E-08 1.95661E-07-1.31928E-07
 -1      1470 2.69844E-08-1.93764E-07-1.29866E-07
 -1      1471 2.69844E-08 1.93764E-07-1.29866E-07
 -1      1472 2.99723E-08-1.90825E-07-1.24988E-07
 -1      1473 2.99723E-08 1.90825E-07-1.24988E-07
 -1      1474 3.54586E-08-1.89183E-07-1.22012E-07
 -1      1475 3.54586E-08 1.89183E-07-1.22012E-07
 -1      1476 4.54058E-08-1.93039E-07-1.37961E-07
 -1      1477 4.54058E-08 1.93039E-07-1.37961E-07
 -1      1478 6.20395E-08-2.03318E-07-1.74201E-07
 -1      1479 6.20395E-08 2.03318E-07-1.74201E-07
 -1      1480 9.13210E-08-1.99782E-07-1.71743E-07
 -1      1481 9.13210E-08 1.99782E-07-1.71743E-07
 -1      1482 1.15345E-07-1.28790E-07-9.82279E-08
 -1      1483 1.15345E-07 1.28790E-07-9.82279E-08
 -1      1484 1.13114E-07-4.82602E-08-8.57752E-09
 -1      1485 1.13114E-07 4.82602E-08-8.57752E-09
 -1      1486 1.03186E-07-1.18028E-08 2.26506E-08
 -1      1487 1.03186E-07 1.18028E-08 2.26506E-08
 -1      1488-1.14087E-07 2.84596E-08-6.77864E-08
 -1      1489-1.14087E-07-2.84599E-08-6.77864E-08
 -1      1490-9.21965E-08 4.35950E-08-9.96046E-08
 -1      1491-9.21968E-08-4.35951E-08-9.96046E-08
 -1      1492-6.93380E-08 4.01483E-08-1.29818E-07
 -1      1493-6.93380E-08-4.01483E-08-1.29818E-07
 -1      1494-4.73509E-08 3.18216E-08-1.36287E-07
 -1      1495-4.73509E-08-3.18216E-08-1.36287E-07
 -1      1496-2.53154E-08 2.62730E-08-1.28925E-07
 -1      1497-2.53155E-08-2.62730E-08-1.28925E-07
 -1      1498-7.20923E-09 2.29022E-08-1.21729E-07
 -1      1499-7.20924E-09-2.29022E-08-1.21729E-07
 -1      1500 4.99134E-09 2.05517E-08-1.18286E-07
 -1      1501 4.99134E-09-2.05517E-08-1.18286E-07
 -1      1502 1.22994E-08 1.88638E-08-1.17355E-07
 -1      1503 1.22994E-08-1.88638E-08-1.17355E-07
 -1      1504 1.65284E-08 1.77344E-08-1.17346E-07
 -1      1505 1.65284E-08-1.77344E-08-1.17346E-07
 -1      1506 1.91167E-08 1.70619E-08-1.17506E-07
 -1      1507 1.91167E-08-1.70619E-08-1.17506E-07
 -1      1508 2.09398E-08 1.67121E-08-1.17676E-07
 -1      1509 2.09398E-08-1.67121E-08-1.17676E-07
 -1      1510 2.24781E-08 1.65716E-08-1.17906E-07
 -1      1511 2.24781E-08-1.65716E-08-1.17906E-07
 -1      1512 2.39235E-08 1.65980E-08-1.18162E-07
 -1      1513 2.39235E-08-1.65980E-08-1.18162E-07
 -1      1514 2.52188E-08 1.68833E-08-1.17943E-07
 -1      1515 2.52188E-08-1.68833E-08-1.17943E-07
 -1      1516 2.64724E-08 1.76174E-08-1.15972E-07
 -1      1517 2.64724E-08-1.76174E-08-1.15972E-07
 -1      1518 2.93910E-08 1.87505E-08-1.11439E-07
 -1      1519 2.93910E-08-1.87505E-08-1.11439E-07
 -1      1520 3.93143E-08 1.92060E-08-1.09309E-07
 -1      1521 3.93143E-08-1.92060E-08-1.09309E-07
 -1      1522 5.92988E-08 1.91192E-08-1.25955E-07
 -1      1523 5.92988E-08-1.91192E-08-1.25955E-07
 -1      1524 7.23710E-08 2.53218E-08-1.60982E-07
 -1      1525 7.23710E-08-2.53218E-08-1.60982E-07
 -1      1526 6.52328E-08 2.67878E-08-1.56165E-07
 -1      1527 6.52328E-08-2.67878E-08-1.56165E-07
 -1      1528 5.80714E-08 1.10451E-08-8.97702E-08
 -1      1529 5.80714E-08-1.10451E-08-8.97702E-08
 -1      1530 7.22239E-08-4.58380E-09-7.42965E-09
 -1      1531 7.22239E-08 4.58380E-09-7.42965E-09
 -1      1532 9.52584E-08-3.62519E-09 2.28765E-08
 -1      1533 9.52584E-08 3.62519E-09 2.28765E-08
 -1      1534 0.00000E+00 0.00000E+00 0.00000E+00
 -1      1535-1.01315E-07 3.21020E-08-1.57023E-07
 -1      1536 0.00000E+00 0.00000E+00 0.00000E+00
 -1      1537-7.60760E-08 5.30668E-08-2.53989E-07
 -1      1538 0.00000E+00 0.00000E+00 0.00000E+00
 -1      1539-5.78785E-08 5.27117E-08-3.23914E-07
 -1      1540 0.00000E+00 0.00000E+00 0.00000E+00
 -1      1541-4.17544E-08 4.48733E-08-3.43295E-07
 -1      1542 0.00000E+00 0.00000E+00 0.00000E+00
 -1      1543-2.28283E-08 3.92418E-08-3.37682E-07
 -1      1544 0.00000E+00 0.00000E+00 0.00000E+00
 -1      1545-5.78658E-09 3.61449E-08-3.29145E-07
 -1      1546 0.00000E+00 0.00000E+00 0.00000E+00
 -1      1547 6.20776E-09 3.42272E-08-3.24292E-07
 -1      1548 0.00000E+00 0.00000E+00 0.00000E+00
 -1      1549 1.34894E-08 3.28938E-08-3.22535E-07
 -1      1550 0.00000E+00 0.00000E+00 0.00000E+00
 -1      1551 1.76821E-08 3.19845E-08-3.22150E-07
 -1      1552 0.00000E+00 0.00000E+00 0.00000E+00
 -1      1553 2.02145E-08 3.14274E-08-3.22175E-07
 -1      1554 0.00000E+00 0.00000E+00 0.00000E+00
 -1      1555 2.19779E-08 3.11295E-08-3.22305E-07
 -1      1556 0.00000E+00 0.00000E+00 0.00000E+00
 -1      1557 2.34421E-08 3.10091E-08-3.22499E-07
 -1      1558 0.00000E+00 0.00000E+00 0.00000E+00
 -1      1559 2.47539E-08 3.10482E-08-3.22608E-07
 -1      1560 0.00000E+00 0.00000E+00 0.00000E+00
 -1      1561 2.57961E-08 3.13345E-08-3.21926E-07
 -1      1562 0.00000E+00 0.00000E+00 0.00000E+00
 -1      1563 2.67130E-08 3.19404E-08-3.18870E-07
 -1      1564 0.00000E+00 0.00000E+00 0.00000E+00
 -1      1565 2.96060E-08 3.24574E-08-3.12552E-07
 -1      1566 0.00000E+00 0.00000E+00 0.00000E+00
 -1      1567 4.03902E-08 3.15806E-08-3.08789E-07
 -1      1568 0.00000E+00 0.00000E+00 0.00000E+00
 -1      1569 6.25487E-08 3.09540E-08-3.28482E-07
 -1      1570 0.00000E+00 0.00000E+00 0.00000E+00
 -1      1571 7.54077E-08 4.14208E-08-3.81832E-07
 -1      1572 0.00000E+00 0.00000E+00 0.00000E+00
 -1      1573 5.38763E-08 4.83031E-08-3.76575E-07
 -1      1574 0.00000E+00 0.00000E+00 0.00000E+00
 -1      1575 3.22947E-08 2.07712E-08-2.24434E-07
 -1      1576 0.00000E+00 0.00000E+00 0.00000E+00
 -1      1577 5.29813E-08-7.08878E-09-4.67900E-08
 -1      1578 0.00000E+00 0.00000E+00 0.00000E+00
 -1      1579 8.63404E-08-6.00194E-09 1.68759E-08
 -1      1580 0.00000E+00 0.00000E+00 0.00000E+00
 -1      1581-7.55553E-08 4.71835E-08-2.61904E-07
 -1      1582 0.00000E+00 0.00000E+00 0.00000E+00
 -1      1583-4.65694E-08 8.94812E-08-4.47507E-07
 -1      1584 0.00000E+00 0.00000E+00 0.00000E+00
 -1      1585-3.99119E-08 9.87764E-08-5.66837E-07
 -1      1586 0.00000E+00 0.00000E+00 0.00000E+00
 -1      1587-3.29041E-08 9.29325E-08-5.98035E-07
 -1      1588 0.00000E+00 0.00000E+00 0.00000E+00
 -1      1589-1.81561E-08 8.71329E-08-5.92418E-07
 -1      1590 0.00000E+00 0.00000E+00 0.00000E+00
 -1      1591-2.49949E-09 8.38582E-08-5.81548E-07
 -1      1592 0.00000E+00 0.00000E+00 0.00000E+00
 -1      1593 9.30214E-09 8.20870E-08-5.74999E-07
 -1      1594 0.00000E+00 0.00000E+00 0.00000E+00
 -1      1595 1.66614E-08 8.09873E-08-5.72395E-07
 -1      1596 0.00000E+00 0.00000E+00 0.00000E+00
 -1      1597 2.09190E-08 8.02667E-08-5.71659E-07
 -1      1598 0.00000E+00 0.00000E+00 0.00000E+00
 -1      1599 2.34608E-08 7.98256E-08-5.71569E-07
 -1      1600 0.00000E+00 0.00000E+00 0.00000E+00
 -1      1601 2.51930E-08 7.95886E-08-5.71673E-07
 -1      1602 0.00000E+00 0.00000E+00 0.00000E+00
 -1      1603 2.65794E-08 7.94975E-08-5.71851E-07
 -1      1604 0.00000E+00 0.00000E+00 0.00000E+00
 -1      1605 2.77228E-08 7.95427E-08-5.71844E-07
 -1      1606 0.00000E+00 0.00000E+00 0.00000E+00
 -1      1607 2.84574E-08 7.97624E-08-5.70727E-07
 -1      1608 0.00000E+00 0.00000E+00 0.00000E+00
 -1      1609 2.89550E-08 8.00352E-08-5.66425E-07
 -1      1610 0.00000E+00 0.00000E+00 0.00000E+00
 -1      1611 3.17168E-08 7.95274E-08-5.57444E-07
 -1      1612 0.00000E+00 0.00000E+00 0.00000E+00
 -1      1613 4.32321E-08 7.69982E-08-5.50211E-07
 -1      1614 0.00000E+00 0.00000E+00 0.00000E+00
 -1      1615 6.96548E-08 7.56136E-08-5.70015E-07
 -1      1616 0.00000E+00 0.00000E+00 0.00000E+00
 -1      1617 8.58231E-08 9.39269E-08-6.55165E-07
 -1      1618 0.00000E+00 0.00000E+00 0.00000E+00
 -1      1619 3.47466E-08 1.15753E-07-6.69177E-07
 -1      1620 0.00000E+00 0.00000E+00 0.00000E+00
 -1      1621-1.82862E-08 5.35274E-08-3.91242E-07
 -1      1622 0.00000E+00 0.00000E+00 0.00000E+00
 -1      1623 1.87284E-08-8.77858E-09-7.67492E-08
 -1      1624 0.00000E+00 0.00000E+00 0.00000E+00
 -1      1625 7.45503E-08-8.22348E-09 1.68561E-08
 -1      1626 0.00000E+00 0.00000E+00 0.00000E+00
 -1      1627-4.57486E-08 5.76121E-08-4.71359E-07
 -1      1628 0.00000E+00 0.00000E+00 0.00000E+00
 -1      1629-1.13267E-08 1.16889E-07-9.13714E-07
 -1      1630 0.00000E+00 0.00000E+00 0.00000E+00
 -1      1631-1.76563E-08 1.34990E-07-1.12729E-06
 -1      1632 0.00000E+00 0.00000E+00 0.00000E+00
 -1      1633-1.93741E-08 1.31755E-07-1.17589E-06
 -1      1634 0.00000E+00 0.00000E+00 0.00000E+00
 -1      1635-8.34411E-09 1.26390E-07-1.16597E-06
 -1      1636 0.00000E+00 0.00000E+00 0.00000E+00
 -1      1637 6.09487E-09 1.23129E-07-1.14832E-06
 -1      1638 0.00000E+00 0.00000E+00 0.00000E+00
 -1      1639 1.77374E-08 1.21494E-07-1.13823E-06
 -1      1640 0.00000E+00 0.00000E+00 0.00000E+00
 -1      1641 2.51720E-08 1.20593E-07-1.13406E-06
 -1      1642 0.00000E+00 0.00000E+00 0.00000E+00
 -1      1643 2.95079E-08 1.20046E-07-1.13282E-06
 -1      1644 0.00000E+00 0.00000E+00 0.00000E+00
 -1      1645 3.20754E-08 1.19722E-07-1.13260E-06
 -1      1646 0.00000E+00 0.00000E+00 0.00000E+00
 -1      1647 3.37906E-08 1.19552E-07-1.13270E-06
 -1      1648 0.00000E+00 0.00000E+00 0.00000E+00
 -1      1649 3.51124E-08 1.19494E-07-1.13288E-06
 -1      1650 0.00000E+00 0.00000E+00 0.00000E+00
 -1      1651 3.61060E-08 1.19538E-07-1.13275E-06
 -1      1652 0.00000E+00 0.00000E+00 0.00000E+00
 -1      1653 3.65687E-08 1.19665E-07-1.13080E-06
 -1      1654 0.00000E+00 0.00000E+00 0.00000E+00
 -1      1655 3.66228E-08 1.19605E-07-1.12402E-06
 -1      1656 0.00000E+00 0.00000E+00 0.00000E+00
 -1      1657 3.90048E-08 1.18328E-07-1.10800E-06
 -1      1658 0.00000E+00 0.00000E+00 0.00000E+00
 -1      1659 5.08312E-08 1.14819E-07-1.09049E-06
 -1      1660 0.00000E+00 0.00000E+00 0.00000E+00
 -1      1661 8.11015E-08 1.13336E-07-1.10380E-06
 -1      1662 0.00000E+00 0.00000E+00 0.00000E+00
 -1      1663 1.07039E-07 1.36663E-07-1.23964E-06
 -1      1664 0.00000E+00 0.00000E+00 0.00000E+00
 -1      1665 2.33135E-08 1.69567E-07-1.45301E-06
 -1      1666 0.00000E+00 0.00000E+00 0.00000E+00
 -1      1667-7.51752E-08 8.22876E-08-7.51947E-07
 -1      1668 0.00000E+00 0.00000E+00 0.00000E+00
 -1      1669-1.70603E-08-7.93594E-09-6.52601E-08
 -1      1670 0.00000E+00 0.00000E+00 0.00000E+00
 -1      1671 6.58119E-08-8.95035E-09 1.29989E-08
 -1      1672 0.00000E+00 0.00000E+00 0.00000E+00
 -1      1673-1.95854E-08 4.63058E-08-6.71009E-07
 -1      1674 0.00000E+00 0.00000E+00 0.00000E+00
 -1      1675 2.04464E-08 9.59265E-08-1.38340E-06
 -1      1676 0.00000E+00 0.00000E+00 0.00000E+00
 -1      1677 2.08534E-09 1.13353E-07-1.69451E-06
 -1      1678 0.00000E+00 0.00000E+00 0.00000E+00
 -1      1679-6.88712E-09 1.12001E-07-1.75881E-06
 -1      1680 0.00000E+00 0.00000E+00 0.00000E+00
 -1      1681 1.35421E-09 1.08068E-07-1.74475E-06
 -1      1682 0.00000E+00 0.00000E+00 0.00000E+00
 -1      1683 1.49107E-08 1.05606E-07-1.72075E-06
 -1      1684 0.00000E+00 0.00000E+00 0.00000E+00
 -1      1685 2.64510E-08 1.04403E-07-1.70731E-06
 -1      1686 0.00000E+00 0.00000E+00 0.00000E+00
 -1      1687 3.39477E-08 1.03779E-07-1.70177E-06
 -1      1688 0.00000E+00 0.00000E+00 0.00000E+00
 -1      1689 3.83510E-08 1.03415E-07-1.70016E-06
 -1      1690 0.00000E+00 0.00000E+00 0.00000E+00
 -1      1691 4.09459E-08 1.03204E-07-1.69993E-06
 -1      1692 0.00000E+00 0.00000E+00 0.00000E+00
 -1      1693 4.26535E-08 1.03096E-07-1.70013E-06
 -1      1694 0.00000E+00 0.00000E+00 0.00000E+00
 -1      1695 4.39293E-08 1.03063E-07-1.70043E-06
 -1      1696 0.00000E+00 0.00000E+00 0.00000E+00
 -1      1697 4.48117E-08 1.03097E-07-1.70026E-06
 -1      1698 0.00000E+00 0.00000E+00 0.00000E+00
 -1      1699 4.50647E-08 1.03169E-07-1.69763E-06
 -1      1700 0.00000E+00 0.00000E+00 0.00000E+00
 -1      1701 4.47407E-08 1.03012E-07-1.68845E-06
 -1      1702 0.00000E+00 0.00000E+00 0.00000E+00
 -1      1703 4.66783E-08 1.01823E-07-1.66588E-06
 -1      1704 0.00000E+00 0.00000E+00 0.00000E+00
 -1      1705 5.85425E-08 9.88271E-08-1.63800E-06
 -1      1706 0.00000E+00 0.00000E+00 0.00000E+00
 -1      1707 9.22237E-08 9.82536E-08-1.64643E-06
 -1      1708 0.00000E+00 0.00000E+00 0.00000E+00
 -1      1709 1.29210E-07 1.18575E-07-1.82694E-06
 -1      1710 0.00000E+00 0.00000E+00 0.00000E+00
 -1      1711 1.66390E-08 1.43737E-07-2.25584E-06
 -1      1712 0.00000E+00 0.00000E+00 0.00000E+00
 -1      1713-1.26033E-07 7.40706E-08-1.14305E-06
 -1      1714 0.00000E+00 0.00000E+00 0.00000E+00
 -1      1715-4.82237E-08-3.88295E-09-4.20356E-08
 -1      1716 0.00000E+00 0.00000E+00 0.00000E+00
 -1      1717 6.03092E-08-7.70808E-09 8.93118E-09
 -1      1718 0.00000E+00 0.00000E+00 0.00000E+00
 -1      1719-4.55614E-09 2.25967E-08-7.30117E-07
 -1      1720 0.00000E+00 0.00000E+00 0.00000E+00
 -1      1721 3.86931E-08 4.68919E-08-1.53232E-06
 -1      1722 0.00000E+00 0.00000E+00 0.00000E+00
 -1      1723 1.21603E-08 5.63930E-08-1.88853E-06
 -1      1724 0.00000E+00 0.00000E+00 0.00000E+00
 -1      1725-1.57504E-09 5.59786E-08-1.96237E-06
 -1      1726 0.00000E+00 0.00000E+00 0.00000E+00
 -1      1727 5.03523E-09 5.40058E-08-1.94795E-06
 -1      1728 0.00000E+00 0.00000E+00 0.00000E+00
 -1      1729 1.80868E-08 5.27802E-08-1.92208E-06
 -1      1730 0.00000E+00 0.00000E+00 0.00000E+00
 -1      1731 2.95691E-08 5.21874E-08-1.90747E-06
 -1      1732 0.00000E+00 0.00000E+00 0.00000E+00
 -1      1733 3.71039E-08 5.18828E-08-1.90137E-06
 -1      1734 0.00000E+00 0.00000E+00 0.00000E+00
 -1      1735 4.15484E-08 5.17047E-08-1.89958E-06
 -1      1736 0.00000E+00 0.00000E+00 0.00000E+00
 -1      1737 4.41608E-08 5.15999E-08-1.89930E-06
 -1      1738 0.00000E+00 0.00000E+00 0.00000E+00
 -1      1739 4.58642E-08 5.15455E-08-1.89952E-06
 -1      1740 0.00000E+00 0.00000E+00 0.00000E+00
 -1      1741 4.71109E-08 5.15292E-08-1.89984E-06
 -1      1742 0.00000E+00 0.00000E+00 0.00000E+00
 -1      1743 4.79275E-08 5.15474E-08-1.89961E-06
 -1      1744 0.00000E+00 0.00000E+00 0.00000E+00
 -1      1745 4.80529E-08 5.15842E-08-1.89670E-06
 -1      1746 0.00000E+00 0.00000E+00 0.00000E+00
 -1      1747 4.75122E-08 5.14973E-08-1.88647E-06
 -1      1748 0.00000E+00 0.00000E+00 0.00000E+00
 -1      1749 4.91785E-08 5.08916E-08-1.86200E-06
 -1      1750 0.00000E+00 0.00000E+00 0.00000E+00
 -1      1751 6.09948E-08 4.93298E-08-1.83058E-06
 -1      1752 0.00000E+00 0.00000E+00 0.00000E+00
 -1      1753 9.75345E-08 4.94724E-08-1.84002E-06
 -1      1754 0.00000E+00 0.00000E+00 0.00000E+00
 -1      1755 1.40690E-07 6.07196E-08-2.05202E-06
 -1      1756 0.00000E+00 0.00000E+00 0.00000E+00
 -1      1757 9.16376E-09 7.08043E-08-2.51981E-06
 -1      1758 0.00000E+00 0.00000E+00 0.00000E+00
 -1      1759-1.58961E-07 3.88990E-08-1.30654E-06
 -1      1760 0.00000E+00 0.00000E+00 0.00000E+00
 -1      1761-6.84320E-08-4.86729E-10-5.25519E-08
 -1      1762 0.00000E+00 0.00000E+00 0.00000E+00
 -1      1763 5.66725E-08-4.50218E-09 1.30441E-08
 -1      1764 0.00000E+00 0.00000E+00 0.00000E+00
 -1      1765 3.56926E-11 3.96863E-13-7.46354E-07
 -1      1766 0.00000E+00 0.00000E+00 0.00000E+00
 -1      1767 4.45711E-08-8.43020E-15-1.57562E-06
 -1      1768 0.00000E+00 0.00000E+00 0.00000E+00
 -1      1769 1.54696E-08 3.48393E-14-1.94639E-06
 -1      1770 0.00000E+00 0.00000E+00 0.00000E+00
 -1      1771 9.14808E-11 1.01434E-14-2.02360E-06
 -1      1772 0.00000E+00 0.00000E+00 0.00000E+00
 -1      1773 6.17016E-09 8.76323E-15-2.00918E-06
 -1      1774 0.00000E+00 0.00000E+00 0.00000E+00
 -1      1775 1.90515E-08 4.47958E-15-1.98277E-06
 -1      1776 0.00000E+00 0.00000E+00 0.00000E+00
 -1      1777 3.05090E-08 2.17105E-15-1.96780E-06
 -1      1778 0.00000E+00 0.00000E+00 0.00000E+00
 -1      1779 3.80543E-08 8.54320E-16-1.96152E-06
 -1      1780 0.00000E+00 0.00000E+00 0.00000E+00
 -1      1781 4.25117E-08 2.98569E-16-1.95967E-06
 -1      1782 0.00000E+00 0.00000E+00 0.00000E+00
 -1      1783 4.51301E-08 1.99934E-16-1.95939E-06
 -1      1784 0.00000E+00 0.00000E+00 0.00000E+00
 -1      1785 4.68320E-08 3.33256E-16-1.95961E-06
 -1      1786 0.00000E+00 0.00000E+00 0.00000E+00
 -1      1787 4.80690E-08 6.22312E-16-1.95993E-06
 -1      1788 0.00000E+00 0.00000E+00 0.00000E+00
 -1      1789 4.88645E-08 8.78565E-16-1.95969E-06
 -1      1790 0.00000E+00 0.00000E+00 0.00000E+00
 -1      1791 4.89473E-08 1.18320E-15-1.95667E-06
 -1      1792 0.00000E+00 0.00000E+00 0.00000E+00
 -1      1793 4.83416E-08 1.58347E-15-1.94614E-06
 -1      1794 0.00000E+00 0.00000E+00 0.00000E+00
 -1      1795 4.99160E-08 1.95167E-15-1.92108E-06
 -1      1796 0.00000E+00 0.00000E+00 0.00000E+00
 -1      1797 6.16990E-08 2.32595E-15-1.88855E-06
 -1      1798 0.00000E+00 0.00000E+00 0.00000E+00
 -1      1799 9.93856E-08 2.84419E-15-1.89890E-06
 -1      1800 0.00000E+00 0.00000E+00 0.00000E+00
 -1      1801 1.44115E-07 3.63632E-15-2.12087E-06
 -1      1802 0.00000E+00 0.00000E+00 0.00000E+00
 -1      1803 6.61356E-09 4.08275E-15-2.60047E-06
 -1      1804 0.00000E+00 0.00000E+00 0.00000E+00
 -1      1805-1.69423E-07 2.59950E-15-1.35632E-06
 -1      1806 0.00000E+00 0.00000E+00 0.00000E+00
 -1      1807-7.53055E-08 9.72712E-16-5.76480E-08
 -1      1808 0.00000E+00 0.00000E+00 0.00000E+00
 -1      1809 5.53082E-08 2.05685E-16 1.46160E-08
 -1      1810 0.00000E+00 0.00000E+00 0.00000E+00
 -1      1811-4.55656E-09-2.25961E-08-7.30113E-07
 -1      1812 0.00000E+00 0.00000E+00 0.00000E+00
 -1      1813 3.86932E-08-4.68918E-08-1.53232E-06
 -1      1814 0.00000E+00 0.00000E+00 0.00000E+00
 -1      1815 1.21603E-08-5.63929E-08-1.88853E-06
 -1      1816 0.00000E+00 0.00000E+00 0.00000E+00
 -1      1817-1.57503E-09-5.59785E-08-1.96237E-06
 -1      1818 0.00000E+00 0.00000E+00 0.00000E+00
 -1      1819 5.03522E-09-5.40057E-08-1.94795E-06
 -1      1820 0.00000E+00 0.00000E+00 0.00000E+00
 -1      1821 1.80868E-08-5.27802E-08-1.92208E-06
 -1      1822 0.00000E+00 0.00000E+00 0.00000E+00
 -1      1823 2.95691E-08-5.21874E-08-1.90747E-06
 -1      1824 0.00000E+00 0.00000E+00 0.00000E+00
 -1      1825 3.71039E-08-5.18828E-08-1.90137E-06
 -1      1826 0.00000E+00 0.00000E+00 0.00000E+00
 -1      1827 4.15484E-08-5.17047E-08-1.89958E-06
 -1      1828 0.00000E+00 0.00000E+00 0.00000E+00
 -1      1829 4.41608E-08-5.15999E-08-1.89930E-06
 -1      1830 0.00000E+00 0.00000E+00 0.00000E+00
 -1      1831 4.58642E-08-5.15455E-08-1.89952E-06
 -1      1832 0.00000E+00 0.00000E+00 0.00000E+00
 -1      1833 4.71109E-08-5.15292E-08-1.89984E-06
 -1      1834 0.00000E+00 0.00000E+00 0.00000E+00
 -1      1835 4.79275E-08-5.15474E-08-1.89961E-06
 -1      1836 0.00000E+00 0.00000E+00 0.00000E+00
 -1      1837 4.80529E-08-5.15842E-08-1.89670E-06
 -1      1838 0.00000E+00 0.00000E+00 0.00000E+00
 -1      1839 4.75122E-08-5.14973E-08-1.88647E-06
 -1      1840 0.00000E+00 0.00000E+00 0.00000E+00
 -1      1841 4.91785E-08-5.08916E-08-1.86200E-06
 -1      1842 0.00000E+00 0.00000E+00 0.00000E+00
 -1      1843 6.09948E-08-4.93298E-08-1.83058E-06
 -1      1844 0.00000E+00 0.00000E+00 0.00000E+00
 -1      1845 9.75345E-08-4.94724E-08-1.84002E-06
 -1      1846 0.00000E+00 0.00000E+00 0.00000E+00
 -1      1847 1.40690E-07-6.07196E-08-2.05202E-06
 -1      1848 0.00000E+00 0.00000E+00 0.00000E+00
 -1      1849 9.16376E-09-7.08043E-08-2.51981E-06
 -1      1850 0.00000E+00 0.00000E+00 0.00000E+00
 -1      1851-1.58961E-07-3.88990E-08-1.30654E-06
 -1      1852 0.00000E+00 0.00000E+00 0.00000E+00
 -1      1853-6.84320E-08 4.86731E-10-5.25519E-08
 -1      1854 0.00000E+00 0.00000E+00 0.00000E+00
 -1      1855 5.66725E-08 4.50218E-09 1.30441E-08
 -1      1856 0.00000E+00 0.00000E+00 0.00000E+00
 -1      1857-1.95865E-08-4.63055E-08-6.71009E-07
 -1      1858 0.00000E+00 0.00000E+00 0.00000E+00
 -1      1859 2.04464E-08-9.59264E-08-1.38340E-06
 -1      1860 0.00000E+00 0.00000E+00 0.00000E+00
 -1      1861 2.08529E-09-1.13353E-07-1.69451E-06
 -1      1862 0.00000E+00 0.00000E+00 0.00000E+00
 -1      1863-6.88713E-09-1.12001E-07-1.75881E-06
 -1      1864 0.00000E+00 0.00000E+00 0.00000E+00
 -1      1865 1.35420E-09-1.08068E-07-1.74475E-06
 -1      1866 0.00000E+00 0.00000E+00 0.00000E+00
 -1      1867 1.49107E-08-1.05606E-07-1.72075E-06
 -1      1868 0.00000E+00 0.00000E+00 0.00000E+00
 -1      1869 2.64510E-08-1.04403E-07-1.70731E-06
 -1      1870 0.00000E+00 0.00000E+00 0.00000E+00
 -1      1871 3.39477E-08-1.03779E-07-1.70177E-06
 -1      1872 0.00000E+00 0.00000E+00 0.00000E+00
 -1      1873 3.83510E-08-1.03415E-07-1.70016E-06
 -1      1874 0.00000E+00 0.00000E+00 0.00000E+00
 -1      1875 4.09459E-08-1.03204E-07-1.69993E-06
 -1      1876 0.00000E+00 0.00000E+00 0.00000E+00
 -1      1877 4.26535E-08-1.03095E-07-1.70013E-06
 -1      1878 0.00000E+00 0.00000E+00 0.00000E+00
 -1      1879 4.39293E-08-1.03063E-07-1.70043E-06
 -1      1880 0.00000E+00 0.00000E+00 0.00000E+00
 -1      1881 4.48117E-08-1.03097E-07-1.70026E-06
 -1      1882 0.00000E+00 0.00000E+00 0.00000E+00
 -1      1883 4.50647E-08-1.03169E-07-1.69763E-06
 -1      1884 0.00000E+00 0.00000E+00 0.00000E+00
 -1      1885 4.47407E-08-1.03012E-07-1.68845E-06
 -1      1886 0.00000E+00 0.00000E+00 0.00000E+00
 -1      1887 4.66783E-08-1.01823E-07-1.66588E-06
 -1      1888 0.00000E+00 0.00000E+00 0.00000E+00
 -1      1889 5.85425E-08-9.88271E-08-1.63800E-06
 -1      1890 0.00000E+00 0.00000E+00 0.00000E+00
 -1      1891 9.22237E-08-9.82536E-08-1.64643E-06
 -1      1892 0.00000E+00 0.00000E+00 0.00000E+00
 -1      1893 1.29210E-07-1.18575E-07-1.82694E-06
 -1      1894 0.00000E+00 0.00000E+00 0.00000E+00
 -1      1895 1.66390E-08-1.43737E-07-2.25584E-06
 -1      1896 0.00000E+00 0.00000E+00 0.00000E+00
 -1      1897-1.26033E-07-7.40706E-08-1.14305E-06
 -1      1898 0.00000E+00 0.00000E+00 0.00000E+00
 -1      1899-4.82237E-08 3.88295E-09-4.20356E-08
 -1      1900 0.00000E+00 0.00000E+00 0.00000E+00
 -1      1901 6.03092E-08 7.70808E-09 8.93118E-09
 -1      1902 0.00000E+00 0.00000E+00 0.00000E+00
 -1      1903-4.57496E-08-5.76122E-08-4.71359E-07
 -1      1904 0.00000E+00 0.00000E+00 0.00000E+00
 -1      1905-1.13269E-08-1.16889E-07-9.13714E-07
 -1      1906 0.00000E+00 0.00000E+00 0.00000E+00
 -1      1907-1.76563E-08-1.34990E-07-1.12729E-06
 -1      1908 0.00000E+00 0.00000E+00 0.00000E+00
 -1      1909-1.93742E-08-1.31755E-07-1.17589E-06
 -1      1910 0.00000E+00 0.00000E+00 0.00000E+00
 -1      1911-8.34411E-09-1.26390E-07-1.16597E-06
 -1      1912 0.00000E+00 0.00000E+00 0.00000E+00
 -1      1913 6.09486E-09-1.23129E-07-1.14832E-06
 -1      1914 0.00000E+00 0.00000E+00 0.00000E+00
 -1      1915 1.77374E-08-1.21494E-07-1.13823E-06
 -1      1916 0.00000E+00 0.00000E+00 0.00000E+00
 -1      1917 2.51720E-08-1.20593E-07-1.13406E-06
 -1      1918 0.00000E+00 0.00000E+00 0.00000E+00
 -1      1919 2.95079E-08-1.20046E-07-1.13282E-06
 -1      1920 0.00000E+00 0.00000E+00 0.00000E+00
 -1      1921 3.20754E-08-1.19722E-07-1.13260E-06
 -1      1922 0.00000E+00 0.00000E+00 0.00000E+00
 -1      1923 3.37906E-08-1.19552E-07-1.13270E-06
 -1      1924 0.00000E+00 0.00000E+00 0.00000E+00
 -1      1925 3.51124E-08-1.19494E-07-1.13288E-06
 -1      1926 0.00000E+00 0.00000E+00 0.00000E+00
 -1      1927 3.61060E-08-1.19538E-07-1.13275E-06
 -1      1928 0.00000E+00 0.00000E+00 0.00000E+00
 -1      1929 3.65687E-08-1.19665E-07-1.13080E-06
 -1      1930 0.00000E+00 0.00000E+00 0.00000E+00
 -1      1931 3.66228E-08-1.19605E-07-1.12402E-06
 -1      1932 0.00000E+00 0.00000E+00 0.00000E+00
 -1      1933 3.90048E-08-1.18328E-07-1.10800E-06
 -1      1934 0.00000E+00 0.00000E+00 0.00000E+00
 -1      1935 5.08312E-08-1.14819E-07-1.09049E-06
 -1      1936 0.00000E+00 0.00000E+00 0.00000E+00
 -1      1937 8.11015E-08-1.13336E-07-1.10380E-06
 -1      1938 0.00000E+00 0.00000E+00 0.00000E+00
 -1      1939 1.07039E-07-1.36663E-07-1.23964E-06
 -1      1940 0.00000E+00 0.00000E+00 0.00000E+00
 -1      1941 2.33135E-08-1.69567E-07-1.45301E-06
 -1      1942 0.00000E+00 0.00000E+00 0.00000E+00
 -1      1943-7.51752E-08-8.22876E-08-7.51947E-07
 -1      1944 0.00000E+00 0.00000E+00 0.00000E+00
 -1      1945-1.70603E-08 7.93594E-09-6.52601E-08
 -1      1946 0.00000E+00 0.00000E+00 0.00000E+00
 -1      1947 6.58119E-08 8.95036E-09 1.29989E-08
 -1      1948 0.00000E+00 0.00000E+00 0.00000E+00
 -1      1949-7.55560E-08-4.71838E-08-2.61904E-07
 -1      1950 0.00000E+00 0.00000E+00 0.00000E+00
 -1      1951-4.65697E-08-8.94812E-08-4.47507E-07
 -1      1952 0.00000E+00 0.00000E+00 0.00000E+00
 -1      1953-3.99120E-08-9.87763E-08-5.66837E-07
 -1      1954 0.00000E+00 0.00000E+00 0.00000E+00
 -1      1955-3.29041E-08-9.29325E-08-5.98035E-07
 -1      1956 0.00000E+00 0.00000E+00 0.00000E+00
 -1      1957-1.81562E-08-8.71329E-08-5.92418E-07
 -1      1958 0.00000E+00 0.00000E+00 0.00000E+00
 -1      1959-2.49949E-09-8.38582E-08-5.81548E-07
 -1      1960 0.00000E+00 0.00000E+00 0.00000E+00
 -1      1961 9.30214E-09-8.20870E-08-5.74999E-07
 -1      1962 0.00000E+00 0.00000E+00 0.00000E+00
 -1      1963 1.66614E-08-8.09873E-08-5.72395E-07
 -1      1964 0.00000E+00 0.00000E+00 0.00000E+00
 -1      1965 2.09190E-08-8.02667E-08-5.71659E-07
 -1      1966 0.00000E+00 0.00000E+00 0.00000E+00
 -1      1967 2.34608E-08-7.98256E-08-5.71569E-07
 -1      1968 0.00000E+00 0.00000E+00 0.00000E+00
 -1      1969 2.51930E-08-7.95886E-08-5.71673E-07
 -1      1970 0.00000E+00 0.00000E+00 0.00000E+00
 -1      1971 2.65794E-08-7.94975E-08-5.71851E-07
 -1      1972 0.00000E+00 0.00000E+00 0.00000E+00
 -1      1973 2.77228E-08-7.95427E-08-5.71844E-07
 -1      1974 0.00000E+00 0.00000E+00 0.00000E+00
 -1      1975 2.84574E-08-7.97624E-08-5.70727E-07
 -1      1976 0.00000E+00 0.00000E+00 0.00000E+00
 -1      1977 2.89550E-08-8.00352E-08-5.66425E-07
 -1      1978 0.00000E+00 0.00000E+00 0.00000E+00
 -1      1979 3.17168E-08-7.95274E-08-5.57444E-07
 -1      1980 0.00000E+00 0.00000E+00 0.00000E+00
 -1      1981 4.32321E-08-7.69982E-08-5.50211E-07
 -1      1982 0.00000E+00 0.00000E+00 0.00000E+00
 -1      1983 6.96548E-08-7.56136E-08-5.70015E-07
 -1      1984 0.00000E+00 0.00000E+00 0.00000E+00
 -1      1985 8.58231E-08-9.39269E-08-6.55165E-07
 -1      1986 0.00000E+00 0.00000E+00 0.00000E+00
 -1      1987 3.47466E-08-1.15753E-07-6.69177E-07
 -1      1988 0.00000E+00 0.00000E+00 0.00000E+00
 -1      1989-1.82862E-08-5.35273E-08-3.91242E-07
 -1      1990 0.00000E+00 0.00000E+00 0.00000E+00
 -1      1991 1.87284E-08 8.77858E-09-7.67492E-08
 -1      1992 0.00000E+00 0.00000E+00 0.00000E+00
 -1      1993 7.45503E-08 8.22348E-09 1.68561E-08
 -1      1994 0.00000E+00 0.00000E+00 0.00000E+00
 -1      1995-1.01316E-07-3.21022E-08-1.57024E-07
 -1      1996 0.00000E+00 0.00000E+00 0.00000E+00
 -1      1997-7.60763E-08-5.30669E-08-2.53989E-07
 -1      1998 0.00000E+00 0.00000E+00 0.00000E+00
 -1      1999-5.78786E-08-5.27117E-08-3.23914E-07
 -1      2000 0.00000E+00 0.00000E+00 0.00000E+00
 -1      2001-4.17544E-08-4.48733E-08-3.43295E-07
 -1      2002 0.00000E+00 0.00000E+00 0.00000E+00
 -1      2003-2.28283E-08-3.92418E-08-3.37682E-07
 -1      2004 0.00000E+00 0.00000E+00 0.00000E+00
 -1      2005-5.78658E-09-3.61449E-08-3.29145E-07
 -1      2006 0.00000E+00 0.00000E+00 0.00000E+00
 -1      2007 6.20776E-09-3.42271E-08-3.24292E-07
 -1      2008 0.00000E+00 0.00000E+00 0.00000E+00
 -1      2009 1.34894E-08-3.28938E-08-3.22535E-07
 -1      2010 0.00000E+00 0.00000E+00 0.00000E+00
 -1      2011 1.76821E-08-3.19845E-08-3.22150E-07
 -1      2012 0.00000E+00 0.00000E+00 0.00000E+00
 -1      2013 2.02145E-08-3.14274E-08-3.22175E-07
 -1      2014 0.00000E+00 0.00000E+00 0.00000E+00
 -1      2015 2.19779E-08-3.11295E-08-3.22305E-07
 -1      2016 0.00000E+00 0.00000E+00 0.00000E+00
 -1      2017 2.34421E-08-3.10091E-08-3.22499E-07
 -1      2018 0.00000E+00 0.00000E+00 0.00000E+00
 -1      2019 2.47539E-08-3.10482E-08-3.22608E-07
 -1      2020 0.00000E+00 0.00000E+00 0.00000E+00
 -1      2021 2.57961E-08-3.13345E-08-3.21926E-07
 -1      2022 0.00000E+00 0.00000E+00 0.00000E+00
 -1      2023 2.67130E-08-3.19404E-08-3.18870E-07
 -1      2024 0.00000E+00 0.00000E+00 0.00000E+00
 -1      2025 2.96060E-08-3.24574E-08-3.12552E-07
 -1      2026 0.00000E+00 0.00000E+00 0.00000E+00
 -1      2027 4.03902E-08-3.15806E-08-3.08789E-07
 -1      2028 0.00000E+00 0.00000E+00 0.00000E+00
 -1      2029 6.25487E-08-3.09540E-08-3.28482E-07
 -1      2030 0.00000E+00 0.00000E+00 0.00000E+00
 -1      2031 7.54077E-08-4.14208E-08-3.81832E-07
 -1      2032 0.00000E+00 0.00000E+00 0.00000E+00
 -1      2033 5.38763E-08-4.83031E-08-3.76575E-07
 -1      2034 0.00000E+00 0.00000E+00 0.00000E+00
 -1      2035 3.22947E-08-2.07712E-08-2.24434E-07
 -1      2036 0.00000E+00 0.00000E+00 0.00000E+00
 -1      2037 5.29813E-08 7.08878E-09-4.67900E-08
 -1      2038 0.00000E+00 0.00000E+00 0.00000E+00
 -1      2039 8.63404E-08 6.00195E-09 1.68759E-08
 -1      2040-8.07507E-08-8.84463E-08-3.73536E-08
 -1      2041-7.26427E-08-1.52344E-07-6.97318E-08
 -1      2042-4.66997E-08-1.97855E-07-8.86704E-08
 -1      2043-2.20921E-08-2.17416E-07-9.63776E-08
 -1      2044-7.15925E-09-2.22255E-07-9.73001E-08
 -1      2045-4.14526E-10-2.21970E-07-9.65254E-08
 -1      2046 2.20001E-09-2.21015E-07-9.59661E-08
 -1      2047 3.32690E-09-2.20511E-07-9.58240E-08
 -1      2048 4.00473E-09-2.20392E-07-9.58754E-08
 -1      2049 4.52157E-09-2.20432E-07-9.59615E-08
 -1      2050 4.96664E-09-2.20494E-07-9.60290E-08
 -1      2051 5.44643E-09-2.20496E-07-9.60661E-08
 -1      2052 6.14031E-09-2.20305E-07-9.60263E-08
 -1      2053 7.21777E-09-2.19630E-07-9.57411E-08
 -1      2054 8.44154E-09-2.18091E-07-9.48896E-08
 -1      2055 8.45223E-09-2.15893E-07-9.33729E-08
 -1      2056 5.44526E-09-2.15286E-07-9.26486E-08
 -1      2057 3.16079E-09-2.21175E-07-9.65366E-08
 -1      2058 1.80144E-08-2.33624E-07-1.05528E-07
 -1      2059 6.02113E-08-2.22515E-07-1.02700E-07
 -1      2060 9.39289E-08-1.44703E-07-6.39760E-08
 -1      2061 8.23778E-08-5.51636E-08-1.98749E-08
 -1      2062 4.87176E-08-1.23773E-08 5.03955E-10
 -1      2063-8.50548E-08-8.20002E-08-4.86583E-08
 -1      2064-7.46689E-08-1.43683E-07-9.23813E-08
 -1      2065-4.60432E-08-1.86581E-07-1.17370E-07
 -1      2066-2.08248E-08-2.04668E-07-1.26577E-07
 -1      2067-6.16188E-09-2.08856E-07-1.27285E-07
 -1      2068 1.83458E-10-2.08372E-07-1.26070E-07
 -1      2069 2.58256E-09-2.07349E-07-1.25229E-07
 -1      2070 3.62766E-09-2.06800E-07-1.24950E-07
 -1      2071 4.27604E-09-2.06640E-07-1.24942E-07
 -1      2072 4.77665E-09-2.06648E-07-1.25004E-07
 -1      2073 5.20600E-09-2.06691E-07-1.25064E-07
 -1      2074 5.66549E-09-2.06690E-07-1.25100E-07
 -1      2075 6.33447E-09-2.06521E-07-1.25055E-07
 -1      2076 7.40399E-09-2.05913E-07-1.24728E-07
 -1      2077 8.70615E-09-2.04510E-07-1.23727E-07
 -1      2078 8.89796E-09-2.02463E-07-1.21851E-07
 -1      2079 5.76457E-09-2.01853E-07-1.20712E-07
 -1      2080 2.19288E-09-2.07407E-07-1.25290E-07
 -1      2081 1.56284E-08-2.19713E-07-1.37866E-07
 -1      2082 6.08996E-08-2.10663E-07-1.36738E-07
 -1      2083 9.81313E-08-1.36232E-07-8.38164E-08
 -1      2084 8.39258E-08-5.06435E-08-2.38130E-08
 -1      2085 4.68395E-08-1.11382E-08 5.35112E-10
 -1      2086-9.59134E-08-7.09149E-08-6.49672E-08
 -1      2087-8.26807E-08-1.26182E-07-1.24642E-07
 -1      2088-4.88818E-08-1.63774E-07-1.58508E-07
 -1      2089-2.05796E-08-1.79446E-07-1.70294E-07
 -1      2090-5.19141E-09-1.82961E-07-1.70987E-07
 -1      2091 9.89350E-10-1.82436E-07-1.69292E-07
 -1      2092 3.14113E-09-1.81485E-07-1.68118E-07
 -1      2093 4.04755E-09-1.80967E-07-1.67681E-07
 -1      2094 4.63594E-09-1.80802E-07-1.67612E-07
 -1      2095 5.11116E-09-1.80794E-07-1.67656E-07
 -1      2096 5.52605E-09-1.80825E-07-1.67714E-07
 -1      2097 5.97619E-09-1.80822E-07-1.67751E-07
 -1      2098 6.65311E-09-1.80678E-07-1.67691E-07
 -1      2099 7.78814E-09-1.80161E-07-1.67289E-07
 -1      2100 9.27286E-09-1.78957E-07-1.66052E-07
 -1      2101 9.64891E-09-1.77181E-07-1.63653E-07
 -1      2102 5.90437E-09-1.76636E-07-1.61957E-07
 -1      2103-1.77330E-11-1.81459E-07-1.67517E-07
 -1      2104 1.28077E-08-1.92555E-07-1.84895E-07
 -1      2105 6.65061E-08-1.85655E-07-1.85614E-07
 -1      2106 1.11945E-07-1.19621E-07-1.12862E-07
 -1      2107 9.28865E-08-4.36668E-08-3.04601E-08
 -1      2108 4.77525E-08-9.44680E-09 2.78583E-10
 -1      2109-1.07815E-07-5.26436E-08-8.06971E-08
 -1      2110-9.18483E-08-9.47278E-08-1.55931E-07
 -1      2111-5.26741E-08-1.22937E-07-1.98512E-07
 -1      2112-2.08216E-08-1.34596E-07-2.12900E-07
 -1      2113-4.37814E-09-1.37167E-07-2.13640E-07
 -1      2114 1.76252E-09-1.36735E-07-2.11513E-07
 -1      2115 3.69796E-09-1.36000E-07-2.10036E-07
 -1      2116 4.46500E-09-1.35597E-07-2.09456E-07
 -1      2117 4.99049E-09-1.35463E-07-2.09336E-07
 -1      2118 5.44052E-09-1.35451E-07-2.09367E-07
 -1      2119 5.84383E-09-1.35471E-07-2.09425E-07
 -1      2120 6.29083E-09-1.35469E-07-2.09464E-07
 -1      2121 6.98822E-09-1.35363E-07-2.09390E-07
 -1      2122 8.20797E-09-1.34983E-07-2.08911E-07
 -1      2123 9.88750E-09-1.34092E-07-2.07438E-07
 -1      2124 1.04148E-08-1.32772E-07-2.04530E-07
 -1      2125 5.93995E-09-1.32357E-07-2.02294E-07
 -1      2126-2.34999E-09-1.35936E-07-2.08813E-07
 -1      2127 1.03446E-08-1.44433E-07-2.30861E-07
 -1      2128 7.32053E-08-1.39849E-07-2.33382E-07
 -1      2129 1.27359E-07-8.99087E-08-1.41398E-07
 -1      2130 1.03438E-07-3.23816E-08-3.70947E-08
 -1      2131 4.97470E-08-6.91103E-09 3.58996E-11
 -1      2132-1.16661E-07-2.81089E-08-9.16968E-08
 -1      2133-9.87488E-08-5.09171E-08-1.77974E-07
 -1      2134-5.56580E-08-6.60882E-08-2.26748E-07
 -1      2135-2.11363E-08-7.23235E-08-2.42989E-07
 -1      2136-3.83935E-09-7.36872E-08-2.43771E-07
 -1      2137 2.31136E-09-7.34457E-08-2.41345E-07
 -1      2138 4.10088E-09-7.30450E-08-2.39658E-07
 -1      2139 4.76830E-09-7.28247E-08-2.38981E-07
 -1      2140 5.24785E-09-7.27503E-08-2.38827E-07
 -1      2141 5.67988E-09-7.27422E-08-2.38850E-07
 -1      2142 6.07573E-09-7.27521E-08-2.38910E-07
 -1      2143 6.52232E-09-7.27509E-08-2.38950E-07
 -1      2144 7.23799E-09-7.26948E-08-2.38866E-07
 -1      2145 8.52376E-09-7.24924E-08-2.38333E-07
 -1      2146 1.03461E-08-7.20178E-08-2.36694E-07
 -1      2147 1.09697E-08-7.13127E-08-2.33424E-07
 -1      2148 5.93565E-09-7.10872E-08-2.30804E-07
 -1      2149-4.04560E-09-7.29970E-08-2.38003E-07
 -1      2150 8.69041E-09-7.76249E-08-2.63393E-07
 -1      2151 7.83012E-08-7.53584E-08-2.67268E-07
 -1      2152 1.38840E-07-4.83950E-08-1.61687E-07
 -1      2153 1.11453E-07-1.72866E-08-4.17798E-08
 -1      2154 5.14984E-08-3.65644E-09-9.86797E-11
 -1      2155-1.19898E-07-5.60444E-14-9.56267E-08
 -1      2156-1.01285E-07 8.38727E-16-1.85881E-07
 -1      2157-5.67712E-08 6.46798E-15-2.36888E-07
 -1      2158-2.12698E-08 4.25644E-15-2.53797E-07
 -1      2159-3.65108E-09 2.14153E-15-2.54595E-07
 -1      2160 2.50903E-09 9.11746E-16-2.52062E-07
 -1      2161 4.24727E-09 2.43147E-16-2.50301E-07
 -1      2162 4.87882E-09-1.44872E-16-2.49589E-07
 -1      2163 5.34168E-09-3.59694E-16-2.49424E-07
 -1      2164 5.76721E-09-4.81206E-16-2.49445E-07
 -1      2165 6.16049E-09-5.51686E-16-2.49505E-07
 -1      2166 6.60719E-09-5.99299E-16-2.49546E-07
 -1      2167 7.32996E-09-6.15832E-16-2.49458E-07
 -1      2168 8.64029E-09-6.28848E-16-2.48905E-07
 -1      2169 1.05145E-08-6.39150E-16-2.47206E-07
 -1      2170 1.11708E-08-6.37249E-16-2.43808E-07
 -1      2171 5.92995E-09-6.27432E-16-2.41049E-07
 -1      2172-4.65971E-09-6.43105E-16-2.48494E-07
 -1      2173 8.10982E-09-7.05557E-16-2.75092E-07
 -1      2174 8.01784E-08-7.14563E-16-2.79471E-07
 -1      2175 1.43040E-07-4.32660E-16-1.69003E-07
 -1      2176 1.14408E-07-1.07543E-16-4.34634E-08
 -1      2177 5.21765E-08-1.44157E-17-1.40624E-10
 -1      2178-1.16661E-07 2.81088E-08-9.16968E-08
 -1      2179-9.87488E-08 5.09171E-08-1.77974E-07
 -1      2180-5.56580E-08 6.60882E-08-2.26748E-07
 -1      2181-2.11363E-08 7.23235E-08-2.42989E-07
 -1      2182-3.83936E-09 7.36872E-08-2.43771E-07
 -1      2183 2.31136E-09 7.34457E-08-2.41345E-07
 -1      2184 4.10088E-09 7.30450E-08-2.39658E-07
 -1      2185 4.76830E-09 7.28247E-08-2.38981E-07
 -1      2186 5.24785E-09 7.27503E-08-2.38827E-07
 -1      2187 5.67988E-09 7.27422E-08-2.38850E-07
 -1      2188 6.07573E-09 7.27521E-08-2.38910E-07
 -1      2189 6.52232E-09 7.27509E-08-2.38950E-07
 -1      2190 7.23799E-09 7.26948E-08-2.38866E-07
 -1      2191 8.52376E-09 7.24924E-08-2.38333E-07
 -1      2192 1.03461E-08 7.20178E-08-2.36694E-07
 -1      2193 1.09697E-08 7.13127E-08-2.33424E-07
 -1      2194 5.93565E-09 7.10872E-08-2.30804E-07
 -1      2195-4.04560E-09 7.29970E-08-2.38003E-07
 -1      2196 8.69041E-09 7.76249E-08-2.63393E-07
 -1      2197 7.83012E-08 7.53584E-08-2.67268E-07
 -1      2198 1.38840E-07 4.83950E-08-1.61687E-07
 -1      2199 1.11453E-07 1.72866E-08-4.17798E-08
 -1      2200 5.14984E-08 3.65644E-09-9.86797E-11
 -1      2201-1.07815E-07 5.26435E-08-8.06972E-08
 -1      2202-9.18483E-08 9.47278E-08-1.55931E-07
 -1      2203-5.26741E-08 1.22937E-07-1.98512E-07
 -1      2204-2.08216E-08 1.34596E-07-2.12900E-07
 -1      2205-4.37814E-09 1.37167E-07-2.13640E-07
 -1      2206 1.76252E-09 1.36735E-07-2.11513E-07
 -1      2207 3.69796E-09 1.36000E-07-2.10036E-07
 -1      2208 4.46500E-09 1.35597E-07-2.09456E-07
 -1      2209 4.99049E-09 1.35463E-07-2.09336E-07
 -1      2210 5.44052E-09 1.35451E-07-2.09367E-07
 -1      2211 5.84383E-09 1.35471E-07-2.09425E-07
 -1      2212 6.29083E-09 1.35469E-07-2.09464E-07
 -1      2213 6.98822E-09 1.35363E-07-2.09390E-07
 -1      2214 8.20797E-09 1.34983E-07-2.08911E-07
 -1      2215 9.88750E-09 1.34092E-07-2.07438E-07
 -1      2216 1.04148E-08 1.32772E-07-2.04530E-07
 -1      2217 5.93995E-09 1.32357E-07-2.02294E-07
 -1      2218-2.34999E-09 1.35936E-07-2.08813E-07
 -1      2219 1.03446E-08 1.44433E-07-2.30861E-07
 -1      2220 7.32053E-08 1.39849E-07-2.33382E-07
 -1      2221 1.27359E-07 8.99087E-08-1.41398E-07
 -1      2222 1.03438E-07 3.23816E-08-3.70947E-08
 -1      2223 4.97470E-08 6.91103E-09 3.58996E-11
 -1      2224-9.59133E-08 7.09149E-08-6.49672E-08
 -1      2225-8.26807E-08 1.26182E-07-1.24642E-07
 -1      2226-4.88818E-08 1.63774E-07-1.58508E-07
 -1      2227-2.05796E-08 1.79446E-07-1.70294E-07
 -1      2228-5.19141E-09 1.82961E-07-1.70987E-07
 -1      2229 9.89349E-10 1.82436E-07-1.69292E-07
 -1      2230 3.14113E-09 1.81485E-07-1.68118E-07
 -1      2231 4.04755E-09 1.80967E-07-1.67681E-07
 -1      2232 4.63594E-09 1.80802E-07-1.67612E-07
 -1      2233 5.11116E-09 1.80794E-07-1.67656E-07
 -1      2234 5.52605E-09 1.80825E-07-1.67714E-07
 -1      2235 5.97619E-09 1.80822E-07-1.67751E-07
 -1      2236 6.65311E-09 1.80678E-07-1.67691E-07
 -1      2237 7.78814E-09 1.80161E-07-1.67289E-07
 -1      2238 9.27286E-09 1.78957E-07-1.66052E-07
 -1      2239 9.64890E-09 1.77181E-07-1.63653E-07
 -1      2240 5.90437E-09 1.76636E-07-1.61957E-07
 -1      2241-1.77332E-11 1.81459E-07-1.67517E-07
 -1      2242 1.28077E-08 1.92555E-07-1.84895E-07
 -1      2243 6.65061E-08 1.85655E-07-1.85614E-07
 -1      2244 1.11945E-07 1.19621E-07-1.12862E-07
 -1      2245 9.28865E-08 4.36668E-08-3.04601E-08
 -1      2246 4.77525E-08 9.44680E-09 2.78583E-10
 -1      2247-8.50548E-08 8.20002E-08-4.86584E-08
 -1      2248-7.46689E-08 1.43683E-07-9.23813E-08
 -1      2249-4.60432E-08 1.86581E-07-1.17370E-07
 -1      2250-2.08248E-08 2.04668E-07-1.26577E-07
 -1      2251-6.16189E-09 2.08856E-07-1.27285E-07
 -1      2252 1.83456E-10 2.08372E-07-1.26071E-07
 -1      2253 2.58256E-09 2.07349E-07-1.25229E-07
 -1      2254 3.62766E-09 2.06800E-07-1.24950E-07
 -1      2255 4.27604E-09 2.06640E-07-1.24942E-07
 -1      2256 4.77665E-09 2.06648E-07-1.25004E-07
 -1      2257 5.20600E-09 2.06691E-07-1.25064E-07
 -1      2258 5.66549E-09 2.06690E-07-1.25100E-07
 -1      2259 6.33447E-09 2.06521E-07-1.25055E-07
 -1      2260 7.40399E-09 2.05913E-07-1.24728E-07
 -1      2261 8.70615E-09 2.04510E-07-1.23727E-07
 -1      2262 8.89796E-09 2.02463E-07-1.21851E-07
 -1      2263 5.76457E-09 2.01853E-07-1.20712E-07
 -1      2264 2.19288E-09 2.07407E-07-1.25290E-07
 -1      2265 1.56284E-08 2.19713E-07-1.37866E-07
 -1      2266 6.08996E-08 2.10663E-07-1.36738E-07
 -1      2267 9.81313E-08 1.36232E-07-8.38164E-08
 -1      2268 8.39258E-08 5.06435E-08-2.38130E-08
 -1      2269 4.68395E-08 1.11382E-08 5.35112E-10
 -1      2270-8.07506E-08 8.84463E-08-3.73537E-08
 -1      2271-7.26427E-08 1.52344E-07-6.97318E-08
 -1      2272-4.66998E-08 1.97855E-07-8.86704E-08
 -1      2273-2.20922E-08 2.17416E-07-9.63776E-08
 -1      2274-7.15926E-09 2.22255E-07-9.73001E-08
 -1      2275-4.14528E-10 2.21970E-07-9.65254E-08
 -1      2276 2.20001E-09 2.21015E-07-9.59661E-08
 -1      2277 3.32690E-09 2.20511E-07-9.58240E-08
 -1      2278 4.00473E-09 2.20392E-07-9.58754E-08
 -1      2279 4.52157E-09 2.20432E-07-9.59615E-08
 -1      2280 4.96663E-09 2.20494E-07-9.60290E-08
 -1      2281 5.44643E-09 2.20496E-07-9.60661E-08
 -1      2282 6.14031E-09 2.20305E-07-9.60263E-08
 -1      2283 7.21777E-09 2.19630E-07-9.57411E-08
 -1      2284 8.44154E-09 2.18091E-07-9.48896E-08
 -1      2285 8.45223E-09 2.15893E-07-9.33729E-08
 -1      2286 5.44526E-09 2.15286E-07-9.26486E-08
 -1      2287 3.16079E-09 2.21175E-07-9.65366E-08
 -1      2288 1.80144E-08 2.33624E-07-1.05528E-07
 -1      2289 6.02113E-08 2.22515E-07-1.02700E-07
 -1      2290 9.39289E-08 1.44703E-07-6.39760E-08
 -1      2291 8.23778E-08 5.51636E-08-1.98749E-08
 -1      2292 4.87176E-08 1.23773E-08 5.03955E-10
 -1      2293-1.41099E-07-1.52153E-07-8.32497E-08
 -1      2294-1.18129E-07-2.62546E-07-1.44867E-07
 -1      2295-7.71766E-08-3.41678E-07-1.86090E-07
 -1      2296-3.74221E-08-3.75652E-07-2.00417E-07
 -1      2297-1.27836E-08-3.84301E-07-2.00797E-07
 -1      2298-9.82944E-10-3.84040E-07-1.98248E-07
 -1      2299 4.08277E-09-3.82544E-07-1.96722E-07
 -1      2300 6.48093E-09-3.81769E-07-1.96315E-07
 -1      2301 7.92142E-09-3.81622E-07-1.96388E-07
 -1      2302 8.95990E-09-3.81722E-07-1.96550E-07
 -1      2303 9.81127E-09-3.81845E-07-1.96686E-07
 -1      2304 1.06825E-08-3.81855E-07-1.96780E-07
 -1      2305 1.18664E-08-3.81519E-07-1.96748E-07
 -1      2306 1.36281E-08-3.80342E-07-1.96222E-07
 -1      2307 1.56530E-08-3.77674E-07-1.94427E-07
 -1      2308 1.60717E-08-3.73842E-07-1.90952E-07
 -1      2309 1.23818E-08-3.72603E-07-1.88980E-07
 -1      2310 1.01541E-08-3.82162E-07-1.98065E-07
 -1      2311 3.38183E-08-4.03878E-07-2.20828E-07
 -1      2312 9.79859E-08-3.86967E-07-2.17469E-07
 -1      2313 1.49032E-07-2.50512E-07-1.32865E-07
 -1      2314 1.31873E-07-9.42129E-08-3.56378E-08
 -1      2315 8.44153E-08-2.15371E-08 3.35009E-09
 -1      2316-1.48957E-07-1.36975E-07-1.08566E-07
 -1      2317-1.20741E-07-2.41029E-07-1.94319E-07
 -1      2318-7.56453E-08-3.13404E-07-2.48499E-07
 -1      2319-3.49162E-08-3.43816E-07-2.65567E-07
 -1      2320-1.09201E-08-3.51075E-07-2.65296E-07
 -1      2321 1.68648E-10-3.50442E-07-2.61771E-07
 -1      2322 4.86625E-09-3.48863E-07-2.59649E-07
 -1      2323 7.12996E-09-3.48032E-07-2.58950E-07
 -1      2324 8.52200E-09-3.47822E-07-2.58892E-07
 -1      2325 9.53303E-09-3.47870E-07-2.59000E-07
 -1      2326 1.03570E-08-3.47961E-07-2.59116E-07
 -1      2327 1.11921E-08-3.47966E-07-2.59207E-07
 -1      2328 1.23297E-08-3.47677E-07-2.59165E-07
 -1      2329 1.40679E-08-3.46646E-07-2.58564E-07
 -1      2330 1.62060E-08-3.44272E-07-2.56481E-07
 -1      2331 1.69502E-08-3.40785E-07-2.52237E-07
 -1      2332 1.31770E-08-3.39582E-07-2.49171E-07
 -1      2333 8.75852E-09-3.48328E-07-2.59364E-07
 -1      2334 2.96262E-08-3.69283E-07-2.90554E-07
 -1      2335 9.88242E-08-3.56867E-07-2.92597E-07
 -1      2336 1.55825E-07-2.29345E-07-1.75614E-07
 -1      2337 1.33838E-07-8.35524E-08-4.25480E-08
 -1      2338 8.06603E-08-1.85606E-08 4.09023E-09
 -1      2339-1.67490E-07-1.16136E-07-1.47489E-07
 -1      2340-1.33048E-07-2.07978E-07-2.70172E-07
 -1      2341-7.95004E-08-2.70225E-07-3.45042E-07
 -1      2342-3.39165E-08-2.95926E-07-3.67550E-07
 -1      2343-8.99171E-09-3.01825E-07-3.67020E-07
 -1      2344 1.71598E-09-3.01072E-07-3.62350E-07
 -1      2345 5.98663E-09-2.99603E-07-3.59483E-07
 -1      2346 8.02287E-09-2.98819E-07-3.58435E-07
 -1      2347 9.32005E-09-2.98595E-07-3.58247E-07
 -1      2348 1.02909E-08-2.98611E-07-3.58317E-07
 -1      2349 1.10904E-08-2.98676E-07-3.58429E-07
 -1      2350 1.19064E-08-2.98679E-07-3.58523E-07
 -1      2351 1.30492E-08-2.98441E-07-3.58452E-07
 -1      2352 1.48819E-08-2.97582E-07-3.57688E-07
 -1      2353 1.73036E-08-2.95586E-07-3.55081E-07
 -1      2354 1.84016E-08-2.92616E-07-3.49611E-07
 -1      2355 1.38054E-08-2.91552E-07-3.44991E-07
 -1      2356 5.36475E-09-2.98956E-07-3.57026E-07
 -1      2357 2.44436E-08-3.17640E-07-4.00345E-07
 -1      2358 1.07496E-07-3.09468E-07-4.09071E-07
 -1      2359 1.78323E-07-1.97786E-07-2.43496E-07
 -1      2360 1.47718E-07-7.00863E-08-5.59655E-08
 -1      2361 8.09705E-08-1.52938E-08 4.39428E-09
 -1      2362-1.87689E-07-8.53620E-08-1.84750E-07
 -1      2363-1.47281E-07-1.54860E-07-3.43703E-07
 -1      2364-8.49314E-08-2.01188E-07-4.38947E-07
 -1      2365-3.37207E-08-2.20060E-07-4.66879E-07
 -1      2366-7.32548E-09-2.24297E-07-4.66169E-07
 -1      2367 3.20807E-09-2.23653E-07-4.60436E-07
 -1      2368 7.10155E-09-2.22515E-07-4.56877E-07
 -1      2369 8.90978E-09-2.21903E-07-4.55516E-07
 -1      2370 1.01079E-08-2.21717E-07-4.55218E-07
 -1      2371 1.10396E-08-2.21717E-07-4.55261E-07
 -1      2372 1.18197E-08-2.21761E-07-4.55376E-07
 -1      2373 1.26271E-08-2.21763E-07-4.55476E-07
 -1      2374 1.37961E-08-2.21590E-07-4.55378E-07
 -1      2375 1.57558E-08-2.20965E-07-4.54452E-07
 -1      2376 1.84825E-08-2.19506E-07-4.51326E-07
 -1      2377 1.98797E-08-2.17320E-07-4.44650E-07
 -1      2378 1.42570E-08-2.16516E-07-4.38500E-07
 -1      2379 1.75959E-09-2.21933E-07-4.52349E-07
 -1      2380 1.98366E-08-2.36190E-07-5.07644E-07
 -1      2381 1.17932E-07-2.31523E-07-5.23265E-07
 -1      2382 2.03448E-07-1.47503E-07-3.10322E-07
 -1      2383 1.64245E-07-5.12050E-08-6.90640E-08
 -1      2384 8.30576E-08-1.10236E-08 4.86378E-09
 -1      2385-2.02637E-07-4.53192E-08-2.10883E-07
 -1      2386-1.58009E-07-8.28396E-08-3.95725E-07
 -1      2387-8.92640E-08-1.07654E-07-5.05582E-07
 -1      2388-3.38178E-08-1.17683E-07-5.37417E-07
 -1      2389-6.20529E-09-1.19911E-07-5.36600E-07
 -1      2390 4.26945E-09-1.19547E-07-5.30128E-07
 -1      2391 7.90870E-09-1.18926E-07-5.26088E-07
 -1      2392 9.55427E-09-1.18591E-07-5.24512E-07
 -1      2393 1.06801E-08-1.18486E-07-5.24142E-07
 -1      2394 1.15840E-08-1.18483E-07-5.24169E-07
 -1      2395 1.23517E-08-1.18505E-07-5.24288E-07
 -1      2396 1.31562E-08-1.18506E-07-5.24394E-07
 -1      2397 1.43501E-08-1.18415E-07-5.24277E-07
 -1      2398 1.64097E-08-1.18085E-07-5.23235E-07
 -1      2399 1.93599E-08-1.17312E-07-5.19739E-07
 -1      2400 2.09490E-08-1.16152E-07-5.12206E-07
 -1      2401 1.45253E-08-1.15720E-07-5.04969E-07
 -1      2402-8.58685E-10-1.18591E-07-5.20135E-07
 -1      2403 1.67462E-08-1.26338E-07-5.84058E-07
 -1      2404 1.25865E-07-1.24265E-07-6.04777E-07
 -1      2405 2.22100E-07-7.90817E-08-3.58234E-07
 -1      2406 1.76828E-07-2.71397E-08-7.83976E-08
 -1      2407 8.51027E-08-5.79149E-09 5.28699E-09
 -1      2408-2.08085E-07-7.45430E-14-2.20177E-07
 -1      2409-1.61944E-07 9.62324E-15-4.14307E-07
 -1      2410-9.08862E-08 1.16093E-14-5.29432E-07
 -1      2411-3.38868E-08 7.75391E-15-5.62676E-07
 -1      2412-5.81182E-09 4.04294E-15-5.61826E-07
 -1      2413 4.65186E-09 1.87410E-15-5.55090E-07
 -1      2414 8.20198E-09 6.17147E-16-5.50880E-07
 -1      2415 9.78912E-09-1.12329E-16-5.49228E-07
 -1      2416 1.08888E-08-5.06423E-16-5.48832E-07
 -1      2417 1.17827E-08-7.19141E-16-5.48855E-07
 -1      2418 1.25461E-08-8.29465E-16-5.48976E-07
 -1      2419 1.33500E-08-8.97929E-16-5.49084E-07
 -1      2420 1.45537E-08-9.04782E-16-5.48960E-07
 -1      2421 1.66506E-08-9.07439E-16-5.47877E-07
 -1      2422 1.96818E-08-9.06557E-16-5.44247E-07
 -1      2423 2.13359E-08-8.84209E-16-5.36409E-07
 -1      2424 1.46132E-08-8.42995E-16-5.28784E-07
 -1      2425-1.80433E-09-8.39481E-16-5.44429E-07
 -1      2426 1.56696E-08-9.23784E-16-6.11471E-07
 -1      2427 1.28779E-07-9.74289E-16-6.34046E-07
 -1      2428 2.28893E-07-5.54368E-16-3.75494E-07
 -1      2429 1.81463E-07-7.57385E-17-8.17572E-08
 -1      2430 8.59222E-08 5.07195E-18 5.45553E-09
 -1      2431-2.02637E-07 4.53191E-08-2.10883E-07
 -1      2432-1.58009E-07 8.28396E-08-3.95725E-07
 -1      2433-8.92640E-08 1.07654E-07-5.05582E-07
 -1      2434-3.38178E-08 1.17683E-07-5.37417E-07
 -1      2435-6.20529E-09 1.19911E-07-5.36600E-07
 -1      2436 4.26944E-09 1.19547E-07-5.30128E-07
 -1      2437 7.90870E-09 1.18926E-07-5.26088E-07
 -1      2438 9.55427E-09 1.18591E-07-5.24512E-07
 -1      2439 1.06801E-08 1.18486E-07-5.24142E-07
 -1      2440 1.15840E-08 1.18483E-07-5.24169E-07
 -1      2441 1.23517E-08 1.18505E-07-5.24288E-07
 -1      2442 1.31562E-08 1.18506E-07-5.24394E-07
 -1      2443 1.43501E-08 1.18415E-07-5.24277E-07
 -1      2444 1.64097E-08 1.18085E-07-5.23235E-07
 -1      2445 1.93599E-08 1.17312E-07-5.19739E-07
 -1      2446 2.09490E-08 1.16152E-07-5.12206E-07
 -1      2447 1.45253E-08 1.15720E-07-5.04969E-07
 -1      2448-8.58685E-10 1.18591E-07-5.20135E-07
 -1      2449 1.67462E-08 1.26338E-07-5.84058E-07
 -1      2450 1.25865E-07 1.24265E-07-6.04777E-07
 -1      2451 2.22100E-07 7.90817E-08-3.58234E-07
 -1      2452 1.76828E-07 2.71397E-08-7.83976E-08
 -1      2453 8.51027E-08 5.79149E-09 5.28699E-09
 -1      2454-1.87689E-07 8.53620E-08-1.84751E-07
 -1      2455-1.47281E-07 1.54860E-07-3.43703E-07
 -1      2456-8.49314E-08 2.01188E-07-4.38947E-07
 -1      2457-3.37207E-08 2.20060E-07-4.66879E-07
 -1      2458-7.32548E-09 2.24297E-07-4.66169E-07
 -1      2459 3.20807E-09 2.23653E-07-4.60436E-07
 -1      2460 7.10155E-09 2.22515E-07-4.56877E-07
 -1      2461 8.90978E-09 2.21903E-07-4.55516E-07
 -1      2462 1.01079E-08 2.21717E-07-4.55218E-07
 -1      2463 1.10396E-08 2.21717E-07-4.55261E-07
 -1      2464 1.18197E-08 2.21761E-07-4.55376E-07
 -1      2465 1.26271E-08 2.21763E-07-4.55476E-07
 -1      2466 1.37961E-08 2.21590E-07-4.55378E-07
 -1      2467 1.57558E-08 2.20965E-07-4.54452E-07
 -1      2468 1.84825E-08 2.19506E-07-4.51326E-07
 -1      2469 1.98797E-08 2.17320E-07-4.44650E-07
 -1      2470 1.42570E-08 2.16516E-07-4.38500E-07
 -1      2471 1.75959E-09 2.21933E-07-4.52349E-07
 -1      2472 1.98366E-08 2.36190E-07-5.07644E-07
 -1      2473 1.17932E-07 2.31523E-07-5.23265E-07
 -1      2474 2.03448E-07 1.47503E-07-3.10322E-07
 -1      2475 1.64245E-07 5.12050E-08-6.90640E-08
 -1      2476 8.30576E-08 1.10236E-08 4.86378E-09
 -1      2477-1.67490E-07 1.16136E-07-1.47489E-07
 -1      2478-1.33048E-07 2.07978E-07-2.70172E-07
 -1      2479-7.95004E-08 2.70225E-07-3.45042E-07
 -1      2480-3.39165E-08 2.95926E-07-3.67550E-07
 -1      2481-8.99172E-09 3.01825E-07-3.67020E-07
 -1      2482 1.71597E-09 3.01073E-07-3.62350E-07
 -1      2483 5.98663E-09 2.99603E-07-3.59483E-07
 -1      2484 8.02287E-09 2.98819E-07-3.58435E-07
 -1      2485 9.32005E-09 2.98595E-07-3.58247E-07
 -1      2486 1.02909E-08 2.98611E-07-3.58317E-07
 -1      2487 1.10904E-08 2.98676E-07-3.58429E-07
 -1      2488 1.19064E-08 2.98679E-07-3.58523E-07
 -1      2489 1.30492E-08 2.98441E-07-3.58452E-07
 -1      2490 1.48819E-08 2.97582E-07-3.57688E-07
 -1      2491 1.73036E-08 2.95586E-07-3.55081E-07
 -1      2492 1.84016E-08 2.92616E-07-3.49611E-07
 -1      2493 1.38054E-08 2.91552E-07-3.44991E-07
 -1      2494 5.36475E-09 2.98956E-07-3.57026E-07
 -1      2495 2.44436E-08 3.17640E-07-4.00345E-07
 -1      2496 1.07496E-07 3.09468E-07-4.09071E-07
 -1      2497 1.78323E-07 1.97786E-07-2.43496E-07
 -1      2498 1.47718E-07 7.00863E-08-5.59655E-08
 -1      2499 8.09705E-08 1.52938E-08 4.39428E-09
 -1      2500-1.48957E-07 1.36975E-07-1.08566E-07
 -1      2501-1.20741E-07 2.41029E-07-1.94319E-07
 -1      2502-7.56453E-08 3.13404E-07-2.48499E-07
 -1      2503-3.49162E-08 3.43816E-07-2.65567E-07
 -1      2504-1.09201E-08 3.51075E-07-2.65296E-07
 -1      2505 1.68646E-10 3.50442E-07-2.61771E-07
 -1      2506 4.86625E-09 3.48863E-07-2.59649E-07
 -1      2507 7.12996E-09 3.48032E-07-2.58950E-07
 -1      2508 8.52200E-09 3.47822E-07-2.58892E-07
 -1      2509 9.53303E-09 3.47870E-07-2.59000E-07
 -1      2510 1.03570E-08 3.47961E-07-2.59116E-07
 -1      2511 1.11921E-08 3.47966E-07-2.59207E-07
 -1      2512 1.23297E-08 3.47677E-07-2.59165E-07
 -1      2513 1.40679E-08 3.46646E-07-2.58564E-07
 -1      2514 1.62060E-08 3.44272E-07-2.56481E-07
 -1      2515 1.69502E-08 3.40785E-07-2.52237E-07
 -1      2516 1.31770E-08 3.39582E-07-2.49171E-07
 -1      2517 8.75852E-09 3.48328E-07-2.59364E-07
 -1      2518 2.96262E-08 3.69283E-07-2.90554E-07
 -1      2519 9.88242E-08 3.56867E-07-2.92597E-07
 -1      2520 1.55825E-07 2.29345E-07-1.75614E-07
 -1      2521 1.33838E-07 8.35524E-08-4.25480E-08
 -1      2522 8.06603E-08 1.85606E-08 4.09023E-09
 -1      2523-1.41099E-07 1.52153E-07-8.32499E-08
 -1      2524-1.18129E-07 2.62546E-07-1.44867E-07
 -1      2525-7.71766E-08 3.41678E-07-1.86090E-07
 -1      2526-3.74221E-08 3.75652E-07-2.00417E-07
 -1      2527-1.27836E-08 3.84301E-07-2.00797E-07
 -1      2528-9.82946E-10 3.84040E-07-1.98248E-07
 -1      2529 4.08277E-09 3.82544E-07-1.96722E-07
 -1      2530 6.48093E-09 3.81769E-07-1.96315E-07
 -1      2531 7.92142E-09 3.81622E-07-1.96388E-07
 -1      2532 8.95990E-09 3.81722E-07-1.96550E-07
 -1      2533 9.81127E-09 3.81845E-07-1.96686E-07
 -1      2534 1.06825E-08 3.81855E-07-1.96780E-07
 -1      2535 1.18664E-08 3.81519E-07-1.96748E-07
 -1      2536 1.36281E-08 3.80342E-07-1.96222E-07
 -1      2537 1.56530E-08 3.77674E-07-1.94427E-07
 -1      2538 1.60717E-08 3.73842E-07-1.90952E-07
 -1      2539 1.23818E-08 3.72603E-07-1.88980E-07
 -1      2540 1.01541E-08 3.82162E-07-1.98065E-07
 -1      2541 3.38183E-08 4.03878E-07-2.20828E-07
 -1      2542 9.79859E-08 3.86967E-07-2.17469E-07
 -1      2543 1.49032E-07 2.50512E-07-1.32865E-07
 -1      2544 1.31873E-07 9.42129E-08-3.56378E-08
 -1      2545 8.44153E-08 2.15371E-08 3.35009E-09
 -1      2546-1.68888E-07-1.70484E-07-1.19622E-07
 -1      2547-1.37612E-07-2.99667E-07-2.02214E-07
 -1      2548-8.98828E-08-3.90721E-07-2.59629E-07
 -1      2549-4.51420E-08-4.29304E-07-2.77657E-07
 -1      2550-1.64550E-08-4.39122E-07-2.76104E-07
 -1      2551-1.62231E-09-4.38945E-07-2.71394E-07
 -1      2552 5.56876E-09-4.37436E-07-2.68795E-07
 -1      2553 9.31717E-09-4.36722E-07-2.68072E-07
 -1      2554 1.15771E-08-4.36670E-07-2.68117E-07
 -1      2555 1.31256E-08-4.36853E-07-2.68315E-07
 -1      2556 1.43296E-08-4.37028E-07-2.68493E-07
 -1      2557 1.54858E-08-4.37056E-07-2.68644E-07
 -1      2558 1.69329E-08-4.36683E-07-2.68662E-07
 -1      2559 1.89671E-08-4.35340E-07-2.68017E-07
 -1      2560 2.13878E-08-4.32258E-07-2.65510E-07
 -1      2561 2.26952E-08-4.27669E-07-2.60335E-07
 -1      2562 2.07106E-08-4.25697E-07-2.57006E-07
 -1      2563 2.02222E-08-4.35635E-07-2.70750E-07
 -1      2564 4.50757E-08-4.62145E-07-3.07438E-07
 -1      2565 1.12240E-07-4.49894E-07-3.06254E-07
 -1      2566 1.66025E-07-2.87119E-07-1.83474E-07
 -1      2567 1.48391E-07-1.02771E-07-4.23664E-08
 -1      2568 1.01686E-07-2.31789E-08 8.52231E-09
 -1      2569-1.79505E-07-1.58029E-07-1.70828E-07
 -1      2570-1.41235E-07-2.84779E-07-2.99965E-07
 -1      2571-8.74637E-08-3.70270E-07-3.82571E-07
 -1      2572-4.13960E-08-4.05473E-07-4.06520E-07
 -1      2573-1.36898E-08-4.13794E-07-4.04266E-07
 -1      2574 1.79694E-10-4.13085E-07-3.97992E-07
 -1      2575 6.88765E-09-4.11382E-07-3.94385E-07
 -1      2576 1.04591E-08-4.10547E-07-3.93168E-07
 -1      2577 1.26551E-08-4.10400E-07-3.93006E-07
 -1      2578 1.41670E-08-4.10517E-07-3.93126E-07
 -1      2579 1.53348E-08-4.10656E-07-3.93282E-07
 -1      2580 1.64437E-08-4.10679E-07-3.93427E-07
 -1      2581 1.78290E-08-4.10351E-07-3.93410E-07
 -1      2582 1.98286E-08-4.09143E-07-3.92579E-07
 -1      2583 2.23808E-08-4.06330E-07-3.89471E-07
 -1      2584 2.41325E-08-4.02035E-07-3.82837E-07
 -1      2585 2.22837E-08-4.00061E-07-3.77425E-07
 -1      2586 1.87987E-08-4.09222E-07-3.92754E-07
 -1      2587 3.87624E-08-4.35575E-07-4.45123E-07
 -1      2588 1.13678E-07-4.30140E-07-4.55183E-07
 -1      2589 1.76992E-07-2.71229E-07-2.67994E-07
 -1      2590 1.51195E-07-9.22106E-08-5.66975E-08
 -1      2591 9.58631E-08-2.02898E-08 9.17972E-09
 -1      2592-2.02935E-07-1.35162E-07-2.37504E-07
 -1      2593-1.55975E-07-2.49426E-07-4.31442E-07
 -1      2594-9.07778E-08-3.23669E-07-5.48758E-07
 -1      2595-3.90053E-08-3.53375E-07-5.80917E-07
 -1      2596-1.06332E-08-3.60023E-07-5.77852E-07
 -1      2597 2.58245E-09-3.59084E-07-5.69603E-07
 -1      2598 8.72152E-09-3.57444E-07-5.64767E-07
 -1      2599 1.20107E-08-3.56622E-07-5.62993E-07
 -1      2600 1.40956E-08-3.56436E-07-5.62627E-07
 -1      2601 1.55607E-08-3.56503E-07-5.62690E-07
 -1      2602 1.66973E-08-3.56608E-07-5.62843E-07
 -1      2603 1.77775E-08-3.56627E-07-5.62995E-07
 -1      2604 1.91563E-08-3.56358E-07-5.62935E-07
 -1      2605 2.12549E-08-3.55348E-07-5.61845E-07
 -1      2606 2.41371E-08-3.52974E-07-5.57881E-07
 -1      2607 2.64034E-08-3.49277E-07-5.49175E-07
 -1      2608 2.40030E-08-3.47470E-07-5.40754E-07
 -1      2609 1.52147E-08-3.55113E-07-5.58044E-07
 -1      2610 3.04195E-08-3.79041E-07-6.32299E-07
 -1      2611 1.23870E-07-3.79750E-07-6.60404E-07
 -1      2612 2.07000E-07-2.37110E-07-3.84048E-07
 -1      2613 1.67545E-07-7.65047E-08-7.46945E-08
 -1      2614 9.38884E-08-1.65778E-08 1.08750E-08
 -1      2615-2.28238E-07-9.92682E-08-3.01466E-07
 -1      2616-1.73059E-07-1.86325E-07-5.60101E-07
 -1      2617-9.59775E-08-2.41760E-07-7.12073E-07
 -1      2618-3.75894E-08-2.63503E-07-7.52445E-07
 -1      2619-7.90600E-09-2.68223E-07-7.48654E-07
 -1      2620 4.90831E-09-2.67399E-07-7.38524E-07
 -1      2621 1.05411E-08-2.66112E-07-7.32532E-07
 -1      2622 1.35497E-08-2.65458E-07-7.30249E-07
 -1      2623 1.55205E-08-2.65293E-07-7.29712E-07
 -1      2624 1.69417E-08-2.65327E-07-7.29737E-07
 -1      2625 1.80544E-08-2.65398E-07-7.29897E-07
 -1      2626 1.91191E-08-2.65413E-07-7.30064E-07
 -1      2627 2.05172E-08-2.65219E-07-7.29965E-07
 -1      2628 2.27552E-08-2.64487E-07-7.28618E-07
 -1      2629 2.59931E-08-2.62754E-07-7.23801E-07
 -1      2630 2.87067E-08-2.60037E-07-7.13043E-07
 -1      2631 2.55065E-08-2.58667E-07-7.01631E-07
 -1      2632 1.13837E-08-2.64217E-07-7.20891E-07
 -1      2633 2.27217E-08-2.82603E-07-8.17070E-07
 -1      2634 1.36024E-07-2.85716E-07-8.64237E-07
 -1      2635 2.40119E-07-1.77759E-07-4.99960E-07
 -1      2636 1.87120E-07-5.54107E-08-9.20617E-08
 -1      2637 9.40154E-08-1.18461E-08 1.29441E-08
 -1      2638-2.46615E-07-5.23605E-08-3.45427E-07
 -1      2639-1.85755E-07-9.92015E-08-6.49524E-07
 -1      2640-1.00202E-07-1.28840E-07-8.26194E-07
 -1      2641-3.68701E-08-1.40358E-07-8.72469E-07
 -1      2642-6.05242E-09-1.42833E-07-8.68219E-07
 -1      2643 6.55932E-09-1.42371E-07-8.56801E-07
 -1      2644 1.18538E-08-1.41670E-07-8.50015E-07
 -1      2645 1.46649E-08-1.41310E-07-8.47386E-07
 -1      2646 1.65535E-08-1.41214E-07-8.46736E-07
 -1      2647 1.79440E-08-1.41228E-07-8.46740E-07
 -1      2648 1.90417E-08-1.41265E-07-8.46910E-07
 -1      2649 2.00993E-08-1.41272E-07-8.47089E-07
 -1      2650 2.15189E-08-1.41171E-07-8.46965E-07
 -1      2651 2.38660E-08-1.40785E-07-8.45437E-07
 -1      2652 2.73612E-08-1.39872E-07-8.40020E-07
 -1      2653 3.03621E-08-1.38443E-07-8.27830E-07
 -1      2654 2.64881E-08-1.37720E-07-8.14338E-07
 -1      2655 8.61721E-09-1.40664E-07-8.35117E-07
 -1      2656 1.76429E-08-1.50624E-07-9.46953E-07
 -1      2657 1.45085E-07-1.52874E-07-1.00757E-06
 -1      2658 2.64101E-07-9.51698E-08-5.82375E-07
 -1      2659 2.01891E-07-2.92341E-08-1.04517E-07
 -1      2660 9.48185E-08-6.19259E-09 1.45842E-08
 -1      2661-2.53194E-07-4.05893E-14-3.60755E-07
 -1      2662-1.90342E-07 2.48681E-14-6.80859E-07
 -1      2663-1.01784E-07 1.61141E-14-8.66346E-07
 -1      2664-3.66563E-08 1.04561E-14-9.14749E-07
 -1      2665-5.40113E-09 5.62042E-15-9.10352E-07
 -1      2666 7.15117E-09 2.81671E-15-8.98486E-07
 -1      2667 1.23286E-08 1.05185E-15-8.91422E-07
 -1      2668 1.50694E-08 3.37559E-17-8.88673E-07
 -1      2669 1.69286E-08-5.03081E-16-8.87984E-07
 -1      2670 1.83081E-08-7.82069E-16-8.87981E-07
 -1      2671 1.94007E-08-9.04878E-16-8.88155E-07
 -1      2672 2.04562E-08-9.78447E-16-8.88338E-07
 -1      2673 2.18847E-08-9.49290E-16-8.88205E-07
 -1      2674 2.42721E-08-9.22136E-16-8.86613E-07
 -1      2675 2.78588E-08-8.96012E-16-8.80984E-07
 -1      2676 3.09574E-08-8.40279E-16-8.68292E-07
 -1      2677 2.68181E-08-7.48711E-16-8.54074E-07
 -1      2678 7.62564E-09-7.01621E-16-8.75437E-07
 -1      2679 1.59294E-08-7.77937E-16-9.92859E-07
 -1      2680 1.48355E-07-9.22027E-16-1.05815E-06
 -1      2681 2.72630E-07-4.52343E-16-6.11716E-07
 -1      2682 2.07269E-07 8.00200E-17-1.09041E-07
 -1      2683 9.52285E-08 5.68698E-17 1.51951E-08
 -1      2684-2.46615E-07 5.23604E-08-3.45427E-07
 -1      2685-1.85755E-07 9.92015E-08-6.49524E-07
 -1      2686-1.00202E-07 1.28840E-07-8.26194E-07
 -1      2687-3.68701E-08 1.40358E-07-8.72469E-07
 -1      2688-6.05242E-09 1.42833E-07-8.68219E-07
 -1      2689 6.55932E-09 1.42371E-07-8.56801E-07
 -1      2690 1.18538E-08 1.41670E-07-8.50015E-07
 -1      2691 1.46649E-08 1.41310E-07-8.47386E-07
 -1      2692 1.65535E-08 1.41214E-07-8.46736E-07
 -1      2693 1.79440E-08 1.41228E-07-8.46740E-07
 -1      2694 1.90417E-08 1.41265E-07-8.46910E-07
 -1      2695 2.00993E-08 1.41272E-07-8.47089E-07
 -1      2696 2.15189E-08 1.41171E-07-8.46965E-07
 -1      2697 2.38660E-08 1.40785E-07-8.45437E-07
 -1      2698 2.73612E-08 1.39872E-07-8.40020E-07
 -1      2699 3.03621E-08 1.38443E-07-8.27830E-07
 -1      2700 2.64881E-08 1.37720E-07-8.14338E-07
 -1      2701 8.61721E-09 1.40664E-07-8.35117E-07
 -1      2702 1.76429E-08 1.50624E-07-9.46953E-07
 -1      2703 1.45085E-07 1.52874E-07-1.00757E-06
 -1      2704 2.64101E-07 9.51698E-08-5.82375E-07
 -1      2705 2.01891E-07 2.92341E-08-1.04517E-07
 -1      2706 9.48185E-08 6.19259E-09 1.45842E-08
 -1      2707-2.28238E-07 9.92681E-08-3.01466E-07
 -1      2708-1.73059E-07 1.86325E-07-5.60101E-07
 -1      2709-9.59775E-08 2.41760E-07-7.12073E-07
 -1      2710-3.75894E-08 2.63503E-07-7.52445E-07
 -1      2711-7.90600E-09 2.68223E-07-7.48654E-07
 -1      2712 4.90831E-09 2.67399E-07-7.38524E-07
 -1      2713 1.05411E-08 2.66112E-07-7.32532E-07
 -1      2714 1.35497E-08 2.65458E-07-7.30249E-07
 -1      2715 1.55205E-08 2.65293E-07-7.29712E-07
 -1      2716 1.69417E-08 2.65327E-07-7.29737E-07
 -1      2717 1.80544E-08 2.65398E-07-7.29897E-07
 -1      2718 1.91191E-08 2.65413E-07-7.30064E-07
 -1      2719 2.05172E-08 2.65219E-07-7.29965E-07
 -1      2720 2.27552E-08 2.64487E-07-7.28618E-07
 -1      2721 2.59931E-08 2.62754E-07-7.23801E-07
 -1      2722 2.87067E-08 2.60037E-07-7.13043E-07
 -1      2723 2.55065E-08 2.58667E-07-7.01631E-07
 -1      2724 1.13837E-08 2.64217E-07-7.20891E-07
 -1      2725 2.27217E-08 2.82603E-07-8.17070E-07
 -1      2726 1.36024E-07 2.85716E-07-8.64237E-07
 -1      2727 2.40119E-07 1.77759E-07-4.99960E-07
 -1      2728 1.87120E-07 5.54107E-08-9.20617E-08
 -1      2729 9.40154E-08 1.18461E-08 1.29441E-08
 -1      2730-2.02935E-07 1.35162E-07-2.37504E-07
 -1      2731-1.55975E-07 2.49426E-07-4.31442E-07
 -1      2732-9.07778E-08 3.23669E-07-5.48758E-07
 -1      2733-3.90053E-08 3.53375E-07-5.80917E-07
 -1      2734-1.06332E-08 3.60023E-07-5.77852E-07
 -1      2735 2.58244E-09 3.59084E-07-5.69603E-07
 -1      2736 8.72152E-09 3.57444E-07-5.64767E-07
 -1      2737 1.20107E-08 3.56622E-07-5.62993E-07
 -1      2738 1.40956E-08 3.56436E-07-5.62627E-07
 -1      2739 1.55607E-08 3.56503E-07-5.62690E-07
 -1      2740 1.66973E-08 3.56608E-07-5.62843E-07
 -1      2741 1.77775E-08 3.56627E-07-5.62995E-07
 -1      2742 1.91563E-08 3.56358E-07-5.62935E-07
 -1      2743 2.12549E-08 3.55348E-07-5.61845E-07
 -1      2744 2.41371E-08 3.52974E-07-5.57881E-07
 -1      2745 2.64034E-08 3.49277E-07-5.49175E-07
 -1      2746 2.40030E-08 3.47470E-07-5.40754E-07
 -1      2747 1.52147E-08 3.55113E-07-5.58044E-07
 -1      2748 3.04195E-08 3.79041E-07-6.32299E-07
 -1      2749 1.23870E-07 3.79750E-07-6.60404E-07
 -1      2750 2.07000E-07 2.37110E-07-3.84048E-07
 -1      2751 1.67545E-07 7.65047E-08-7.46945E-08
 -1      2752 9.38884E-08 1.65778E-08 1.08750E-08
 -1      2753-1.79505E-07 1.58029E-07-1.70828E-07
 -1      2754-1.41235E-07 2.84779E-07-2.99965E-07
 -1      2755-8.74637E-08 3.70270E-07-3.82571E-07
 -1      2756-4.13960E-08 4.05473E-07-4.06520E-07
 -1      2757-1.36898E-08 4.13794E-07-4.04266E-07
 -1      2758 1.79691E-10 4.13085E-07-3.97992E-07
 -1      2759 6.88764E-09 4.11382E-07-3.94385E-07
 -1      2760 1.04591E-08 4.10547E-07-3.93168E-07
 -1      2761 1.26551E-08 4.10400E-07-3.93006E-07
 -1      2762 1.41670E-08 4.10517E-07-3.93126E-07
 -1      2763 1.53348E-08 4.10656E-07-3.93282E-07
 -1      2764 1.64437E-08 4.10679E-07-3.93427E-07
 -1      2765 1.78290E-08 4.10351E-07-3.93410E-07
 -1      2766 1.98286E-08 4.09143E-07-3.92580E-07
 -1      2767 2.23808E-08 4.06330E-07-3.89471E-07
 -1      2768 2.41325E-08 4.02035E-07-3.82837E-07
 -1      2769 2.22837E-08 4.00061E-07-3.77425E-07
 -1      2770 1.87987E-08 4.09222E-07-3.92754E-07
 -1      2771 3.87624E-08 4.35575E-07-4.45123E-07
 -1      2772 1.13678E-07 4.30140E-07-4.55183E-07
 -1      2773 1.76992E-07 2.71229E-07-2.67994E-07
 -1      2774 1.51195E-07 9.22106E-08-5.66975E-08
 -1      2775 9.58631E-08 2.02898E-08 9.17972E-09
 -1      2776-1.68888E-07 1.70484E-07-1.19622E-07
 -1      2777-1.37613E-07 2.99667E-07-2.02214E-07
 -1      2778-8.98829E-08 3.90721E-07-2.59629E-07
 -1      2779-4.51420E-08 4.29304E-07-2.77657E-07
 -1      2780-1.64550E-08 4.39122E-07-2.76104E-07
 -1      2781-1.62232E-09 4.38945E-07-2.71394E-07
 -1      2782 5.56876E-09 4.37436E-07-2.68795E-07
 -1      2783 9.31717E-09 4.36722E-07-2.68072E-07
 -1      2784 1.15771E-08 4.36670E-07-2.68117E-07
 -1      2785 1.31256E-08 4.36853E-07-2.68315E-07
 -1      2786 1.43296E-08 4.37028E-07-2.68493E-07
 -1      2787 1.54858E-08 4.37056E-07-2.68644E-07
 -1      2788 1.69329E-08 4.36683E-07-2.68662E-07
 -1      2789 1.89671E-08 4.35340E-07-2.68017E-07
 -1      2790 2.13878E-08 4.32258E-07-2.65510E-07
 -1      2791 2.26952E-08 4.27669E-07-2.60335E-07
 -1      2792 2.07106E-08 4.25697E-07-2.57006E-07
 -1      2793 2.02222E-08 4.35635E-07-2.70750E-07
 -1      2794 4.50757E-08 4.62145E-07-3.07438E-07
 -1      2795 1.12240E-07 4.49894E-07-3.06254E-07
 -1      2796 1.66025E-07 2.87119E-07-1.83474E-07
 -1      2797 1.48391E-07 1.02771E-07-4.23664E-08
 -1      2798 1.01686E-07 2.31789E-08 8.52231E-09
 -1      2799-1.64685E-07-1.42362E-07-1.42375E-07
 -1      2800-1.32327E-07-2.58000E-07-2.36236E-07
 -1      2801-8.71296E-08-3.38180E-07-3.02641E-07
 -1      2802-4.62933E-08-3.72209E-07-3.21896E-07
 -1      2803-1.86078E-08-3.81068E-07-3.18147E-07
 -1      2804-2.43927E-09-3.81244E-07-3.11522E-07
 -1      2805 6.55283E-09-3.80305E-07-3.07978E-07
 -1      2806 1.16507E-08-3.79999E-07-3.06928E-07
 -1      2807 1.47198E-08-3.80175E-07-3.06891E-07
 -1      2808 1.67284E-08-3.80468E-07-3.07076E-07
 -1      2809 1.82148E-08-3.80691E-07-3.07266E-07
 -1      2810 1.95517E-08-3.80748E-07-3.07455E-07
 -1      2811 2.10589E-08-3.80434E-07-3.07531E-07
 -1      2812 2.29912E-08-3.79238E-07-3.06858E-07
 -1      2813 2.53685E-08-3.76437E-07-3.03944E-07
 -1      2814 2.77457E-08-3.72086E-07-2.97701E-07
 -1      2815 2.94576E-08-3.69735E-07-2.93366E-07
 -1      2816 3.29839E-08-3.77334E-07-3.10395E-07
 -1      2817 5.32244E-08-4.01757E-07-3.57965E-07
 -1      2818 1.05113E-07-4.00291E-07-3.58194E-07
 -1      2819 1.47187E-07-2.50429E-07-2.11961E-07
 -1      2820 1.34625E-07-8.38255E-08-4.35673E-08
 -1      2821 1.02533E-07-1.87963E-08 1.39697E-08
 -1      2822-1.74984E-07-1.39332E-07-2.22907E-07
 -1      2823-1.34993E-07-2.62432E-07-3.89891E-07
 -1      2824-8.27263E-08-3.41112E-07-4.94978E-07
 -1      2825-4.09991E-08-3.72810E-07-5.23304E-07
 -1      2826-1.48281E-08-3.80236E-07-5.18823E-07
 -1      2827 1.82338E-10-3.79656E-07-5.10020E-07
 -1      2828 8.62641E-09-3.78338E-07-5.05040E-07
 -1      2829 1.35346E-08-3.77802E-07-5.03294E-07
 -1      2830 1.65360E-08-3.77839E-07-5.02976E-07
 -1      2831 1.85039E-08-3.78049E-07-5.03064E-07
 -1      2832 1.99483E-08-3.78232E-07-5.03231E-07
 -1      2833 2.12286E-08-3.78283E-07-5.03413E-07
 -1      2834 2.26574E-08-3.78001E-07-5.03421E-07
 -1      2835 2.45274E-08-3.76887E-07-5.02436E-07
 -1      2836 2.70139E-08-3.74251E-07-4.98566E-07
 -1      2837 2.98517E-08-3.70001E-07-4.90108E-07
 -1      2838 3.21095E-08-3.67457E-07-4.82554E-07
 -1      2839 3.26909E-08-3.74283E-07-5.00805E-07
 -1      2840 4.54103E-08-3.99721E-07-5.72360E-07
 -1      2841 1.06071E-07-4.11030E-07-5.94485E-07
 -1      2842 1.59920E-07-2.50215E-07-3.43466E-07
 -1      2843 1.35847E-07-7.47637E-08-6.38660E-08
 -1      2844 9.41543E-08-1.69785E-08 1.44683E-08
 -1      2845-1.98754E-07-1.23853E-07-3.25826E-07
 -1      2846-1.48769E-07-2.41909E-07-5.98761E-07
 -1      2847-8.30242E-08-3.12724E-07-7.56124E-07
 -1      2848-3.63371E-08-3.39865E-07-7.95354E-07
 -1      2849-1.03415E-08-3.45691E-07-7.89260E-07
 -1      2850 3.72697E-09-3.44713E-07-7.77401E-07
 -1      2851 1.15031E-08-3.43303E-07-7.70597E-07
 -1      2852 1.61234E-08-3.42684E-07-7.68048E-07
 -1      2853 1.90209E-08-3.42635E-07-7.67449E-07
 -1      2854 2.09458E-08-3.42777E-07-7.67466E-07
 -1      2855 2.23566E-08-3.42921E-07-7.67634E-07
 -1      2856 2.35978E-08-3.42966E-07-7.67831E-07
 -1      2857 2.49981E-08-3.42733E-07-7.67779E-07
 -1      2858 2.69293E-08-3.41780E-07-7.66411E-07
 -1      2859 2.97456E-08-3.39502E-07-7.61251E-07
 -1      2860 3.31178E-08-3.35725E-07-7.49624E-07
 -1      2861 3.55677E-08-3.33245E-07-7.37144E-07
 -1      2862 3.09706E-08-3.38770E-07-7.55848E-07
 -1      2863 3.35387E-08-3.62755E-07-8.61645E-07
 -1      2864 1.15238E-07-3.83414E-07-9.27496E-07
 -1      2865 1.94460E-07-2.29143E-07-5.23545E-07
 -1      2866 1.50020E-07-6.11087E-08-8.19979E-08
 -1      2867 8.78205E-08-1.41190E-08 1.76433E-08
 -1      2868-2.24600E-07-9.07030E-08-4.23365E-07
 -1      2869-1.65217E-07-1.81400E-07-8.03037E-07
 -1      2870-8.53507E-08-2.34653E-07-1.01278E-06
 -1      2871-3.27149E-08-2.54562E-07-1.06269E-06
 -1      2872-6.22297E-09-2.58696E-07-1.05499E-06
 -1      2873 7.18022E-09-2.57844E-07-1.04018E-06
 -1      2874 1.43589E-08-2.56717E-07-1.03165E-06
 -1      2875 1.86955E-08-2.56201E-07-1.02836E-06
 -1      2876 2.14883E-08-2.56129E-07-1.02753E-06
 -1      2877 2.33751E-08-2.56217E-07-1.02750E-06
 -1      2878 2.47611E-08-2.56317E-07-1.02768E-06
 -1      2879 2.59779E-08-2.56352E-07-1.02791E-06
 -1      2880 2.73782E-08-2.56184E-07-1.02781E-06
 -1      2881 2.94154E-08-2.55492E-07-1.02608E-06
 -1      2882 3.25890E-08-2.53831E-07-1.01965E-06
 -1      2883 3.64243E-08-2.51084E-07-1.00491E-06
 -1      2884 3.87961E-08-2.49231E-07-9.87515E-07
 -1      2885 2.90129E-08-2.53273E-07-1.00671E-06
 -1      2886 2.21985E-08-2.71707E-07-1.14692E-06
 -1      2887 1.26225E-07-2.90484E-07-1.25958E-06
 -1      2888 2.32604E-07-1.73660E-07-7.04779E-07
 -1      2889 1.67908E-07-4.38866E-08-9.81108E-08
 -1      2890 8.36263E-08-1.01349E-08 2.16709E-08
 -1      2891-2.42181E-07-4.62126E-08-4.85694E-07
 -1      2892-1.76773E-07-9.33854E-08-9.35452E-07
 -1      2893-8.74824E-08-1.21424E-07-1.18111E-06
 -1      2894-3.05039E-08-1.31909E-07-1.23856E-06
 -1      2895-3.44730E-09-1.34123E-07-1.22995E-06
 -1      2896 9.58330E-09-1.33696E-07-1.21326E-06
 -1      2897 1.63798E-08-1.33101E-07-1.20361E-06
 -1      2898 2.05237E-08-1.32820E-07-1.19985E-06
 -1      2899 2.32437E-08-1.32775E-07-1.19886E-06
 -1      2900 2.51051E-08-1.32817E-07-1.19881E-06
 -1      2901 2.64760E-08-1.32867E-07-1.19901E-06
 -1      2902 2.76798E-08-1.32885E-07-1.19926E-06
 -1      2903 2.90875E-08-1.32797E-07-1.19913E-06
 -1      2904 3.12095E-08-1.32438E-07-1.19715E-06
 -1      2905 3.46160E-08-1.31579E-07-1.18988E-06
 -1      2906 3.87528E-08-1.30196E-07-1.17313E-06
 -1      2907 4.08687E-08-1.29295E-07-1.15252E-06
 -1      2908 2.75233E-08-1.31527E-07-1.17264E-06
 -1      2909 1.54509E-08-1.41298E-07-1.33656E-06
 -1      2910 1.33892E-07-1.50570E-07-1.47817E-06
 -1      2911 2.57902E-07-9.12842E-08-8.27885E-07
 -1      2912 1.80983E-07-2.32950E-08-1.10500E-07
 -1      2913 8.16819E-08-5.26445E-09 2.48691E-08
 -1      2914-2.48032E-07 1.03605E-13-5.05819E-07
 -1      2915-1.80672E-07 3.35323E-14-9.78439E-07
 -1      2916-8.82833E-08 2.07257E-14-1.23638E-06
 -1      2917-2.97727E-08 1.22078E-14-1.29653E-06
 -1      2918-2.48175E-09 6.86247E-15-1.28766E-06
 -1      2919 1.04328E-08 3.76395E-15-1.27037E-06
 -1      2920 1.71027E-08 1.52853E-15-1.26035E-06
 -1      2921 2.11805E-08 3.46399E-16-1.25643E-06
 -1      2922 2.38753E-08-2.93911E-16-1.25539E-06
 -1      2923 2.57279E-08-5.93753E-16-1.25533E-06
 -1      2924 2.70938E-08-6.89208E-16-1.25555E-06
 -1      2925 2.82935E-08-7.44707E-16-1.25580E-06
 -1      2926 2.97046E-08-6.41070E-16-1.25566E-06
 -1      2927 3.18574E-08-5.54623E-16-1.25360E-06
 -1      2928 3.53394E-08-4.81913E-16-1.24604E-06
 -1      2929 3.95759E-08-3.79480E-16-1.22864E-06
 -1      2930 4.15585E-08-2.15269E-16-1.20697E-06
 -1      2931 2.69540E-08-1.03796E-16-1.22764E-06
 -1      2932 1.34778E-08-9.58341E-17-1.39973E-06
 -1      2933 1.36511E-07-3.19846E-16-1.54987E-06
 -1      2934 2.66036E-07-2.66934E-17-8.69508E-07
 -1      2935 1.85530E-07 3.39768E-16-1.15381E-07
 -1      2936 8.12278E-08 1.27522E-16 2.60793E-08
 -1      2937-2.42181E-07 4.62128E-08-4.85694E-07
 -1      2938-1.76773E-07 9.33854E-08-9.35452E-07
 -1      2939-8.74824E-08 1.21424E-07-1.18111E-06
 -1      2940-3.05039E-08 1.31909E-07-1.23856E-06
 -1      2941-3.44730E-09 1.34123E-07-1.22995E-06
 -1      2942 9.58330E-09 1.33696E-07-1.21326E-06
 -1      2943 1.63798E-08 1.33101E-07-1.20361E-06
 -1      2944 2.05237E-08 1.32820E-07-1.19985E-06
 -1      2945 2.32437E-08 1.32775E-07-1.19886E-06
 -1      2946 2.51051E-08 1.32817E-07-1.19881E-06
 -1      2947 2.64760E-08 1.32867E-07-1.19901E-06
 -1      2948 2.76798E-08 1.32885E-07-1.19926E-06
 -1      2949 2.90875E-08 1.32797E-07-1.19913E-06
 -1      2950 3.12095E-08 1.32438E-07-1.19715E-06
 -1      2951 3.46160E-08 1.31579E-07-1.18988E-06
 -1      2952 3.87528E-08 1.30196E-07-1.17313E-06
 -1      2953 4.08687E-08 1.29295E-07-1.15252E-06
 -1      2954 2.75233E-08 1.31527E-07-1.17264E-06
 -1      2955 1.54509E-08 1.41298E-07-1.33656E-06
 -1      2956 1.33892E-07 1.50570E-07-1.47817E-06
 -1      2957 2.57902E-07 9.12842E-08-8.27885E-07
 -1      2958 1.80983E-07 2.32950E-08-1.10500E-07
 -1      2959 8.16819E-08 5.26445E-09 2.48691E-08
 -1      2960-2.24600E-07 9.07030E-08-4.23365E-07
 -1      2961-1.65217E-07 1.81400E-07-8.03037E-07
 -1      2962-8.53508E-08 2.34653E-07-1.01278E-06
 -1      2963-3.27149E-08 2.54562E-07-1.06269E-06
 -1      2964-6.22298E-09 2.58696E-07-1.05499E-06
 -1      2965 7.18022E-09 2.57844E-07-1.04018E-06
 -1      2966 1.43589E-08 2.56717E-07-1.03165E-06
 -1      2967 1.86955E-08 2.56201E-07-1.02836E-06
 -1      2968 2.14883E-08 2.56129E-07-1.02753E-06
 -1      2969 2.33751E-08 2.56217E-07-1.02750E-06
 -1      2970 2.47611E-08 2.56317E-07-1.02768E-06
 -1      2971 2.59779E-08 2.56352E-07-1.02791E-06
 -1      2972 2.73782E-08 2.56184E-07-1.02781E-06
 -1      2973 2.94154E-08 2.55492E-07-1.02608E-06
 -1      2974 3.25890E-08 2.53831E-07-1.01965E-06
 -1      2975 3.64243E-08 2.51084E-07-1.00491E-06
 -1      2976 3.87961E-08 2.49231E-07-9.87515E-07
 -1      2977 2.90129E-08 2.53273E-07-1.00671E-06
 -1      2978 2.21985E-08 2.71707E-07-1.14692E-06
 -1      2979 1.26225E-07 2.90484E-07-1.25958E-06
 -1      2980 2.32604E-07 1.73660E-07-7.04779E-07
 -1      2981 1.67908E-07 4.38866E-08-9.81108E-08
 -1      2982 8.36263E-08 1.01349E-08 2.16709E-08
 -1      2983-1.98754E-07 1.23853E-07-3.25826E-07
 -1      2984-1.48769E-07 2.41909E-07-5.98761E-07
 -1      2985-8.30242E-08 3.12724E-07-7.56124E-07
 -1      2986-3.63371E-08 3.39865E-07-7.95354E-07
 -1      2987-1.03415E-08 3.45691E-07-7.89260E-07
 -1      2988 3.72697E-09 3.44713E-07-7.77401E-07
 -1      2989 1.15031E-08 3.43303E-07-7.70597E-07
 -1      2990 1.61234E-08 3.42684E-07-7.68048E-07
 -1      2991 1.90209E-08 3.42635E-07-7.67449E-07
 -1      2992 2.09458E-08 3.42777E-07-7.67466E-07
 -1      2993 2.23566E-08 3.42921E-07-7.67634E-07
 -1      2994 2.35978E-08 3.42966E-07-7.67831E-07
 -1      2995 2.49981E-08 3.42733E-07-7.67779E-07
 -1      2996 2.69293E-08 3.41780E-07-7.66411E-07
 -1      2997 2.97456E-08 3.39502E-07-7.61251E-07
 -1      2998 3.31178E-08 3.35725E-07-7.49624E-07
 -1      2999 3.55677E-08 3.33245E-07-7.37144E-07
 -1      3000 3.09706E-08 3.38770E-07-7.55848E-07
 -1      3001 3.35387E-08 3.62755E-07-8.61645E-07
 -1      3002 1.15238E-07 3.83414E-07-9.27497E-07
 -1      3003 1.94460E-07 2.29143E-07-5.23545E-07
 -1      3004 1.50020E-07 6.11087E-08-8.19979E-08
 -1      3005 8.78205E-08 1.41190E-08 1.76433E-08
 -1      3006-1.74984E-07 1.39332E-07-2.22907E-07
 -1      3007-1.34993E-07 2.62432E-07-3.89891E-07
 -1      3008-8.27263E-08 3.41112E-07-4.94978E-07
 -1      3009-4.09991E-08 3.72810E-07-5.23304E-07
 -1      3010-1.48282E-08 3.80236E-07-5.18823E-07
 -1      3011 1.82335E-10 3.79656E-07-5.10020E-07
 -1      3012 8.62641E-09 3.78338E-07-5.05040E-07
 -1      3013 1.35346E-08 3.77802E-07-5.03294E-07
 -1      3014 1.65360E-08 3.77839E-07-5.02976E-07
 -1      3015 1.85039E-08 3.78049E-07-5.03064E-07
 -1      3016 1.99483E-08 3.78232E-07-5.03231E-07
 -1      3017 2.12286E-08 3.78283E-07-5.03413E-07
 -1      3018 2.26574E-08 3.78001E-07-5.03421E-07
 -1      3019 2.45274E-08 3.76887E-07-5.02436E-07
 -1      3020 2.70139E-08 3.74251E-07-4.98566E-07
 -1      3021 2.98517E-08 3.70001E-07-4.90108E-07
 -1      3022 3.21095E-08 3.67457E-07-4.82554E-07
 -1      3023 3.26909E-08 3.74283E-07-5.00805E-07
 -1      3024 4.54103E-08 3.99721E-07-5.72360E-07
 -1      3025 1.06071E-07 4.11030E-07-5.94485E-07
 -1      3026 1.59920E-07 2.50215E-07-3.43466E-07
 -1      3027 1.35847E-07 7.47637E-08-6.38660E-08
 -1      3028 9.41543E-08 1.69785E-08 1.44683E-08
 -1      3029-1.64685E-07 1.42362E-07-1.42375E-07
 -1      3030-1.32327E-07 2.58000E-07-2.36236E-07
 -1      3031-8.71297E-08 3.38180E-07-3.02641E-07
 -1      3032-4.62933E-08 3.72209E-07-3.21896E-07
 -1      3033-1.86078E-08 3.81068E-07-3.18147E-07
 -1      3034-2.43927E-09 3.81244E-07-3.11522E-07
 -1      3035 6.55282E-09 3.80305E-07-3.07978E-07
 -1      3036 1.16507E-08 3.79999E-07-3.06928E-07
 -1      3037 1.47198E-08 3.80175E-07-3.06891E-07
 -1      3038 1.67284E-08 3.80468E-07-3.07076E-07
 -1      3039 1.82148E-08 3.80691E-07-3.07266E-07
 -1      3040 1.95517E-08 3.80748E-07-3.07455E-07
 -1      3041 2.10589E-08 3.80434E-07-3.07531E-07
 -1      3042 2.29912E-08 3.79238E-07-3.06858E-07
 -1      3043 2.53685E-08 3.76437E-07-3.03944E-07
 -1      3044 2.77457E-08 3.72086E-07-2.97701E-07
 -1      3045 2.94576E-08 3.69735E-07-2.93366E-07
 -1      3046 3.29839E-08 3.77334E-07-3.10395E-07
 -1      3047 5.32244E-08 4.01757E-07-3.57965E-07
 -1      3048 1.05113E-07 4.00291E-07-3.58194E-07
 -1      3049 1.47187E-07 2.50429E-07-2.11961E-07
 -1      3050 1.34625E-07 8.38255E-08-4.35673E-08
 -1      3051 1.02533E-07 1.87963E-08 1.39697E-08
 -1      3052-1.36472E-07-6.77622E-08-1.51144E-07
 -1      3053-1.07833E-07-1.28048E-07-2.45394E-07
 -1      3054-7.37927E-08-1.74339E-07-3.14280E-07
 -1      3055-4.38193E-08-1.96445E-07-3.33388E-07
 -1      3056-2.03436E-08-2.03466E-07-3.28198E-07
 -1      3057-3.77559E-09-2.04760E-07-3.20379E-07
 -1      3058 6.79849E-09-2.05059E-07-3.16142E-07
 -1      3059 1.31341E-08-2.05497E-07-3.14773E-07
 -1      3060 1.68962E-08-2.06019E-07-3.14595E-07
 -1      3061 1.92567E-08-2.06442E-07-3.14719E-07
 -1      3062 2.09363E-08-2.06705E-07-3.14889E-07
 -1      3063 2.23666E-08-2.06795E-07-3.15091E-07
 -1      3064 2.37951E-08-2.06610E-07-3.15203E-07
 -1      3065 2.53406E-08-2.05820E-07-3.14546E-07
 -1      3066 2.71964E-08-2.03963E-07-3.11517E-07
 -1      3067 3.02836E-08-2.01129E-07-3.05031E-07
 -1      3068 3.67616E-08-1.99683E-07-3.00587E-07
 -1      3069 4.77923E-08-2.03504E-07-3.19467E-07
 -1      3070 6.20768E-08-2.15101E-07-3.72371E-07
 -1      3071 8.20884E-08-2.16993E-07-3.68407E-07
 -1      3072 9.77451E-08-1.36079E-07-2.19133E-07
 -1      3073 9.77788E-08-4.67728E-08-4.43287E-08
 -1      3074 9.39696E-08-1.16937E-08 1.73315E-08
 -1      3075-1.36478E-07-7.51759E-08-2.53544E-07
 -1      3076-1.01418E-07-1.52867E-07-4.40564E-07
 -1      3077-6.42725E-08-2.01167E-07-5.57763E-07
 -1      3078-3.64688E-08-2.22123E-07-5.87873E-07
 -1      3079-1.54883E-08-2.27863E-07-5.82007E-07
 -1      3080-2.12398E-10-2.28214E-07-5.71591E-07
 -1      3081 9.88077E-09-2.27954E-07-5.65624E-07
 -1      3082 1.60950E-08-2.28046E-07-5.63416E-07
 -1      3083 1.98220E-08-2.28376E-07-5.62903E-07
 -1      3084 2.21528E-08-2.28697E-07-5.62915E-07
 -1      3085 2.37905E-08-2.28914E-07-5.63059E-07
 -1      3086 2.51548E-08-2.28992E-07-5.63249E-07
 -1      3087 2.64742E-08-2.28817E-07-5.63263E-07
 -1      3088 2.78744E-08-2.28045E-07-5.62199E-07
 -1      3089 2.96875E-08-2.26233E-07-5.57955E-07
 -1      3090 3.30433E-08-2.23336E-07-5.48708E-07
 -1      3091 4.03588E-08-2.21506E-07-5.40340E-07
 -1      3092 5.07847E-08-2.24554E-07-5.59279E-07
 -1      3093 5.82017E-08-2.36882E-07-6.42802E-07
 -1      3094 7.78419E-08-2.60161E-07-6.70124E-07
 -1      3095 9.57773E-08-1.50244E-07-3.84181E-07
 -1      3096 8.84996E-08-3.88008E-08-6.78065E-08
 -1      3097 8.31752E-08-1.18533E-08 1.76744E-08
 -1      3098-1.49718E-07-7.44709E-08-4.04884E-07
 -1      3099-1.04898E-07-1.62080E-07-7.61735E-07
 -1      3100-5.68014E-08-2.08365E-07-9.52346E-07
 -1      3101-2.84953E-08-2.26591E-07-9.95792E-07
 -1      3102-9.01797E-09-2.30907E-07-9.87154E-07
 -1      3103 5.01797E-09-2.30593E-07-9.72080E-07
 -1      3104 1.44780E-08-2.29998E-07-9.63515E-07
 -1      3105 2.04940E-08-2.29866E-07-9.60182E-07
 -1      3106 2.41642E-08-2.30051E-07-9.59295E-07
 -1      3107 2.64739E-08-2.30284E-07-9.59219E-07
 -1      3108 2.80816E-08-2.30460E-07-9.59370E-07
 -1      3109 2.93933E-08-2.30530E-07-9.59582E-07
 -1      3110 3.06459E-08-2.30384E-07-9.59513E-07
 -1      3111 3.19964E-08-2.29701E-07-9.57891E-07
 -1      3112 3.39813E-08-2.28073E-07-9.51824E-07
 -1      3113 3.77492E-08-2.25370E-07-9.37732E-07
 -1      3114 4.55630E-08-2.23239E-07-9.22188E-07
 -1      3115 5.51327E-08-2.25409E-07-9.37536E-07
 -1      3116 4.70697E-08-2.36596E-07-1.06781E-06
 -1      3117 8.04895E-08-2.78848E-07-1.19636E-06
 -1      3118 1.20018E-07-1.53061E-07-6.48989E-07
 -1      3119 8.85550E-08-2.75327E-08-7.57061E-08
 -1      3120 7.14461E-08-1.12601E-08 2.02868E-08
 -1      3121-1.66126E-07-4.90452E-08-5.47692E-07
 -1      3122-1.12086E-07-1.10941E-07-1.07880E-06
 -1      3123-5.16611E-08-1.44125E-07-1.34394E-06
 -1      3124-2.16295E-08-1.57183E-07-1.40017E-06
 -1      3125-2.94980E-09-1.60438E-07-1.38878E-06
 -1      3126 1.01631E-08-1.60291E-07-1.36922E-06
 -1      3127 1.90598E-08-1.59848E-07-1.35818E-06
 -1      3128 2.48759E-08-1.59716E-07-1.35382E-06
 -1      3129 2.84870E-08-1.59820E-07-1.35263E-06
 -1      3130 3.07794E-08-1.59975E-07-1.35251E-06
 -1      3131 3.23665E-08-1.60097E-07-1.35271E-06
 -1      3132 3.36424E-08-1.60149E-07-1.35298E-06
 -1      3133 3.48584E-08-1.60045E-07-1.35286E-06
 -1      3134 3.62172E-08-1.59568E-07-1.35072E-06
 -1      3135 3.83983E-08-1.58441E-07-1.34287E-06
 -1      3136 4.25396E-08-1.56725E-07-1.32410E-06
 -1      3137 5.04727E-08-1.55460E-07-1.30139E-06
 -1      3138 5.92755E-08-1.57232E-07-1.31355E-06
 -1      3139 3.63141E-08-1.64997E-07-1.48984E-06
 -1      3140 8.48178E-08-1.93793E-07-1.72708E-06
 -1      3141 1.49933E-07-1.10557E-07-9.22681E-07
 -1      3142 9.38100E-08-1.98564E-08-7.89212E-08
 -1      3143 6.16487E-08-8.23442E-09 2.39701E-08
 -1      3144-1.73521E-07-1.92621E-08-6.20085E-07
 -1      3145-1.14872E-07-4.47828E-08-1.24296E-06
 -1      3146-4.85688E-08-6.03995E-08-1.55310E-06
 -1      3147-1.73813E-08-6.70508E-08-1.61792E-06
 -1      3148 9.00827E-10-6.89619E-08-1.60547E-06
 -1      3149 1.35084E-08-6.90685E-08-1.58366E-06
 -1      3150 2.20946E-08-6.89099E-08-1.57131E-06
 -1      3151 2.77934E-08-6.88551E-08-1.56638E-06
 -1      3152 3.13705E-08-6.89054E-08-1.56501E-06
 -1      3153 3.36539E-08-6.89793E-08-1.56487E-06
 -1      3154 3.52293E-08-6.90375E-08-1.56509E-06
 -1      3155 3.64854E-08-6.90599E-08-1.56539E-06
 -1      3156 3.76780E-08-6.90024E-08-1.56523E-06
 -1      3157 3.90484E-08-6.87683E-08-1.56281E-06
 -1      3158 4.13062E-08-6.82418E-08-1.55394E-06
 -1      3159 4.55891E-08-6.75681E-08-1.53282E-06
 -1      3160 5.35562E-08-6.72576E-08-1.50619E-06
 -1      3161 6.11152E-08-6.84071E-08-1.51842E-06
 -1      3162 3.31565E-08-7.22139E-08-1.72476E-06
 -1      3163 8.68152E-08-8.04058E-08-2.00746E-06
 -1      3164 1.61322E-07-4.99492E-08-1.08175E-06
 -1      3165 9.66933E-08-1.18216E-08-8.84919E-08
 -1      3166 5.68950E-08-4.02020E-09 2.82522E-08
 -1      3167-1.75741E-07 5.83064E-13-6.38833E-07
 -1      3168-1.15738E-07-4.19832E-14-1.28621E-06
 -1      3169-4.76592E-08 4.40105E-14-1.61026E-06
 -1      3170-1.60969E-08 7.26028E-15-1.67808E-06
 -1      3171 2.08323E-09 9.58961E-15-1.66546E-06
 -1      3172 1.45298E-08 4.07995E-15-1.64308E-06
 -1      3173 2.30158E-08 2.23367E-15-1.63036E-06
 -1      3174 2.86761E-08 7.56973E-16-1.62526E-06
 -1      3175 3.22417E-08 1.65864E-16-1.62384E-06
 -1      3176 3.45222E-08-8.45333E-17-1.62368E-06
 -1      3177 3.60940E-08-8.56271E-17-1.62391E-06
 -1      3178 3.73431E-08-5.38180E-17-1.62421E-06
 -1      3179 3.85290E-08 1.41892E-16-1.62405E-06
 -1      3180 3.99033E-08 3.74087E-16-1.62153E-06
 -1      3181 4.21805E-08 5.11830E-16-1.61236E-06
 -1      3182 4.65148E-08 6.96520E-16-1.59063E-06
 -1      3183 5.44350E-08 9.31454E-16-1.56288E-06
 -1      3184 6.16170E-08 1.16163E-15-1.57573E-06
 -1      3185 3.22772E-08 1.46342E-15-1.79206E-06
 -1      3186 8.72337E-08 1.28863E-15-2.08328E-06
 -1      3187 1.64364E-07 9.39532E-16-1.12855E-06
 -1      3188 9.74935E-08 6.70509E-16-9.39210E-08
 -1      3189 5.54786E-08 1.89210E-16 3.01197E-08
 -1      3190-1.73521E-07 1.92624E-08-6.20084E-07
 -1      3191-1.14872E-07 4.47829E-08-1.24296E-06
 -1      3192-4.85687E-08 6.03995E-08-1.55310E-06
 -1      3193-1.73813E-08 6.70508E-08-1.61792E-06
 -1      3194 9.00827E-10 6.89619E-08-1.60547E-06
 -1      3195 1.35084E-08 6.90685E-08-1.58366E-06
 -1      3196 2.20946E-08 6.89099E-08-1.57131E-06
 -1      3197 2.77934E-08 6.88551E-08-1.56638E-06
 -1      3198 3.13705E-08 6.89054E-08-1.56501E-06
 -1      3199 3.36539E-08 6.89793E-08-1.56487E-06
 -1      3200 3.52293E-08 6.90375E-08-1.56509E-06
 -1      3201 3.64854E-08 6.90599E-08-1.56539E-06
 -1      3202 3.76780E-08 6.90024E-08-1.56523E-06
 -1      3203 3.90484E-08 6.87683E-08-1.56281E-06
 -1      3204 4.13062E-08 6.82418E-08-1.55394E-06
 -1      3205 4.55891E-08 6.75681E-08-1.53282E-06
 -1      3206 5.35562E-08 6.72576E-08-1.50619E-06
 -1      3207 6.11152E-08 6.84071E-08-1.51842E-06
 -1      3208 3.31565E-08 7.22139E-08-1.72476E-06
 -1      3209 8.68152E-08 8.04058E-08-2.00746E-06
 -1      3210 1.61322E-07 4.99492E-08-1.08175E-06
 -1      3211 9.66933E-08 1.18216E-08-8.84919E-08
 -1      3212 5.68950E-08 4.02020E-09 2.82522E-08
 -1      3213-1.66126E-07 4.90450E-08-5.47692E-07
 -1      3214-1.12086E-07 1.10941E-07-1.07880E-06
 -1      3215-5.16611E-08 1.44125E-07-1.34394E-06
 -1      3216-2.16295E-08 1.57183E-07-1.40017E-06
 -1      3217-2.94980E-09 1.60438E-07-1.38878E-06
 -1      3218 1.01631E-08 1.60291E-07-1.36922E-06
 -1      3219 1.90598E-08 1.59848E-07-1.35818E-06
 -1      3220 2.48759E-08 1.59716E-07-1.35382E-06
 -1      3221 2.84870E-08 1.59820E-07-1.35263E-06
 -1      3222 3.07794E-08 1.59975E-07-1.35251E-06
 -1      3223 3.23665E-08 1.60097E-07-1.35271E-06
 -1      3224 3.36424E-08 1.60149E-07-1.35298E-06
 -1      3225 3.48584E-08 1.60045E-07-1.35286E-06
 -1      3226 3.62172E-08 1.59568E-07-1.35072E-06
 -1      3227 3.83983E-08 1.58441E-07-1.34287E-06
 -1      3228 4.25396E-08 1.56725E-07-1.32410E-06
 -1      3229 5.04727E-08 1.55460E-07-1.30139E-06
 -1      3230 5.92755E-08 1.57232E-07-1.31355E-06
 -1      3231 3.63141E-08 1.64997E-07-1.48984E-06
 -1      3232 8.48178E-08 1.93793E-07-1.72708E-06
 -1      3233 1.49933E-07 1.10557E-07-9.22681E-07
 -1      3234 9.38100E-08 1.98564E-08-7.89212E-08
 -1      3235 6.16487E-08 8.23442E-09 2.39701E-08
 -1      3236-1.49718E-07 7.44708E-08-4.04884E-07
 -1      3237-1.04898E-07 1.62080E-07-7.61735E-07
 -1      3238-5.68015E-08 2.08365E-07-9.52346E-07
 -1      3239-2.84953E-08 2.26591E-07-9.95792E-07
 -1      3240-9.01798E-09 2.30907E-07-9.87154E-07
 -1      3241 5.01797E-09 2.30593E-07-9.72080E-07
 -1      3242 1.44780E-08 2.29998E-07-9.63515E-07
 -1      3243 2.04940E-08 2.29866E-07-9.60182E-07
 -1      3244 2.41642E-08 2.30051E-07-9.59295E-07
 -1      3245 2.64739E-08 2.30284E-07-9.59219E-07
 -1      3246 2.80816E-08 2.30460E-07-9.59370E-07
 -1      3247 2.93933E-08 2.30530E-07-9.59582E-07
 -1      3248 3.06459E-08 2.30384E-07-9.59513E-07
 -1      3249 3.19964E-08 2.29701E-07-9.57891E-07
 -1      3250 3.39813E-08 2.28073E-07-9.51824E-07
 -1      3251 3.77492E-08 2.25370E-07-9.37732E-07
 -1      3252 4.55630E-08 2.23239E-07-9.22188E-07
 -1      3253 5.51327E-08 2.25409E-07-9.37536E-07
 -1      3254 4.70697E-08 2.36596E-07-1.06781E-06
 -1      3255 8.04895E-08 2.78848E-07-1.19636E-06
 -1      3256 1.20018E-07 1.53061E-07-6.48989E-07
 -1      3257 8.85550E-08 2.75327E-08-7.57061E-08
 -1      3258 7.14461E-08 1.12601E-08 2.02868E-08
 -1      3259-1.36478E-07 7.51758E-08-2.53545E-07
 -1      3260-1.01419E-07 1.52867E-07-4.40564E-07
 -1      3261-6.42726E-08 2.01167E-07-5.57763E-07
 -1      3262-3.64689E-08 2.22124E-07-5.87873E-07
 -1      3263-1.54883E-08 2.27863E-07-5.82007E-07
 -1      3264-2.12402E-10 2.28214E-07-5.71591E-07
 -1      3265 9.88077E-09 2.27954E-07-5.65624E-07
 -1      3266 1.60950E-08 2.28046E-07-5.63416E-07
 -1      3267 1.98220E-08 2.28376E-07-5.62903E-07
 -1      3268 2.21528E-08 2.28697E-07-5.62915E-07
 -1      3269 2.37905E-08 2.28914E-07-5.63059E-07
 -1      3270 2.51548E-08 2.28992E-07-5.63249E-07
 -1      3271 2.64742E-08 2.28817E-07-5.63263E-07
 -1      3272 2.78744E-08 2.28045E-07-5.62199E-07
 -1      3273 2.96875E-08 2.26233E-07-5.57955E-07
 -1      3274 3.30433E-08 2.23336E-07-5.48708E-07
 -1      3275 4.03588E-08 2.21506E-07-5.40340E-07
 -1      3276 5.07847E-08 2.24554E-07-5.59279E-07
 -1      3277 5.82017E-08 2.36882E-07-6.42802E-07
 -1      3278 7.78419E-08 2.60161E-07-6.70124E-07
 -1      3279 9.57773E-08 1.50244E-07-3.84181E-07
 -1      3280 8.84996E-08 3.88008E-08-6.78065E-08
 -1      3281 8.31752E-08 1.18533E-08 1.76744E-08
 -1      3282-1.36472E-07 6.77621E-08-1.51144E-07
 -1      3283-1.07833E-07 1.28048E-07-2.45394E-07
 -1      3284-7.37928E-08 1.74339E-07-3.14280E-07
 -1      3285-4.38193E-08 1.96445E-07-3.33388E-07
 -1      3286-2.03436E-08 2.03466E-07-3.28198E-07
 -1      3287-3.77560E-09 2.04760E-07-3.20379E-07
 -1      3288 6.79849E-09 2.05059E-07-3.16142E-07
 -1      3289 1.31341E-08 2.05497E-07-3.14773E-07
 -1      3290 1.68962E-08 2.06019E-07-3.14595E-07
 -1      3291 1.92567E-08 2.06442E-07-3.14719E-07
 -1      3292 2.09363E-08 2.06705E-07-3.14889E-07
 -1      3293 2.23666E-08 2.06795E-07-3.15091E-07
 -1      3294 2.37951E-08 2.06610E-07-3.15203E-07
 -1      3295 2.53406E-08 2.05820E-07-3.14546E-07
 -1      3296 2.71964E-08 2.03963E-07-3.11517E-07
 -1      3297 3.02836E-08 2.01129E-07-3.05031E-07
 -1      3298 3.67616E-08 1.99683E-07-3.00587E-07
 -1      3299 4.77923E-08 2.03504E-07-3.19467E-07
 -1      3300 6.20768E-08 2.15101E-07-3.72371E-07
 -1      3301 8.20884E-08 2.16993E-07-3.68407E-07
 -1      3302 9.77451E-08 1.36079E-07-2.19133E-07
 -1      3303 9.77788E-08 4.67728E-08-4.43287E-08
 -1      3304 9.39696E-08 1.16937E-08 1.73315E-08
 -3
    1PSTEP                        17           6           1          
  100CL  106 1.000000000        3304                     0    6           1
 -4  STRESS      6    1
 -5  SXX         1    4    1    1
 -5  SYY         1    4    2    2
 -5  SZZ         1    4    3    3
 -5  SXY         1    4    1    2
 -5  SYZ         1    4    2    3
 -5  SZX         1    4    3    1
 -1         1 5.26605E+04 2.10599E+04 2.07620E+04 4.32339E+03-8.22323E-01-8.55561E+01
 -1         2 9.67294E+04 2.18427E+02-3.65089E+04-2.20090E+04-3.19271E+03-2.16844E+04
 -1         3 5.10418E+04 2.04123E+04 2.01625E+04 2.75951E+03 5.24057E-01-8.01888E+01
 -1         4 5.91770E+04-8.61862E+03-4.47736E+04-1.27691E+04-1.00212E+03-9.85490E+03
 -1         5 5.06263E+04 2.02352E+04 2.00156E+04 1.35482E+03 7.05703E-01-7.19994E+01
 -1         6 5.56181E+04-6.69052E+03-4.49842E+04-2.13923E+03-2.85067E+02-1.01261E+04
 -1         7 5.05354E+04 2.01937E+04 1.99859E+04 1.43080E-04-1.38475E-07-6.93373E+01
 -1         8 5.48993E+04-6.33921E+03-4.50799E+04 9.14891E-07 1.79702E-06-1.00106E+04
 -1         9 5.06263E+04 2.02352E+04 2.00156E+04-1.35482E+03-7.05706E-01-7.19993E+01
 -1        10 5.56181E+04-6.69052E+03-4.49842E+04 2.13923E+03 2.85067E+02-1.01261E+04
 -1        11 5.10418E+04 2.04123E+04 2.01625E+04-2.75951E+03-5.24058E-01-8.01888E+01
 -1        12 5.91770E+04-8.61862E+03-4.47736E+04 1.27691E+04 1.00212E+03-9.85490E+03
 -1        13 5.26605E+04 2.10599E+04 2.07620E+04-4.32339E+03 8.22323E-01-8.55561E+01
 -1        14 9.67294E+04 2.18427E+02-3.65089E+04 2.20090E+04 3.19271E+03-2.16844E+04
 -1        15 5.31704E+04 2.12535E+04 2.10008E+04 4.33640E+03-6.78722E+01-3.89528E+03
 -1        16 6.07247E+04-3.15972E+03-4.55045E+04-1.06818E+04-1.57468E+03-1.39917E+04
 -1        17 5.15567E+04 2.06078E+04 2.04061E+04 2.78430E+03-3.93478E+01-3.83202E+03
 -1        18 4.32605E+04-9.31143E+03-5.04924E+04-7.26268E+03-5.21322E+02-7.72744E+03
 -1        19 5.11540E+04 2.04340E+04 2.02658E+04 1.37418E+03-1.67916E+01-3.73736E+03
 -1        20 3.83534E+04-1.15239E+04-5.15742E+04-2.39925E+03-3.46937E+02-7.38435E+03
 -1        21 5.10685E+04 2.03940E+04 2.02387E+04 1.11632E-04-2.03050E-06-3.69385E+03
 -1        22 3.75258E+04-1.20744E+04-5.16547E+04-5.45883E-07 2.04311E-06-7.34781E+03
 -1        23 5.11540E+04 2.04340E+04 2.02658E+04-1.37418E+03 1.67916E+01-3.73736E+03
 -1        24 3.83534E+04-1.15239E+04-5.15742E+04 2.39925E+03 3.46937E+02-7.38435E+03
 -1        25 5.15567E+04 2.06078E+04 2.04061E+04-2.78430E+03 3.93478E+01-3.83202E+03
 -1        26 4.32605E+04-9.31143E+03-5.04924E+04 7.26268E+03 5.21322E+02-7.72744E+03
 -1        27 5.31704E+04 2.12535E+04 2.10008E+04-4.33640E+03 6.78722E+01-3.89528E+03
 -1        28 6.07247E+04-3.15972E+03-4.55045E+04 1.06818E+04 1.57468E+03-1.39917E+04
 -1        29 5.42648E+04 2.16730E+04 2.15569E+04 4.35015E+03-1.37436E+02-7.95756E+03
 -1        30 5.55712E+04-1.91873E+03-4.92270E+04-1.20257E+04-3.41269E+02-5.75537E+03
 -1        31 5.26876E+04 2.10401E+04 2.09852E+04 2.85557E+03-7.92664E+01-7.77810E+03
 -1        32 3.73602E+04-9.68358E+03-5.61966E+04-7.30446E+03 3.57449E+02-4.68865E+03
 -1        33 5.23422E+04 2.08828E+04 2.08703E+04 1.43515E+03-3.36639E+01-7.52887E+03
 -1        34 3.43615E+04-1.19222E+04-5.51447E+04-2.03005E+03 4.59976E+02-4.06517E+03
 -1        35 5.22813E+04 2.08497E+04 2.08526E+04 1.06753E-04-3.26936E-06-7.41780E+03
 -1        36 3.35876E+04-1.31698E+04-5.46041E+04-8.68535E-07 2.49979E-06-3.99291E+03
 -1        37 5.23422E+04 2.08828E+04 2.08703E+04-1.43515E+03 3.36639E+01-7.52887E+03
 -1        38 3.43615E+04-1.19222E+04-5.51447E+04 2.03005E+03-4.59976E+02-4.06517E+03
 -1        39 5.26876E+04 2.10401E+04 2.09852E+04-2.85557E+03 7.92664E+01-7.77810E+03
 -1        40 3.73602E+04-9.68358E+03-5.61966E+04 7.30446E+03-3.57449E+02-4.68865E+03
 -1        41 5.42648E+04 2.16730E+04 2.15569E+04-4.35015E+03 1.37436E+02-7.95756E+03
 -1        42 5.55712E+04-1.91873E+03-4.92270E+04 1.20257E+04 3.41269E+02-5.75537E+03
 -1        43 5.62523E+04 2.24343E+04 2.25643E+04 4.33688E+03-2.11493E+02-1.25989E+04
 -1        44 5.09067E+04-4.16324E+03-5.84089E+04-1.22846E+04 1.09645E+03-4.69282E+03
 -1        45 5.47939E+04 2.18422E+04 2.20602E+04 2.96306E+03-1.22020E+02-1.21429E+04
 -1        46 3.45128E+04-1.12445E+04-6.21049E+04-7.35271E+03 2.42743E+03-4.04923E+03
 -1        47 5.45770E+04 2.17236E+04 2.19872E+04 1.52700E+03-5.30333E+01-1.15836E+04
 -1        48 3.22373E+04-1.40714E+04-5.83900E+04-2.03557E+03 2.15644E+03-3.66723E+03
 -1        49 5.45662E+04 2.17060E+04 2.19799E+04 1.01535E-04-4.77086E-06-1.13518E+04
 -1        50 3.17132E+04-1.57016E+04-5.69561E+04-7.35476E-07 2.17635E-06-3.51409E+03
 -1        51 5.45770E+04 2.17236E+04 2.19872E+04-1.52700E+03 5.30333E+01-1.15836E+04
 -1        52 3.22373E+04-1.40714E+04-5.83900E+04 2.03557E+03-2.15644E+03-3.66723E+03
 -1        53 5.47939E+04 2.18422E+04 2.20602E+04-2.96306E+03 1.22020E+02-1.21429E+04
 -1        54 3.45128E+04-1.12445E+04-6.21049E+04 7.35271E+03-2.42743E+03-4.04923E+03
 -1        55 5.62523E+04 2.24343E+04 2.25643E+04-4.33688E+03 2.11493E+02-1.25989E+04
 -1        56 5.09067E+04-4.16324E+03-5.84089E+04 1.22846E+04-1.09645E+03-4.69282E+03
 -1        57 5.98816E+04 2.38158E+04 2.43203E+04 4.17648E+03-2.87252E+02-1.83809E+04
 -1        58 4.43756E+04-1.03883E+04-7.67783E+04-1.32011E+04 3.83402E+03-4.90221E+03
 -1        59 5.87203E+04 2.33189E+04 2.40098E+04 3.01273E+03-1.72091E+02-1.72061E+04
 -1        60 3.43784E+04-1.24425E+04-6.65084E+04-7.36139E+03 5.41758E+03-3.26453E+03
 -1        61 5.87461E+04 2.32821E+04 2.39572E+04 1.54155E+03-8.26002E+01-1.61006E+04
 -1        62 3.21783E+04-1.72559E+04-5.99823E+04-1.93601E+03 3.62412E+03-2.74737E+03
 -1        63 5.87794E+04 2.32838E+04 2.39259E+04 9.61178E-05-6.12561E-06-1.57168E+04
 -1        64 3.05065E+04-2.02358E+04-5.99760E+04-5.62860E-07 1.63502E-06-2.58010E+03
 -1        65 5.87461E+04 2.32821E+04 2.39572E+04-1.54155E+03 8.26002E+01-1.61006E+04
 -1        66 3.21783E+04-1.72559E+04-5.99823E+04 1.93601E+03-3.62412E+03-2.74737E+03
 -1        67 5.87203E+04 2.33189E+04 2.40098E+04-3.01273E+03 1.72091E+02-1.72061E+04
 -1        68 3.43784E+04-1.24425E+04-6.65084E+04 7.36139E+03-5.41758E+03-3.26453E+03
 -1        69 5.98816E+04 2.38158E+04 2.43203E+04-4.17648E+03 2.87252E+02-1.83809E+04
 -1        70 4.43756E+04-1.03883E+04-7.67783E+04 1.32011E+04-3.83402E+03-4.90221E+03
 -1        71 6.70324E+04 2.64749E+04 2.74860E+04 3.47333E+03-4.17315E+02-2.63198E+04
 -1        72 3.02167E+04-3.17425E+04-1.14898E+05-1.23067E+04 6.63454E+03 2.01635E+03
 -1        73 6.69896E+04 2.63530E+04 2.78067E+04 2.53579E+03-2.28205E+02-2.32060E+04
 -1        74 4.25481E+04-1.29834E+04-6.70515E+04-7.43691E+03 5.70020E+03 2.43186E+03
 -1        75 6.70140E+04 2.63541E+04 2.75186E+04 1.01729E+03-9.29097E+01-2.14860E+04
 -1        76 3.53578E+04-2.04185E+04-6.53584E+04-3.52433E+03 2.82855E+03 2.78618E+03
 -1        77 6.69756E+04 2.63448E+04 2.74555E+04 8.97689E-05-7.48109E-06-2.11679E+04
 -1        78 3.54176E+04-1.77999E+04-6.38213E+04-5.17194E-07 9.96063E-07 2.92799E+03
 -1        79 6.70140E+04 2.63541E+04 2.75186E+04-1.01729E+03 9.29097E+01-2.14860E+04
 -1        80 3.53578E+04-2.04185E+04-6.53584E+04 3.52433E+03-2.82855E+03 2.78618E+03
 -1        81 6.69896E+04 2.63530E+04 2.78067E+04-2.53579E+03 2.28205E+02-2.32060E+04
 -1        82 4.25481E+04-1.29834E+04-6.70515E+04 7.43691E+03-5.70020E+03 2.43186E+03
 -1        83 6.70324E+04 2.64749E+04 2.74860E+04-3.47333E+03 4.17315E+02-2.63198E+04
 -1        84 3.02167E+04-3.17425E+04-1.14898E+05 1.23067E+04-6.63454E+03 2.01635E+03
 -1        85 9.04605E+04 3.46006E+04 3.81144E+04-1.14052E+03 3.15874E+02-4.00866E+04
 -1        86 9.98178E+04 1.05733E+03-1.06038E+05-4.34198E+04 3.07859E+04-7.04413E+03
 -1        87 8.84401E+04 3.38236E+04 3.65950E+04-5.44067E+02 7.56527E+01-3.12887E+04
 -1        88 9.13520E+04 2.79596E+04-4.10439E+04-2.53515E+04 1.73957E+04 1.06941E+03
 -1        89 8.72550E+04 3.35403E+04 3.59477E+04-1.19410E+02-2.29206E+01-2.97725E+04
 -1        90 7.58197E+04 1.66728E+04-5.02809E+04-8.00621E+03 1.53713E+03 3.60083E+03
 -1        91 8.68716E+04 3.34101E+04 3.57454E+04 8.09330E-05-8.58942E-06-2.93481E+04
 -1        92 7.32019E+04 1.35695E+04-5.03253E+04-9.43053E-07 4.73160E-07 4.12657E+03
 -1        93 8.72550E+04 3.35403E+04 3.59477E+04 1.19411E+02 2.29206E+01-2.97725E+04
 -1        94 7.58197E+04 1.66728E+04-5.02809E+04 8.00621E+03-1.53713E+03 3.60083E+03
 -1        95 8.84401E+04 3.38236E+04 3.65950E+04 5.44068E+02-7.56527E+01-3.12887E+04
 -1        96 9.13520E+04 2.79596E+04-4.10439E+04 2.53515E+04-1.73957E+04 1.06941E+03
 -1        97 9.04605E+04 3.46006E+04 3.81144E+04 1.14052E+03-3.15874E+02-4.00866E+04
 -1        98 9.98178E+04 1.05733E+03-1.06038E+05 4.34198E+04-3.07859E+04-7.04413E+03
 -1        99 4.06276E+04-4.08092E+03-1.51897E+04 1.16586E+02 3.24414E+01 2.47246E+02
 -1       100 4.06276E+04-4.08092E+03-1.51897E+04-1.16586E+02-3.24413E+01 2.47246E+02
 -1       101 4.85470E+04-6.43536E+02-2.50147E+04-1.80764E+02 1.93228E+01 5.69954E+02
 -1       102 4.85470E+04-6.43536E+02-2.50147E+04 1.80764E+02-1.93229E+01 5.69954E+02
 -1       103 5.11161E+04-4.52000E+02-2.77788E+04-1.46117E+02 5.09042E+01 5.77275E+02
 -1       104 5.11161E+04-4.52000E+02-2.77788E+04 1.46117E+02-5.09042E+01 5.77275E+02
 -1       105 5.05968E+04 1.05530E+01-2.75529E+04-5.04010E+01 8.56377E+01 4.03489E+02
 -1       106 5.05968E+04 1.05530E+01-2.75529E+04 5.04010E+01-8.56377E+01 4.03489E+02
 -1       107 4.97741E+04-6.86663E+00-2.71296E+04-9.76597E+00 1.01406E+02 2.91316E+02
 -1       108 4.97741E+04-6.86665E+00-2.71296E+04 9.76603E+00-1.01406E+02 2.91316E+02
 -1       109 4.94743E+04-3.59260E+01-2.68694E+04 2.78302E+00 1.06351E+02 2.52526E+02
 -1       110 4.94743E+04-3.59260E+01-2.68694E+04-2.78296E+00-1.06351E+02 2.52526E+02
 -1       111 4.94835E+04-5.79485E+01-2.67670E+04 5.42564E+00 1.06410E+02 2.44291E+02
 -1       112 4.94835E+04-5.79485E+01-2.67670E+04-5.42559E+00-1.06410E+02 2.44291E+02
 -1       113 4.96098E+04-6.57911E+01-2.67374E+04 4.79942E+00 1.05827E+02 2.44404E+02
 -1       114 4.96098E+04-6.57911E+01-2.67374E+04-4.79937E+00-1.05827E+02 2.44404E+02
 -1       115 4.97664E+04-6.84974E+01-2.67343E+04 4.14343E+00 1.05294E+02 2.45863E+02
 -1       116 4.97664E+04-6.84974E+01-2.67343E+04-4.14338E+00-1.05294E+02 2.45863E+02
 -1       117 4.99277E+04-6.86903E+01-2.67372E+04 3.83545E+00 1.04947E+02 2.46617E+02
 -1       118 4.99277E+04-6.86903E+01-2.67372E+04-3.83541E+00-1.04947E+02 2.46617E+02
 -1       119 5.00905E+04-6.83930E+01-2.67416E+04 3.96604E+00 1.04650E+02 2.46307E+02
 -1       120 5.00905E+04-6.83930E+01-2.67416E+04-3.96601E+00-1.04650E+02 2.46307E+02
 -1       121 5.02569E+04-6.90401E+01-2.67458E+04 4.68792E+00 1.04210E+02 2.44727E+02
 -1       122 5.02569E+04-6.90401E+01-2.67458E+04-4.68789E+00-1.04210E+02 2.44727E+02
 -1       123 5.04164E+04-7.40999E+01-2.67395E+04 5.77495E+00 1.03501E+02 2.41697E+02
 -1       124 5.04164E+04-7.40999E+01-2.67395E+04-5.77493E+00-1.03501E+02 2.41697E+02
 -1       125 5.05227E+04-8.65606E+01-2.66811E+04 7.20092E+00 1.02651E+02 2.40944E+02
 -1       126 5.05227E+04-8.65606E+01-2.66811E+04-7.20091E+00-1.02651E+02 2.40944E+02
 -1       127 5.03874E+04-1.34384E+02-2.64980E+04-6.10896E-01 1.03287E+02 2.50808E+02
 -1       128 5.03874E+04-1.34384E+02-2.64980E+04 6.10905E-01-1.03287E+02 2.50808E+02
 -1       129 4.96360E+04-1.83426E+02-2.59886E+04-2.52272E+01 1.16142E+02 3.26639E+02
 -1       130 4.96360E+04-1.83426E+02-2.59886E+04 2.52272E+01-1.16142E+02 3.26639E+02
 -1       131 4.80351E+04-1.55032E+02-2.53210E+04-7.20972E+01 1.43883E+02 5.56140E+02
 -1       132 4.80351E+04-1.55032E+02-2.53210E+04 7.20972E+01-1.43883E+02 5.56140E+02
 -1       133 4.81594E+04 9.23881E+02-2.48015E+04-5.89405E+02 2.10802E+02 4.68416E+02
 -1       134 4.81594E+04 9.23881E+02-2.48015E+04 5.89405E+02-2.10802E+02 4.68416E+02
 -1       135 7.24136E+04 6.69756E+03-2.92409E+04 3.61789E+03 2.70849E+02 2.82052E+03
 -1       136 7.24136E+04 6.69756E+03-2.92409E+04-3.61789E+03-2.70849E+02 2.82052E+03
 -1       137 4.06841E+04-4.23391E+03-1.59407E+04 1.27512E+02 1.17393E+02-2.41338E+03
 -1       138 4.06840E+04-4.23391E+03-1.59407E+04-1.27512E+02-1.17393E+02-2.41338E+03
 -1       139 4.84535E+04-7.42913E+02-2.55960E+04-1.72634E+02 1.41267E+02-3.46809E+02
 -1       140 4.84535E+04-7.42913E+02-2.55960E+04 1.72634E+02-1.41267E+02-3.46809E+02
 -1       141 5.08627E+04-5.40447E+02-2.80702E+04-1.40417E+02 1.57185E+02 6.05772E+02
 -1       142 5.08627E+04-5.40447E+02-2.80702E+04 1.40417E+02-1.57185E+02 6.05772E+02
 -1       143 5.03127E+04-9.80338E+01-2.78070E+04-4.67593E+01 1.62793E+02 5.82722E+02
 -1       144 5.03127E+04-9.80338E+01-2.78070E+04 4.67593E+01-1.62793E+02 5.82722E+02
 -1       145 4.95556E+04-1.29422E+02-2.74152E+04-6.53127E+00 1.66359E+02 3.83896E+02
 -1       146 4.95556E+04-1.29422E+02-2.74152E+04 6.53133E+00-1.66359E+02 3.83896E+02
 -1       147 4.93106E+04-1.55610E+02-2.71704E+04 4.50312E+00 1.66851E+02 2.71749E+02
 -1       148 4.93106E+04-1.55610E+02-2.71704E+04-4.50306E+00-1.66851E+02 2.71749E+02
 -1       149 4.93399E+04-1.74443E+02-2.70717E+04 6.58906E+00 1.66580E+02 2.29850E+02
 -1       150 4.93399E+04-1.74443E+02-2.70717E+04-6.58900E+00-1.66581E+02 2.29850E+02
 -1       151 4.94709E+04-1.81195E+02-2.70436E+04 5.84786E+00 1.66358E+02 2.19300E+02
 -1       152 4.94709E+04-1.81195E+02-2.70436E+04-5.84781E+00-1.66358E+02 2.19300E+02
 -1       153 4.96277E+04-1.83381E+02-2.70404E+04 5.20605E+00 1.66205E+02 2.18733E+02
 -1       154 4.96277E+04-1.83381E+02-2.70404E+04-5.20601E+00-1.66205E+02 2.18733E+02
 -1       155 4.97882E+04-1.83378E+02-2.70429E+04 4.90830E+00 1.66107E+02 2.19343E+02
 -1       156 4.97882E+04-1.83378E+02-2.70429E+04-4.90827E+00-1.66107E+02 2.19343E+02
 -1       157 4.99498E+04-1.82945E+02-2.70468E+04 5.04336E+00 1.66034E+02 2.18536E+02
 -1       158 4.99498E+04-1.82945E+02-2.70468E+04-5.04333E+00-1.66034E+02 2.18536E+02
 -1       159 5.01146E+04-1.83556E+02-2.70507E+04 5.67258E+00 1.65889E+02 2.16458E+02
 -1       160 5.01146E+04-1.83556E+02-2.70507E+04-5.67256E+00-1.65889E+02 2.16458E+02
 -1       161 5.02745E+04-1.87459E+02-2.70442E+04 6.88379E+00 1.65826E+02 2.17439E+02
 -1       162 5.02745E+04-1.87459E+02-2.70442E+04-6.88377E+00-1.65826E+02 2.17439E+02
 -1       163 5.03842E+04-2.01578E+02-2.69914E+04 8.07250E+00 1.64834E+02 2.36753E+02
 -1       164 5.03842E+04-2.01578E+02-2.69914E+04-8.07248E+00-1.64834E+02 2.36753E+02
 -1       165 5.02986E+04-2.29498E+02-2.68028E+04 2.46453E+00 1.67018E+02 3.13906E+02
 -1       166 5.02986E+04-2.29498E+02-2.68028E+04-2.46452E+00-1.67018E+02 3.13906E+02
 -1       167 4.96200E+04-3.34866E+02-2.63875E+04-1.55602E+01 1.57551E+02 5.25447E+02
 -1       168 4.96200E+04-3.34866E+02-2.63875E+04 1.55602E+01-1.57551E+02 5.25447E+02
 -1       169 4.80421E+04-1.74123E+02-2.55804E+04-1.14487E+02 2.11515E+02 8.65685E+02
 -1       170 4.80421E+04-1.74123E+02-2.55804E+04 1.14487E+02-2.11516E+02 8.65685E+02
 -1       171 4.92199E+04 6.66403E+02-2.52875E+04-1.97870E+02 5.32150E+01 3.09614E+02
 -1       172 4.92199E+04 6.66403E+02-2.52875E+04 1.97870E+02-5.32150E+01 3.09614E+02
 -1       173 5.78920E+04 2.92963E+03-3.09595E+04 3.96956E+02 6.81170E+02-9.71229E+02
 -1       174 5.78920E+04 2.92963E+03-3.09595E+04-3.96956E+02-6.81170E+02-9.71229E+02
 -1       175 4.04798E+04-4.75842E+03-1.84922E+04 1.68732E+02 2.97191E+02-4.86450E+03
 -1       176 4.04798E+04-4.75842E+03-1.84922E+04-1.68732E+02-2.97191E+02-4.86450E+03
 -1       177 4.79877E+04-1.07798E+03-2.74677E+04-1.53660E+02 3.75488E+02-7.07449E+02
 -1       178 4.79877E+04-1.07798E+03-2.74677E+04 1.53661E+02-3.75488E+02-7.07449E+02
 -1       179 5.00029E+04-7.98485E+02-2.90844E+04-1.28801E+02 4.14177E+02 9.48493E+02
 -1       180 5.00029E+04-7.98485E+02-2.90844E+04 1.28801E+02-4.14177E+02 9.48493E+02
 -1       181 4.94027E+04-4.39347E+02-2.87610E+04-3.66868E+01 4.29379E+02 8.17264E+02
 -1       182 4.94027E+04-4.39347E+02-2.87610E+04 3.66869E+01-4.29379E+02 8.17264E+02
 -1       183 4.88571E+04-5.04313E+02-2.84653E+04-8.65981E-01 4.35562E+02 4.57632E+02
 -1       184 4.88571E+04-5.04313E+02-2.84653E+04 8.66043E-01-4.35562E+02 4.57632E+02
 -1       185 4.87622E+04-5.21077E+02-2.82576E+04 6.27201E+00 4.35898E+02 2.62214E+02
 -1       186 4.87622E+04-5.21077E+02-2.82576E+04-6.27195E+00-4.35898E+02 2.62214E+02
 -1       187 4.88437E+04-5.33023E+02-2.81716E+04 6.78268E+00 4.35459E+02 1.88996E+02
 -1       188 4.88437E+04-5.33023E+02-2.81716E+04-6.78263E+00-4.35459E+02 1.88996E+02
 -1       189 4.89863E+04-5.37417E+02-2.81479E+04 5.78449E+00 4.35155E+02 1.71473E+02
 -1       190 4.89863E+04-5.37417E+02-2.81479E+04-5.78444E+00-4.35155E+02 1.71473E+02
 -1       191 4.91432E+04-5.38655E+02-2.81446E+04 5.13469E+00 4.34954E+02 1.70790E+02
 -1       192 4.91432E+04-5.38655E+02-2.81446E+04-5.13464E+00-4.34954E+02 1.70790E+02
 -1       193 4.93009E+04-5.38505E+02-2.81462E+04 4.86662E+00 4.34871E+02 1.71966E+02
 -1       194 4.93009E+04-5.38505E+02-2.81462E+04-4.86658E+00-4.34871E+02 1.71966E+02
 -1       195 4.94591E+04-5.38148E+02-2.81491E+04 4.96637E+00 4.34801E+02 1.70465E+02
 -1       196 4.94591E+04-5.38148E+02-2.81491E+04-4.96634E+00-4.34801E+02 1.70465E+02
 -1       197 4.96202E+04-5.38224E+02-2.81518E+04 5.52311E+00 4.34667E+02 1.66590E+02
 -1       198 4.96202E+04-5.38224E+02-2.81518E+04-5.52309E+00-4.34667E+02 1.66590E+02
 -1       199 4.97798E+04-5.41406E+02-2.81464E+04 6.70674E+00 4.34267E+02 1.67886E+02
 -1       200 4.97798E+04-5.41406E+02-2.81464E+04-6.70672E+00-4.34267E+02 1.67886E+02
 -1       201 4.99114E+04-5.48209E+02-2.80998E+04 8.31700E+00 4.33935E+02 2.02058E+02
 -1       202 4.99114E+04-5.48209E+02-2.80998E+04-8.31698E+00-4.33935E+02 2.02058E+02
 -1       203 4.99396E+04-5.67860E+02-2.79328E+04 7.78858E+00 4.32158E+02 3.39502E+02
 -1       204 4.99396E+04-5.67860E+02-2.79328E+04-7.78857E+00-4.32158E+02 3.39502E+02
 -1       205 4.95086E+04-6.48328E+02-2.76188E+04-1.24444E+01 4.34630E+02 7.17301E+02
 -1       206 4.95086E+04-6.48328E+02-2.76188E+04 1.24444E+01-4.34630E+02 7.17301E+02
 -1       207 4.83828E+04-6.16629E+02-2.69184E+04-6.55691E+01 4.54833E+02 1.32436E+03
 -1       208 4.83828E+04-6.16629E+02-2.69184E+04 6.55691E+01-4.54833E+02 1.32436E+03
 -1       209 4.75034E+04-2.42592E+02-2.68917E+04-3.56591E+02 4.30148E+02 9.21961E+02
 -1       210 4.75034E+04-2.42592E+02-2.68917E+04 3.56591E+02-4.30148E+02 9.21961E+02
 -1       211 5.60366E+04 3.12018E+03-2.79821E+04 5.02727E+02 8.18164E+02-3.32950E+03
 -1       212 5.60366E+04 3.12018E+03-2.79821E+04-5.02727E+02-8.18164E+02-3.32950E+03
 -1       213 3.96683E+04-5.97404E+03-2.38171E+04 2.73933E+02 6.70494E+02-7.12200E+03
 -1       214 3.96683E+04-5.97404E+03-2.38171E+04-2.73932E+02-6.70494E+02-7.12200E+03
 -1       215 4.68030E+04-1.80680E+03-3.10291E+04-1.22124E+02 8.01124E+02-6.88347E+02
 -1       216 4.68030E+04-1.80680E+03-3.10291E+04 1.22124E+02-8.01124E+02-6.88347E+02
 -1       217 4.81170E+04-1.45631E+03-3.13785E+04-1.09660E+02 8.78711E+02 1.21744E+03
 -1       218 4.81170E+04-1.45631E+03-3.13785E+04 1.09660E+02-8.78711E+02 1.21744E+03
 -1       219 4.75585E+04-1.28480E+03-3.11418E+04-1.89995E+01 9.02710E+02 9.01773E+02
 -1       220 4.75585E+04-1.28480E+03-3.11418E+04 1.89995E+01-9.02710E+02 9.01773E+02
 -1       221 4.74170E+04-1.37421E+03-3.09703E+04 8.17419E+00 9.08828E+02 4.68017E+02
 -1       222 4.74170E+04-1.37421E+03-3.09703E+04-8.17413E+00-9.08828E+02 4.68017E+02
 -1       223 4.75407E+04-1.37001E+03-3.07990E+04 8.25587E+00 9.07187E+02 2.29463E+02
 -1       224 4.75407E+04-1.37001E+03-3.07990E+04-8.25581E+00-9.07187E+02 2.29463E+02
 -1       225 4.76904E+04-1.37475E+03-3.07363E+04 7.01009E+00 9.06679E+02 1.43732E+02
 -1       226 4.76904E+04-1.37475E+03-3.07363E+04-7.01003E+00-9.06679E+02 1.43732E+02
 -1       227 4.78491E+04-1.37505E+03-3.07167E+04 5.58242E+00 9.06018E+02 1.23655E+02
 -1       228 4.78491E+04-1.37505E+03-3.07167E+04-5.58237E+00-9.06018E+02 1.23655E+02
 -1       229 4.80043E+04-1.37517E+03-3.07136E+04 4.96650E+00 9.05767E+02 1.23450E+02
 -1       230 4.80043E+04-1.37517E+03-3.07136E+04-4.96645E+00-9.05767E+02 1.23450E+02
 -1       231 4.81576E+04-1.37497E+03-3.07141E+04 4.74973E+00 9.05659E+02 1.25023E+02
 -1       232 4.81576E+04-1.37497E+03-3.07141E+04-4.74970E+00-9.05659E+02 1.25023E+02
 -1       233 4.83105E+04-1.37472E+03-3.07155E+04 4.79888E+00 9.05583E+02 1.23184E+02
 -1       234 4.83105E+04-1.37472E+03-3.07155E+04-4.79885E+00-9.05583E+02 1.23184E+02
 -1       235 4.84652E+04-1.37465E+03-3.07169E+04 5.21769E+00 9.05415E+02 1.18152E+02
 -1       236 4.84652E+04-1.37465E+03-3.07169E+04-5.21766E+00-9.05415E+02 1.18152E+02
 -1       237 4.86235E+04-1.37497E+03-3.07115E+04 6.31410E+00 9.04859E+02 1.19039E+02
 -1       238 4.86235E+04-1.37497E+03-3.07115E+04-6.31408E+00-9.04859E+02 1.19039E+02
 -1       239 4.87859E+04-1.37652E+03-3.06760E+04 8.85867E+00 9.04130E+02 1.58168E+02
 -1       240 4.87859E+04-1.37652E+03-3.06760E+04-8.85866E+00-9.04130E+02 1.58168E+02
 -1       241 4.89445E+04-1.37598E+03-3.05457E+04 1.18167E+01 9.02002E+02 3.25443E+02
 -1       242 4.89445E+04-1.37598E+03-3.05457E+04-1.18167E+01-9.02002E+02 3.25443E+02
 -1       243 4.90117E+04-1.40595E+03-3.02799E+04 9.28871E+00 9.00295E+02 7.62973E+02
 -1       244 4.90117E+04-1.40595E+03-3.02799E+04-9.28871E+00-9.00295E+02 7.62973E+02
 -1       245 4.81909E+04-1.63950E+03-3.01265E+04-5.98312E+01 9.17709E+02 1.59174E+03
 -1       246 4.81909E+04-1.63950E+03-3.01265E+04 5.98312E+01-9.17709E+02 1.59174E+03
 -1       247 4.67383E+04-1.24917E+03-2.90440E+04-3.15890E+02 9.41636E+02 1.42425E+03
 -1       248 4.67383E+04-1.24917E+03-2.90440E+04 3.15890E+02-9.41636E+02 1.42425E+03
 -1       249 5.54092E+04 2.71124E+03-2.77275E+04 4.44488E+02 1.35725E+03-2.80910E+03
 -1       250 5.54092E+04 2.71124E+03-2.77275E+04-4.44487E+02-1.35725E+03-2.80910E+03
 -1       251 3.71602E+04-8.93435E+03-3.44531E+04 4.81226E+02 1.41993E+03-8.74470E+03
 -1       252 3.71602E+04-8.93435E+03-3.44531E+04-4.81226E+02-1.41993E+03-8.74470E+03
 -1       253 4.41941E+04-3.19448E+03-3.69027E+04-1.03539E+02 1.57494E+03-1.22894E+02
 -1       254 4.41941E+04-3.19448E+03-3.69027E+04 1.03539E+02-1.57494E+03-1.22894E+02
 -1       255 4.42942E+04-3.14001E+03-3.62815E+04-8.69612E+01 1.69510E+03 1.12431E+03
 -1       256 4.42942E+04-3.14001E+03-3.62815E+04 8.69613E+01-1.69510E+03 1.12431E+03
 -1       257 4.41702E+04-3.25539E+03-3.64612E+04 1.29761E+01 1.73079E+03 8.23228E+02
 -1       258 4.41702E+04-3.25539E+03-3.64612E+04-1.29760E+01-1.73079E+03 8.23228E+02
 -1       259 4.46623E+04-3.29025E+03-3.62819E+04 1.68242E+01 1.72563E+03 3.89317E+02
 -1       260 4.46623E+04-3.29025E+03-3.62819E+04-1.68241E+01-1.72563E+03 3.89317E+02
 -1       261 4.49965E+04-3.27184E+03-3.61741E+04 1.02599E+01 1.72450E+03 1.73574E+02
 -1       262 4.49965E+04-3.27184E+03-3.61741E+04-1.02598E+01-1.72450E+03 1.73574E+02
 -1       263 4.52242E+04-3.26659E+03-3.61277E+04 6.85478E+00 1.72284E+03 9.46140E+01
 -1       264 4.52242E+04-3.26659E+03-3.61277E+04-6.85472E+00-1.72284E+03 9.46139E+01
 -1       265 4.53939E+04-3.26186E+03-3.61124E+04 5.01426E+00 1.72202E+03 7.73594E+01
 -1       266 4.53939E+04-3.26186E+03-3.61124E+04-5.01421E+00-1.72202E+03 7.73594E+01
 -1       267 4.55452E+04-3.26111E+03-3.61089E+04 4.51503E+00 1.72171E+03 7.75912E+01
 -1       268 4.55452E+04-3.26111E+03-3.61089E+04-4.51499E+00-1.72171E+03 7.75912E+01
 -1       269 4.56927E+04-3.26086E+03-3.61081E+04 4.38111E+00 1.72159E+03 7.92132E+01
 -1       270 4.56927E+04-3.26086E+03-3.61081E+04-4.38107E+00-1.72159E+03 7.92132E+01
 -1       271 4.58393E+04-3.26087E+03-3.61079E+04 4.36679E+00 1.72151E+03 7.74605E+01
 -1       272 4.58393E+04-3.26087E+03-3.61079E+04-4.36676E+00-1.72151E+03 7.74605E+01
 -1       273 4.59855E+04-3.26063E+03-3.61076E+04 4.56861E+00 1.72132E+03 7.26193E+01
 -1       274 4.59855E+04-3.26063E+03-3.61076E+04-4.56859E+00-1.72132E+03 7.26193E+01
 -1       275 4.61372E+04-3.25868E+03-3.61025E+04 5.49310E+00 1.72079E+03 7.23283E+01
 -1       276 4.61372E+04-3.25868E+03-3.61025E+04-5.49308E+00-1.72079E+03 7.23283E+01
 -1       277 4.63278E+04-3.25082E+03-3.60739E+04 8.94551E+00 1.71912E+03 1.08597E+02
 -1       278 4.63278E+04-3.25082E+03-3.60739E+04-8.94549E+00-1.71912E+03 1.08597E+02
 -1       279 4.66181E+04-3.23818E+03-3.59898E+04 1.54113E+01 1.71817E+03 2.55443E+02
 -1       280 4.66181E+04-3.23818E+03-3.59898E+04-1.54113E+01-1.71817E+03 2.55443E+02
 -1       281 4.71696E+04-3.19830E+03-3.57657E+04 3.31117E+01 1.70799E+03 6.79002E+02
 -1       282 4.71696E+04-3.19830E+03-3.57657E+04-3.31117E+01-1.70799E+03 6.79002E+02
 -1       283 4.73480E+04-3.51126E+03-3.58573E+04-2.08098E+01 1.71320E+03 1.40874E+03
 -1       284 4.73480E+04-3.51126E+03-3.58573E+04 2.08098E+01-1.71320E+03 1.40874E+03
 -1       285 4.58954E+04-3.53607E+03-3.52232E+04-2.98191E+02 1.79861E+03 1.90057E+03
 -1       286 4.58954E+04-3.53607E+03-3.52232E+04 2.98191E+02-1.79861E+03 1.90057E+03
 -1       287 5.71144E+04 1.79451E+03-2.84737E+04 7.97425E+02 2.11822E+03-2.31773E+03
 -1       288 5.71144E+04 1.79451E+03-2.84737E+04-7.97425E+02-2.11822E+03-2.31773E+03
 -1       289 3.06941E+04-1.62199E+04-5.49121E+04 1.04721E+03 1.59962E+03-6.16591E+03
 -1       290 3.06941E+04-1.62199E+04-5.49121E+04-1.04721E+03-1.59962E+03-6.16591E+03
 -1       291 3.87600E+04-6.11622E+03-4.49995E+04-3.59812E+02 1.54347E+03-4.57690E+02
 -1       292 3.87600E+04-6.11622E+03-4.49995E+04 3.59812E+02-1.54347E+03-4.57690E+02
 -1       293 3.64654E+04-8.02994E+03-4.71370E+04 1.89239E+01 1.88128E+03 7.09867E+02
 -1       294 3.64654E+04-8.02994E+03-4.71370E+04-1.89239E+01-1.88128E+03 7.09867E+02
 -1       295 3.82707E+04-7.96305E+03-4.68463E+04 4.23243E+01 1.85046E+03 4.87631E+02
 -1       296 3.82707E+04-7.96305E+03-4.68463E+04-4.23242E+01-1.85046E+03 4.87631E+02
 -1       297 3.92155E+04-7.94621E+03-4.67628E+04 2.66134E+01 1.85846E+03 2.33493E+02
 -1       298 3.92155E+04-7.94621E+03-4.67628E+04-2.66134E+01-1.85846E+03 2.33493E+02
 -1       299 3.97801E+04-7.92050E+03-4.66770E+04 1.20418E+01 1.85422E+03 9.71248E+01
 -1       300 3.97801E+04-7.92050E+03-4.66770E+04-1.20418E+01-1.85422E+03 9.71248E+01
 -1       301 4.00576E+04-7.89789E+03-4.66407E+04 5.98375E+00 1.85245E+03 4.68452E+01
 -1       302 4.00576E+04-7.89789E+03-4.66407E+04-5.98369E+00-1.85245E+03 4.68452E+01
 -1       303 4.02281E+04-7.89111E+03-4.66275E+04 3.87766E+00 1.85152E+03 3.51048E+01
 -1       304 4.02281E+04-7.89111E+03-4.66275E+04-3.87761E+00-1.85152E+03 3.51048E+01
 -1       305 4.03717E+04-7.88911E+03-4.66232E+04 3.56816E+00 1.85119E+03 3.48799E+01
 -1       306 4.03717E+04-7.88911E+03-4.66232E+04-3.56811E+00-1.85119E+03 3.48799E+01
 -1       307 4.05131E+04-7.88908E+03-4.66211E+04 3.54601E+00 1.85110E+03 3.57558E+01
 -1       308 4.05131E+04-7.88908E+03-4.66211E+04-3.54597E+00-1.85110E+03 3.57558E+01
 -1       309 4.06535E+04-7.88947E+03-4.66195E+04 3.46877E+00 1.85107E+03 3.46885E+01
 -1       310 4.06535E+04-7.88947E+03-4.66195E+04-3.46874E+00-1.85107E+03 3.46885E+01
 -1       311 4.07897E+04-7.88898E+03-4.66177E+04 3.34969E+00 1.85092E+03 3.18411E+01
 -1       312 4.07897E+04-7.88898E+03-4.66177E+04-3.34966E+00-1.85092E+03 3.18411E+01
 -1       313 4.09288E+04-7.88654E+03-4.66119E+04 4.08231E+00 1.85025E+03 3.26700E+01
 -1       314 4.09288E+04-7.88654E+03-4.66119E+04-4.08229E+00-1.85025E+03 3.26701E+01
 -1       315 4.11203E+04-7.86856E+03-4.65903E+04 7.74802E+00 1.84910E+03 5.61184E+01
 -1       316 4.11203E+04-7.86856E+03-4.65903E+04-7.74800E+00-1.84910E+03 5.61184E+01
 -1       317 4.15443E+04-7.83645E+03-4.65106E+04 2.17736E+01 1.84314E+03 1.54076E+02
 -1       318 4.15443E+04-7.83645E+03-4.65106E+04-2.17736E+01-1.84314E+03 1.54076E+02
 -1       319 4.23272E+04-7.80537E+03-4.64547E+04 4.03679E+01 1.85334E+03 4.04328E+02
 -1       320 4.23272E+04-7.80537E+03-4.64547E+04-4.03679E+01-1.85334E+03 4.04328E+02
 -1       321 4.42924E+04-7.68736E+03-4.59134E+04 1.28901E+02 1.77073E+03 9.11597E+02
 -1       322 4.42924E+04-7.68736E+03-4.59134E+04-1.28901E+02-1.77073E+03 9.11597E+02
 -1       323 4.40791E+04-8.94049E+03-4.80250E+04-5.18253E+02 2.10389E+03 1.14169E+03
 -1       324 4.40791E+04-8.94049E+03-4.80250E+04 5.18253E+02-2.10389E+03 1.14169E+03
 -1       325 6.13407E+04-1.46578E+02-3.20986E+04 1.62705E+03 1.76823E+03-3.76862E+03
 -1       326 6.13407E+04-1.46578E+02-3.20986E+04-1.62705E+03-1.76823E+03-3.76862E+03
 -1       327 3.35450E+04-7.51255E+03-6.06228E+04-2.05094E+03 9.76923E+03-5.86438E+03
 -1       328 3.35450E+04-7.51255E+03-6.06228E+04 2.05094E+03-9.76923E+03-5.86438E+03
 -1       329 3.32110E+04 2.66568E+03-4.60801E+04-1.48049E+02 7.38440E+03-4.14556E+02
 -1       330 3.32110E+04 2.66568E+03-4.60801E+04 1.48049E+02-7.38440E+03-4.14556E+02
 -1       331 3.61336E+04-6.71900E+02-4.93469E+04 2.40846E+02 8.26903E+03 2.20241E+02
 -1       332 3.61336E+04-6.71900E+02-4.93469E+04-2.40846E+02-8.26903E+03 2.20241E+02
 -1       333 3.95852E+04 2.41208E+02-4.81519E+04 1.23792E+02 8.01893E+03 2.48053E+02
 -1       334 3.95852E+04 2.41208E+02-4.81519E+04-1.23792E+02-8.01893E+03 2.48053E+02
 -1       335 4.09444E+04 8.16218E+01-4.81992E+04 5.61483E+01 8.07720E+03 1.13258E+02
 -1       336 4.09444E+04 8.16218E+01-4.81992E+04-5.61482E+01-8.07720E+03 1.13258E+02
 -1       337 4.16490E+04 1.76387E+02-4.80718E+04 1.49507E+01 8.05921E+03 4.98333E+01
 -1       338 4.16490E+04 1.76387E+02-4.80718E+04-1.49506E+01-8.05921E+03 4.98333E+01
 -1       339 4.19132E+04 1.87130E+02-4.80552E+04 2.88628E+00 8.06179E+03 2.01730E+01
 -1       340 4.19132E+04 1.87130E+02-4.80552E+04-2.88623E+00-8.06179E+03 2.01730E+01
 -1       341 4.20650E+04 1.96611E+02-4.80444E+04 2.44282E-01 8.06011E+03 1.28659E+01
 -1       342 4.20650E+04 1.96611E+02-4.80444E+04-2.44235E-01-8.06011E+03 1.28659E+01
 -1       343 4.21956E+04 1.96794E+02-4.80425E+04 5.43345E-01 8.05979E+03 1.18385E+01
 -1       344 4.21956E+04 1.96794E+02-4.80425E+04-5.43304E-01-8.05979E+03 1.18385E+01
 -1       345 4.23318E+04 1.96208E+02-4.80404E+04 8.78955E-01 8.05931E+03 1.20515E+01
 -1       346 4.23318E+04 1.96208E+02-4.80404E+04-8.78921E-01-8.05931E+03 1.20515E+01
 -1       347 4.24684E+04 1.95192E+02-4.80386E+04 5.72496E-01 8.05883E+03 1.15147E+01
 -1       348 4.24684E+04 1.95192E+02-4.80386E+04-5.72468E-01-8.05883E+03 1.15147E+01
 -1       349 4.25943E+04 1.94004E+02-4.80381E+04-2.94058E-01 8.05864E+03 1.06252E+01
 -1       350 4.25943E+04 1.94004E+02-4.80381E+04 2.94080E-01-8.05864E+03 1.06252E+01
 -1       351 4.27105E+04 1.97406E+02-4.80338E+04-9.05708E-01 8.05691E+03 1.23074E+01
 -1       352 4.27105E+04 1.97406E+02-4.80338E+04 9.05724E-01-8.05691E+03 1.23074E+01
 -1       353 4.28643E+04 2.05795E+02-4.80297E+04 5.08016E+00 8.06050E+03 2.81182E+01
 -1       354 4.28643E+04 2.05795E+02-4.80297E+04-5.08014E+00-8.06050E+03 2.81182E+01
 -1       355 4.32942E+04 2.74925E+02-4.79359E+04 2.84039E+01 8.04019E+03 7.86967E+01
 -1       356 4.32942E+04 2.74925E+02-4.79359E+04-2.84039E+01-8.04019E+03 7.86967E+01
 -1       357 4.42791E+04 2.19756E+02-4.80026E+04 1.02585E+02 8.11438E+03 2.26767E+02
 -1       358 4.42791E+04 2.19756E+02-4.80026E+04-1.02585E+02-8.11438E+03 2.26767E+02
 -1       359 4.70019E+04 6.47661E+02-4.69617E+04 3.25537E+02 7.78856E+03 3.90896E+02
 -1       360 4.70019E+04 6.47661E+02-4.69617E+04-3.25537E+02-7.78856E+03 3.90896E+02
 -1       361 5.15742E+04-2.04124E+02-4.97185E+04-1.18283E+01 8.93664E+03 8.28485E+02
 -1       362 5.15742E+04-2.04124E+02-4.97185E+04 1.18283E+01-8.93664E+03 8.28485E+02
 -1       363 9.79065E+04 1.21770E+04-2.14000E+04 9.18761E+02 5.41485E+03-1.28118E+04
 -1       364 9.79065E+04 1.21770E+04-2.14000E+04-9.18761E+02-5.41485E+03-1.28118E+04
 -1       365 4.16282E+04-3.10128E+03-1.43542E+04 2.10148E+02 6.95469E+01 2.53542E+02
 -1       366 5.18468E+04 1.00966E+04-2.37173E+04-1.55733E+03 5.01641E+03-2.67879E+03
 -1       367 4.93684E+04-9.43301E+02-2.46170E+04-1.79800E+02 6.60936E+01 5.62290E+02
 -1       368 4.74220E+04 1.56825E+04-1.60437E+04-1.02703E+02 4.11593E+03-9.51184E+02
 -1       369 5.06842E+04-5.92119E+02-2.77799E+04-7.93862E+01 8.86811E+01 5.62483E+02
 -1       370 5.12220E+04 1.40535E+04-1.80763E+04 1.90053E+02 4.29826E+03 4.73001E+01
 -1       371 5.03226E+04-2.32304E+02-2.77073E+04-1.96611E+01 1.11444E+02 3.95955E+02
 -1       372 5.47187E+04 1.45159E+04-1.73174E+04 1.07849E+02 4.22928E+03 1.61267E+02
 -1       373 4.96050E+04-2.24369E+02-2.73205E+04-7.83920E+00 1.22273E+02 2.88830E+02
 -1       374 5.61451E+04 1.44328E+04-1.72844E+04 3.40209E+01 4.22581E+03 9.19231E+01
 -1       375 4.93353E+04-2.56481E+02-2.70756E+04-7.27281E-01 1.25187E+02 2.52878E+02
 -1       376 5.67973E+04 1.44791E+04-1.71945E+04 5.83589E+00 4.22282E+03 5.01035E+01
 -1       377 4.93511E+04-2.75113E+02-2.69725E+04 1.69369E+00 1.25174E+02 2.45257E+02
 -1       378 5.70403E+04 1.44878E+04-1.71766E+04-1.55130E+00 4.22295E+03 2.44033E+01
 -1       379 4.94772E+04-2.82842E+02-2.69413E+04 1.89491E+00 1.24702E+02 2.45427E+02
 -1       380 5.71818E+04 1.44925E+04-1.71703E+04-2.35080E+00 4.22297E+03 1.67839E+01
 -1       381 4.96332E+04-2.85349E+02-2.69368E+04 1.68795E+00 1.24301E+02 2.46820E+02
 -1       382 5.73102E+04 1.44921E+04-1.71701E+04-1.77822E+00 4.22293E+03 1.48659E+01
 -1       383 4.97937E+04-2.85615E+02-2.69390E+04 1.55928E+00 1.24030E+02 2.47527E+02
 -1       384 5.74461E+04 1.44910E+04-1.71703E+04-1.41759E+00 4.22279E+03 1.46727E+01
 -1       385 4.99558E+04-2.85376E+02-2.69427E+04 1.63399E+00 1.23806E+02 2.47242E+02
 -1       386 5.75828E+04 1.44896E+04-1.71706E+04-1.64554E+00 4.22261E+03 1.43185E+01
 -1       387 5.01210E+04-2.86082E+02-2.69458E+04 1.97399E+00 1.23466E+02 2.45694E+02
 -1       388 5.77083E+04 1.44882E+04-1.71717E+04-2.48704E+00 4.22261E+03 1.43831E+01
 -1       389 5.02800E+04-2.90330E+02-2.69365E+04 2.31390E+00 1.23075E+02 2.42878E+02
 -1       390 5.78199E+04 1.44897E+04-1.71710E+04-3.48435E+00 4.22239E+03 1.74412E+01
 -1       391 5.03834E+04-3.03639E+02-2.68775E+04 1.73120E+00 1.22032E+02 2.41691E+02
 -1       392 5.79555E+04 1.44945E+04-1.71641E+04-1.76520E+00 4.22409E+03 3.39822E+01
 -1       393 5.02662E+04-3.37984E+02-2.66866E+04-4.49076E+00 1.24605E+02 2.50173E+02
 -1       394 5.83263E+04 1.45400E+04-1.71059E+04 1.26620E+01 4.21782E+03 7.71382E+01
 -1       395 4.95789E+04-4.14465E+02-2.62368E+04-1.30225E+01 1.23871E+02 3.26359E+02
 -1       396 5.93219E+04 1.44875E+04-1.70645E+04 7.12174E+01 4.24666E+03 1.62085E+02
 -1       397 4.82445E+04-2.80591E+02-2.55324E+04-1.17303E+01 1.78872E+02 4.95423E+02
 -1       398 6.18023E+04 1.46662E+04-1.66049E+04 2.97649E+02 4.06293E+03 3.44258E+02
 -1       399 4.89999E+04 5.62973E+02-2.54911E+04-3.39895E+02 1.06068E+02 7.57287E+02
 -1       400 7.00968E+04 1.48460E+04-1.64115E+04-1.27292E+01 4.73257E+03-6.57824E+02
 -1       401 5.68382E+04 3.60035E+03-3.32919E+04 5.95834E+02 3.98887E+02 9.86670E+02
 -1       402 8.83832E+04 1.94324E+04-7.95537E+03-1.69951E+03 1.72539E+03-3.47336E+03
 -1       403 4.23517E+04-1.91860E+03-1.32738E+04 3.41354E+02 5.74687E+01 2.67151E+02
 -1       404 4.91501E+04 5.94189E+03-2.82333E+04-9.75878E+02-4.57315E+02-2.77877E+03
 -1       405 4.95504E+04-1.74326E+03-2.42192E+04-2.80908E+02 5.72051E+01 5.63760E+02
 -1       406 4.57197E+04 1.16341E+04-1.91963E+04-1.18836E+02-1.40687E+02-7.09377E+02
 -1       407 5.08842E+04-5.78438E+02-2.72276E+04-2.59098E+01 7.15101E+01 5.55636E+02
 -1       408 4.91719E+04 1.11679E+04-2.13390E+04 1.89869E+02-1.95923E+02-2.20717E+01
 -1       409 5.02757E+04-3.68659E+02-2.73464E+04-6.78053E+00 8.23406E+01 3.90048E+02
 -1       410 5.26026E+04 1.13031E+04-2.06537E+04 7.90839E+01-1.73145E+02 1.24902E+02
 -1       411 4.96599E+04-3.56457E+02-2.69787E+04-3.12271E+00 8.82172E+01 2.86730E+02
 -1       412 5.41456E+04 1.12523E+04-2.06015E+04 2.40075E+01-1.85741E+02 8.25248E+01
 -1       413 4.94110E+04-3.86842E+02-2.67406E+04 8.44760E-02 8.95162E+01 2.52086E+02
 -1       414 5.47922E+04 1.12812E+04-2.05057E+04 2.11696E+00-1.84926E+02 4.73130E+01
 -1       415 4.94304E+04-4.03772E+02-2.66379E+04 1.65007E+00 8.95117E+01 2.44897E+02
 -1       416 5.50303E+04 1.12897E+04-2.04874E+04-1.74607E+00-1.85303E+02 2.49323E+01
 -1       417 4.95558E+04-4.11666E+02-2.66060E+04 1.87475E+00 8.92521E+01 2.45116E+02
 -1       418 5.51669E+04 1.12929E+04-2.04812E+04-1.79642E+00-1.85316E+02 1.72729E+01
 -1       419 4.97111E+04-4.14359E+02-2.66009E+04 1.77172E+00 8.90385E+01 2.46485E+02
 -1       420 5.52939E+04 1.12927E+04-2.04811E+04-1.14163E+00-1.85257E+02 1.52517E+01
 -1       421 4.98711E+04-4.14819E+02-2.66028E+04 1.70503E+00 8.88953E+01 2.47173E+02
 -1       422 5.54294E+04 1.12919E+04-2.04811E+04-8.16366E-01-1.85213E+02 1.49190E+01
 -1       423 5.00327E+04-4.14742E+02-2.66063E+04 1.74888E+00 8.87708E+01 2.46897E+02
 -1       424 5.55661E+04 1.12909E+04-2.04813E+04-9.79329E-01-1.85155E+02 1.46627E+01
 -1       425 5.01972E+04-4.15606E+02-2.66088E+04 1.93001E+00 8.86155E+01 2.45365E+02
 -1       426 5.56909E+04 1.12900E+04-2.04822E+04-1.75057E+00-1.85119E+02 1.49222E+01
 -1       427 5.03552E+04-4.20063E+02-2.65985E+04 2.15578E+00 8.83095E+01 2.42652E+02
 -1       428 5.57993E+04 1.12908E+04-2.04820E+04-2.68123E+00-1.84931E+02 1.84950E+01
 -1       429 5.04561E+04-4.32804E+02-2.65381E+04 1.26884E+00 8.81930E+01 2.40887E+02
 -1       430 5.59256E+04 1.12951E+04-2.04755E+04-3.36864E+00-1.85740E+02 3.43090E+01
 -1       431 5.03468E+04-4.61675E+02-2.63494E+04-2.40432E+00 8.78550E+01 2.50678E+02
 -1       432 5.62844E+04 1.13339E+04-2.04150E+04 6.37934E+00-1.82323E+02 7.10770E+01
 -1       433 4.97368E+04-5.25292E+02-2.58993E+04-3.63106E+00 9.32849E+01 3.14845E+02
 -1       434 5.72799E+04 1.12819E+04-2.03647E+04 4.99786E+01-1.96532E+02 1.52652E+02
 -1       435 4.86482E+04-4.78930E+02-2.52572E+04 9.07940E+00 1.02027E+02 5.17101E+02
 -1       436 6.04709E+04 1.14595E+04-1.97034E+04 2.10746E+02-1.78980E+02 1.50724E+02
 -1       437 4.77578E+04 8.43898E+01-2.58684E+04-1.12264E+02 1.21081E+02 6.44611E+02
 -1       438 6.57115E+04 9.89692E+03-2.12107E+04 3.15654E+02-2.34000E+02-9.70912E+01
 -1       439 5.49053E+04 5.32522E+03-3.26504E+04-1.17522E+03 1.46487E+02 1.31570E+03
 -1       440 8.42428E+04 2.43020E+04-8.29729E+03-3.11840E+03-6.08765E+01-3.65032E+03
 -1       441 4.25906E+04-1.54856E+03-1.28419E+04 4.34836E-05 1.02562E-05 2.73514E+02
 -1       442 4.88005E+04 4.88156E+03-2.82638E+04 3.93735E-05 7.17999E-06-2.76189E+03
 -1       443 4.96266E+04-1.98418E+03-2.39884E+04 4.16528E-05-8.63896E-06 5.65549E+02
 -1       444 4.55681E+04 1.05368E+04-1.91737E+04 5.25483E-05 2.79821E-06-6.52514E+02
 -1       445 5.09706E+04-6.63974E+02-2.69723E+04 5.13314E-05-3.40620E-06 5.52999E+02
 -1       446 4.90134E+04 1.05332E+04-2.12128E+04 5.30132E-05 1.01484E-06-2.66008E+01
 -1       447 5.02987E+04-4.17587E+02-2.71256E+04 4.84830E-05-1.31672E-05 3.87860E+02
 -1       448 5.23784E+04 1.06052E+04-2.05791E+04 5.10850E-05 9.59821E-08 1.11820E+02
 -1       449 4.96922E+04-4.36955E+02-2.67791E+04 4.41941E-05-1.56866E-05 2.85602E+02
 -1       450 5.39577E+04 1.05335E+04-2.05268E+04 4.70331E-05-8.87046E-07 7.89041E+01
 -1       451 4.94602E+04-4.58325E+02-2.65386E+04 3.89462E-05-1.83933E-05 2.51466E+02
 -1       452 5.46103E+04 1.05641E+04-2.04275E+04 4.17749E-05-1.59853E-06 4.62822E+01
 -1       453 4.94784E+04-4.76429E+02-2.64371E+04 3.35342E-05-1.89698E-05 2.44402E+02
 -1       454 5.48452E+04 1.05694E+04-2.04099E+04 3.59606E-05-2.05265E-06 2.48830E+01
 -1       455 4.96040E+04-4.83905E+02-2.64049E+04 2.85104E-05-1.91745E-05 2.44650E+02
 -1       456 5.49807E+04 1.05726E+04-2.04036E+04 3.01058E-05-2.30124E-06 1.74091E+01
 -1       457 4.97590E+04-4.86726E+02-2.63996E+04 2.35402E-05-1.87060E-05 2.46011E+02
 -1       458 5.51070E+04 1.05722E+04-2.04036E+04 2.44841E-05-2.40063E-06 1.53449E+01
 -1       459 4.99188E+04-4.87219E+02-2.64014E+04 1.89222E-05-1.78387E-05 2.46695E+02
 -1       460 5.52424E+04 1.05716E+04-2.04036E+04 1.92364E-05-2.38969E-06 1.49959E+01
 -1       461 5.00802E+04-4.87187E+02-2.64049E+04 1.46180E-05-1.68557E-05 2.46413E+02
 -1       462 5.53789E+04 1.05707E+04-2.04038E+04 1.44424E-05-2.29308E-06 1.47579E+01
 -1       463 5.02446E+04-4.88073E+02-2.64072E+04 1.05772E-05-1.55117E-05 2.44925E+02
 -1       464 5.55037E+04 1.05699E+04-2.04049E+04 1.01455E-05-2.13701E-06 1.50639E+01
 -1       465 5.04017E+04-4.92818E+02-2.63967E+04 6.79696E-06-1.40227E-05 2.42078E+02
 -1       466 5.56099E+04 1.05699E+04-2.04047E+04 6.36826E-06-1.92690E-06 1.88455E+01
 -1       467 5.05039E+04-5.03823E+02-2.63353E+04 3.52540E-06-1.21849E-05 2.40773E+02
 -1       468 5.57381E+04 1.05768E+04-2.03977E+04 3.14585E-06-1.67302E-06 3.35123E+01
 -1       469 5.03861E+04-5.38219E+02-2.61511E+04 8.14394E-07-1.04638E-05 2.48501E+02
 -1       470 5.60703E+04 1.05951E+04-2.03440E+04 5.56486E-07-1.37910E-06 7.19328E+01
 -1       471 4.98585E+04-5.57553E+02-2.56779E+04-1.53344E-06-8.36526E-06 3.17354E+02
 -1       472 5.71699E+04 1.06254E+04-2.02459E+04-1.26099E-06-1.04362E-06 1.33896E+02
 -1       473 4.86658E+04-7.31208E+02-2.51552E+04-4.43919E-06-7.46477E-06 5.03330E+02
 -1       474 6.03145E+04 1.04400E+04-1.97191E+04-2.13460E-06-6.43184E-07 1.38382E+02
 -1       475 4.75330E+04 3.59457E+02-2.57195E+04-6.78048E-06-1.40360E-06 6.61128E+02
 -1       476 6.49018E+04 9.30342E+03-2.12772E+04-2.14581E-06-2.25636E-07 9.55867E+00
 -1       477 5.41794E+04 5.20573E+03-3.25530E+04-3.55636E-06 4.89166E-06 1.31286E+03
 -1       478 8.32693E+04 2.55103E+04-7.92058E+03-1.66656E-06 8.68908E-08-3.61772E+03
 -1       479 4.23517E+04-1.91860E+03-1.32738E+04-3.41354E+02-5.74688E+01 2.67151E+02
 -1       480 4.91501E+04 5.94189E+03-2.82333E+04 9.75878E+02 4.57315E+02-2.77877E+03
 -1       481 4.95504E+04-1.74326E+03-2.42192E+04 2.80908E+02-5.72051E+01 5.63760E+02
 -1       482 4.57197E+04 1.16341E+04-1.91963E+04 1.18836E+02 1.40687E+02-7.09377E+02
 -1       483 5.08842E+04-5.78438E+02-2.72276E+04 2.59099E+01-7.15101E+01 5.55636E+02
 -1       484 4.91719E+04 1.11679E+04-2.13390E+04-1.89869E+02 1.95923E+02-2.20717E+01
 -1       485 5.02757E+04-3.68659E+02-2.73464E+04 6.78062E+00-8.23406E+01 3.90048E+02
 -1       486 5.26026E+04 1.13031E+04-2.06537E+04-7.90838E+01 1.73145E+02 1.24902E+02
 -1       487 4.96599E+04-3.56457E+02-2.69787E+04 3.12280E+00-8.82172E+01 2.86730E+02
 -1       488 5.41456E+04 1.12523E+04-2.06015E+04-2.40074E+01 1.85741E+02 8.25248E+01
 -1       489 4.94110E+04-3.86842E+02-2.67406E+04-8.44011E-02-8.95162E+01 2.52086E+02
 -1       490 5.47922E+04 1.12812E+04-2.05057E+04-2.11688E+00 1.84926E+02 4.73130E+01
 -1       491 4.94304E+04-4.03772E+02-2.66379E+04-1.65001E+00-8.95117E+01 2.44897E+02
 -1       492 5.50303E+04 1.12897E+04-2.04874E+04 1.74614E+00 1.85303E+02 2.49323E+01
 -1       493 4.95558E+04-4.11666E+02-2.66060E+04-1.87470E+00-8.92521E+01 2.45116E+02
 -1       494 5.51669E+04 1.12929E+04-2.04812E+04 1.79648E+00 1.85316E+02 1.72729E+01
 -1       495 4.97111E+04-4.14359E+02-2.66009E+04-1.77167E+00-8.90385E+01 2.46485E+02
 -1       496 5.52939E+04 1.12927E+04-2.04811E+04 1.14168E+00 1.85257E+02 1.52517E+01
 -1       497 4.98711E+04-4.14819E+02-2.66028E+04-1.70499E+00-8.88954E+01 2.47173E+02
 -1       498 5.54294E+04 1.12919E+04-2.04811E+04 8.16404E-01 1.85213E+02 1.49190E+01
 -1       499 5.00327E+04-4.14742E+02-2.66063E+04-1.74885E+00-8.87708E+01 2.46897E+02
 -1       500 5.55661E+04 1.12909E+04-2.04813E+04 9.79357E-01 1.85155E+02 1.46627E+01
 -1       501 5.01972E+04-4.15606E+02-2.66088E+04-1.92999E+00-8.86155E+01 2.45365E+02
 -1       502 5.56909E+04 1.12900E+04-2.04822E+04 1.75059E+00 1.85119E+02 1.49222E+01
 -1       503 5.03552E+04-4.20063E+02-2.65985E+04-2.15577E+00-8.83096E+01 2.42652E+02
 -1       504 5.57993E+04 1.12908E+04-2.04820E+04 2.68124E+00 1.84931E+02 1.84950E+01
 -1       505 5.04561E+04-4.32804E+02-2.65381E+04-1.26883E+00-8.81930E+01 2.40887E+02
 -1       506 5.59256E+04 1.12951E+04-2.04755E+04 3.36865E+00 1.85740E+02 3.43090E+01
 -1       507 5.03468E+04-4.61675E+02-2.63494E+04 2.40433E+00-8.78550E+01 2.50678E+02
 -1       508 5.62844E+04 1.13339E+04-2.04150E+04-6.37934E+00 1.82323E+02 7.10770E+01
 -1       509 4.97368E+04-5.25292E+02-2.58993E+04 3.63105E+00-9.32849E+01 3.14845E+02
 -1       510 5.72799E+04 1.12819E+04-2.03647E+04-4.99786E+01 1.96532E+02 1.52652E+02
 -1       511 4.86482E+04-4.78930E+02-2.52572E+04-9.07941E+00-1.02027E+02 5.17101E+02
 -1       512 6.04709E+04 1.14595E+04-1.97034E+04-2.10746E+02 1.78980E+02 1.50724E+02
 -1       513 4.77578E+04 8.43898E+01-2.58684E+04 1.12264E+02-1.21081E+02 6.44611E+02
 -1       514 6.57115E+04 9.89692E+03-2.12107E+04-3.15654E+02 2.34000E+02-9.70912E+01
 -1       515 5.49053E+04 5.32522E+03-3.26504E+04 1.17522E+03-1.46487E+02 1.31570E+03
 -1       516 8.42428E+04 2.43020E+04-8.29729E+03 3.11840E+03 6.08765E+01-3.65032E+03
 -1       517 4.16282E+04-3.10128E+03-1.43542E+04-2.10148E+02-6.95470E+01 2.53542E+02
 -1       518 5.18468E+04 1.00966E+04-2.37173E+04 1.55733E+03-5.01641E+03-2.67879E+03
 -1       519 4.93684E+04-9.43301E+02-2.46170E+04 1.79800E+02-6.60936E+01 5.62290E+02
 -1       520 4.74220E+04 1.56825E+04-1.60437E+04 1.02703E+02-4.11593E+03-9.51184E+02
 -1       521 5.06842E+04-5.92119E+02-2.77799E+04 7.93863E+01-8.86811E+01 5.62483E+02
 -1       522 5.12220E+04 1.40535E+04-1.80763E+04-1.90053E+02-4.29826E+03 4.73001E+01
 -1       523 5.03226E+04-2.32304E+02-2.77073E+04 1.96612E+01-1.11444E+02 3.95955E+02
 -1       524 5.47187E+04 1.45159E+04-1.73174E+04-1.07849E+02-4.22928E+03 1.61267E+02
 -1       525 4.96050E+04-2.24369E+02-2.73205E+04 7.83927E+00-1.22273E+02 2.88830E+02
 -1       526 5.61451E+04 1.44328E+04-1.72844E+04-3.40208E+01-4.22581E+03 9.19231E+01
 -1       527 4.93353E+04-2.56481E+02-2.70756E+04 7.27348E-01-1.25187E+02 2.52878E+02
 -1       528 5.67973E+04 1.44791E+04-1.71945E+04-5.83582E+00-4.22282E+03 5.01035E+01
 -1       529 4.93511E+04-2.75113E+02-2.69725E+04-1.69363E+00-1.25174E+02 2.45257E+02
 -1       530 5.70403E+04 1.44878E+04-1.71766E+04 1.55136E+00-4.22295E+03 2.44033E+01
 -1       531 4.94772E+04-2.82842E+02-2.69413E+04-1.89485E+00-1.24702E+02 2.45427E+02
 -1       532 5.71818E+04 1.44925E+04-1.71703E+04 2.35085E+00-4.22297E+03 1.67839E+01
 -1       533 4.96332E+04-2.85349E+02-2.69368E+04-1.68790E+00-1.24301E+02 2.46820E+02
 -1       534 5.73102E+04 1.44921E+04-1.71701E+04 1.77826E+00-4.22293E+03 1.48659E+01
 -1       535 4.97937E+04-2.85615E+02-2.69390E+04-1.55924E+00-1.24030E+02 2.47527E+02
 -1       536 5.74461E+04 1.44910E+04-1.71703E+04 1.41763E+00-4.22279E+03 1.46727E+01
 -1       537 4.99558E+04-2.85376E+02-2.69427E+04-1.63395E+00-1.23806E+02 2.47242E+02
 -1       538 5.75828E+04 1.44896E+04-1.71706E+04 1.64557E+00-4.22261E+03 1.43185E+01
 -1       539 5.01210E+04-2.86082E+02-2.69458E+04-1.97396E+00-1.23466E+02 2.45694E+02
 -1       540 5.77083E+04 1.44882E+04-1.71717E+04 2.48706E+00-4.22261E+03 1.43831E+01
 -1       541 5.02800E+04-2.90330E+02-2.69365E+04-2.31388E+00-1.23075E+02 2.42878E+02
 -1       542 5.78199E+04 1.44897E+04-1.71710E+04 3.48436E+00-4.22239E+03 1.74412E+01
 -1       543 5.03834E+04-3.03639E+02-2.68775E+04-1.73119E+00-1.22032E+02 2.41691E+02
 -1       544 5.79555E+04 1.44945E+04-1.71641E+04 1.76521E+00-4.22409E+03 3.39822E+01
 -1       545 5.02662E+04-3.37984E+02-2.66866E+04 4.49077E+00-1.24605E+02 2.50173E+02
 -1       546 5.83263E+04 1.45400E+04-1.71059E+04-1.26619E+01-4.21782E+03 7.71382E+01
 -1       547 4.95789E+04-4.14465E+02-2.62368E+04 1.30225E+01-1.23871E+02 3.26359E+02
 -1       548 5.93219E+04 1.44875E+04-1.70645E+04-7.12174E+01-4.24666E+03 1.62085E+02
 -1       549 4.82445E+04-2.80591E+02-2.55324E+04 1.17303E+01-1.78872E+02 4.95423E+02
 -1       550 6.18023E+04 1.46662E+04-1.66049E+04-2.97649E+02-4.06293E+03 3.44258E+02
 -1       551 4.89999E+04 5.62973E+02-2.54911E+04 3.39895E+02-1.06068E+02 7.57287E+02
 -1       552 7.00968E+04 1.48460E+04-1.64115E+04 1.27292E+01-4.73257E+03-6.57824E+02
 -1       553 5.68382E+04 3.60035E+03-3.32919E+04-5.95834E+02-3.98887E+02 9.86670E+02
 -1       554 8.83832E+04 1.94324E+04-7.95537E+03 1.69951E+03-1.72539E+03-3.47336E+03
 -1       555 4.17604E+04-3.22298E+03-1.48970E+04 2.33007E+02 2.66395E+02-2.37104E+03
 -1       556 4.93430E+04-1.03149E+03-2.49842E+04-1.69124E+02 3.04765E+02-3.74020E+02
 -1       557 5.04957E+04-6.75444E+02-2.78802E+04-7.70058E+01 3.08540E+02 5.53394E+02
 -1       558 5.01096E+04-3.38040E+02-2.77733E+04-1.84117E+01 3.06398E+02 5.48169E+02
 -1       559 4.94574E+04-3.42998E+02-2.74161E+04-6.62736E+00 3.04560E+02 3.70821E+02
 -1       560 4.92407E+04-3.71680E+02-2.71845E+04-1.73130E-01 3.03343E+02 2.69313E+02
 -1       561 4.92752E+04-3.87327E+02-2.70853E+04 1.96546E+00 3.02812E+02 2.30422E+02
 -1       562 4.94056E+04-3.93965E+02-2.70557E+04 2.12925E+00 3.02640E+02 2.20283E+02
 -1       563 4.95617E+04-3.95940E+02-2.70512E+04 1.93454E+00 3.02547E+02 2.19545E+02
 -1       564 4.97214E+04-3.95986E+02-2.70532E+04 1.81674E+00 3.02483E+02 2.20022E+02
 -1       565 4.98823E+04-3.95639E+02-2.70566E+04 1.89192E+00 3.02433E+02 2.19295E+02
 -1       566 5.00461E+04-3.96143E+02-2.70594E+04 2.19566E+00 3.02385E+02 2.17502E+02
 -1       567 5.02047E+04-4.00009E+02-2.70508E+04 2.54143E+00 3.02361E+02 2.18782E+02
 -1       568 5.03124E+04-4.12315E+02-2.69950E+04 2.02005E+00 3.01954E+02 2.37204E+02
 -1       569 5.02385E+04-4.38703E+02-2.68083E+04-3.60550E+00 3.01974E+02 3.07441E+02
 -1       570 4.96180E+04-5.30697E+02-2.64126E+04-7.24947E+00 2.94896E+02 5.00745E+02
 -1       571 4.84364E+04-3.70244E+02-2.56602E+04-3.34262E+01 3.20975E+02 7.83913E+02
 -1       572 4.91718E+04 3.37252E+02-2.57683E+04-1.74752E+02 1.96429E+02 3.92871E+02
 -1       573 5.02339E+04 1.63702E+03-3.33362E+04-5.54670E+02 7.37339E+02-1.15271E+03
 -1       574 4.25554E+04-2.05091E+03-1.35884E+04 3.61438E+02 2.51449E+02-2.29177E+03
 -1       575 4.95823E+04-1.87684E+03-2.43477E+04-2.71872E+02 2.89576E+02-3.70916E+02
 -1       576 5.07636E+04-6.98472E+02-2.70851E+04-2.47425E+01 2.95426E+02 5.26406E+02
 -1       577 5.01352E+04-5.17261E+02-2.71735E+04-6.62764E+00 2.95652E+02 5.27339E+02
 -1       578 4.95866E+04-5.15110E+02-2.68316E+04-3.30089E+00 2.94909E+02 3.62898E+02
 -1       579 4.93892E+04-5.41852E+02-2.66063E+04-4.22896E-01 2.94006E+02 2.67399E+02
 -1       580 4.94268E+04-5.55550E+02-2.65072E+04 1.00062E+00 2.93607E+02 2.30415E+02
 -1       581 4.95562E+04-5.62231E+02-2.64770E+04 1.22518E+00 2.93443E+02 2.20603E+02
 -1       582 4.97117E+04-5.64280E+02-2.64719E+04 1.13362E+00 2.93356E+02 2.19796E+02
 -1       583 4.98709E+04-5.64435E+02-2.64736E+04 1.07728E+00 2.93299E+02 2.20210E+02
 -1       584 5.00313E+04-5.64181E+02-2.64768E+04 1.11769E+00 2.93254E+02 2.19523E+02
 -1       585 5.01945E+04-5.64778E+02-2.64791E+04 1.28414E+00 2.93208E+02 2.17880E+02
 -1       586 5.03517E+04-5.68983E+02-2.64695E+04 1.48830E+00 2.93113E+02 2.19258E+02
 -1       587 5.04579E+04-5.79971E+02-2.64122E+04 5.59318E-01 2.93008E+02 2.36872E+02
 -1       588 5.03834E+04-6.05767E+02-2.62288E+04-2.12646E+00 2.91655E+02 3.03709E+02
 -1       589 4.98693E+04-6.61526E+02-2.58210E+04-5.54589E+00 2.92660E+02 4.81997E+02
 -1       590 4.88220E+04-6.83221E+02-2.51780E+04 2.16477E+01 2.88256E+02 7.58596E+02
 -1       591 4.83129E+04 8.42468E+01-2.57339E+04-1.52790E+02 2.84071E+02 3.61137E+02
 -1       592 4.79767E+04 2.91870E+03-3.28361E+04-1.07995E+03 4.82049E+02-9.36693E+02
 -1       593 4.28192E+04-1.69289E+03-1.30698E+04 6.79077E-05-9.97438E-06-2.25515E+03
 -1       594 4.96799E+04-2.14098E+03-2.40207E+04 5.50574E-05-1.18188E-06-3.65484E+02
 -1       595 5.08732E+04-8.05735E+02-2.67365E+04 4.53926E-05-1.41976E-06 5.18018E+02
 -1       596 5.01842E+04-5.90242E+02-2.68588E+04 4.72968E-05-6.26077E-06 5.20429E+02
 -1       597 4.96453E+04-6.18969E+02-2.65376E+04 4.27041E-05-8.96665E-06 3.60052E+02
 -1       598 4.94644E+04-6.36541E+02-2.63096E+04 3.83585E-05-1.10052E-05 2.66567E+02
 -1       599 4.95005E+04-6.51403E+02-2.62118E+04 3.33332E-05-1.15829E-05 2.30220E+02
 -1       600 4.96301E+04-6.57653E+02-2.61811E+04 2.85309E-05-1.18151E-05 2.20537E+02
 -1       601 4.97852E+04-6.59813E+02-2.61759E+04 2.37811E-05-1.15953E-05 2.19711E+02
 -1       602 4.99442E+04-6.59997E+02-2.61775E+04 1.92488E-05-1.10399E-05 2.20107E+02
 -1       603 5.01045E+04-6.59761E+02-2.61807E+04 1.50307E-05-1.04605E-05 2.19432E+02
 -1       604 5.02675E+04-6.60472E+02-2.61828E+04 1.10940E-05-9.62117E-06 2.17846E+02
 -1       605 5.04242E+04-6.64547E+02-2.61728E+04 7.43039E-06-8.68309E-06 2.19183E+02
 -1       606 5.05298E+04-6.75606E+02-2.61153E+04 4.22582E-06-7.40194E-06 2.36770E+02
 -1       607 5.04521E+04-7.00187E+02-2.59336E+04 1.52178E-06-6.26122E-06 3.01343E+02
 -1       608 5.00023E+04-7.35375E+02-2.55121E+04-9.13228E-07-4.98254E-06 4.78805E+02
 -1       609 4.88993E+04-8.99336E+02-2.49568E+04-3.10538E-06-4.04627E-06 7.40347E+02
 -1       610 4.80553E+04 1.80738E+02-2.55428E+04-4.35462E-06-6.29954E-07 3.78317E+02
 -1       611 4.74862E+04 3.13397E+03-3.25413E+04-2.95314E-06 3.65886E-06-9.04096E+02
 -1       612 4.25554E+04-2.05091E+03-1.35884E+04-3.61438E+02-2.51449E+02-2.29177E+03
 -1       613 4.95823E+04-1.87684E+03-2.43477E+04 2.71872E+02-2.89576E+02-3.70916E+02
 -1       614 5.07636E+04-6.98472E+02-2.70851E+04 2.47426E+01-2.95426E+02 5.26406E+02
 -1       615 5.01352E+04-5.17261E+02-2.71735E+04 6.62773E+00-2.95652E+02 5.27339E+02
 -1       616 4.95866E+04-5.15110E+02-2.68316E+04 3.30097E+00-2.94909E+02 3.62898E+02
 -1       617 4.93892E+04-5.41852E+02-2.66063E+04 4.22970E-01-2.94006E+02 2.67399E+02
 -1       618 4.94268E+04-5.55550E+02-2.65072E+04-1.00056E+00-2.93607E+02 2.30415E+02
 -1       619 4.95562E+04-5.62231E+02-2.64770E+04-1.22513E+00-2.93443E+02 2.20603E+02
 -1       620 4.97117E+04-5.64280E+02-2.64719E+04-1.13357E+00-2.93356E+02 2.19796E+02
 -1       621 4.98709E+04-5.64435E+02-2.64736E+04-1.07724E+00-2.93299E+02 2.20210E+02
 -1       622 5.00313E+04-5.64181E+02-2.64768E+04-1.11766E+00-2.93254E+02 2.19523E+02
 -1       623 5.01945E+04-5.64778E+02-2.64791E+04-1.28412E+00-2.93208E+02 2.17880E+02
 -1       624 5.03517E+04-5.68983E+02-2.64695E+04-1.48829E+00-2.93113E+02 2.19258E+02
 -1       625 5.04579E+04-5.79971E+02-2.64122E+04-5.59309E-01-2.93008E+02 2.36872E+02
 -1       626 5.03834E+04-6.05767E+02-2.62288E+04 2.12647E+00-2.91655E+02 3.03709E+02
 -1       627 4.98693E+04-6.61526E+02-2.58210E+04 5.54589E+00-2.92660E+02 4.81997E+02
 -1       628 4.88220E+04-6.83221E+02-2.51780E+04-2.16477E+01-2.88256E+02 7.58596E+02
 -1       629 4.83129E+04 8.42468E+01-2.57339E+04 1.52790E+02-2.84071E+02 3.61137E+02
 -1       630 4.79767E+04 2.91870E+03-3.28361E+04 1.07995E+03-4.82049E+02-9.36693E+02
 -1       631 4.17604E+04-3.22298E+03-1.48970E+04-2.33007E+02-2.66395E+02-2.37104E+03
 -1       632 4.93430E+04-1.03149E+03-2.49842E+04 1.69124E+02-3.04765E+02-3.74020E+02
 -1       633 5.04957E+04-6.75444E+02-2.78802E+04 7.70059E+01-3.08540E+02 5.53394E+02
 -1       634 5.01096E+04-3.38040E+02-2.77733E+04 1.84118E+01-3.06398E+02 5.48169E+02
 -1       635 4.94574E+04-3.42998E+02-2.74161E+04 6.62743E+00-3.04560E+02 3.70821E+02
 -1       636 4.92407E+04-3.71680E+02-2.71845E+04 1.73196E-01-3.03343E+02 2.69313E+02
 -1       637 4.92752E+04-3.87327E+02-2.70853E+04-1.96540E+00-3.02812E+02 2.30422E+02
 -1       638 4.94056E+04-3.93965E+02-2.70557E+04-2.12920E+00-3.02640E+02 2.20283E+02
 -1       639 4.95617E+04-3.95940E+02-2.70512E+04-1.93450E+00-3.02547E+02 2.19545E+02
 -1       640 4.97214E+04-3.95986E+02-2.70532E+04-1.81670E+00-3.02483E+02 2.20022E+02
 -1       641 4.98823E+04-3.95639E+02-2.70566E+04-1.89189E+00-3.02433E+02 2.19295E+02
 -1       642 5.00461E+04-3.96143E+02-2.70594E+04-2.19564E+00-3.02385E+02 2.17502E+02
 -1       643 5.02047E+04-4.00009E+02-2.70508E+04-2.54142E+00-3.02361E+02 2.18782E+02
 -1       644 5.03124E+04-4.12315E+02-2.69950E+04-2.02004E+00-3.01954E+02 2.37204E+02
 -1       645 5.02385E+04-4.38703E+02-2.68083E+04 3.60550E+00-3.01974E+02 3.07441E+02
 -1       646 4.96180E+04-5.30697E+02-2.64126E+04 7.24947E+00-2.94896E+02 5.00745E+02
 -1       647 4.84364E+04-3.70244E+02-2.56602E+04 3.34262E+01-3.20975E+02 7.83913E+02
 -1       648 4.91718E+04 3.37252E+02-2.57683E+04 1.74752E+02-1.96429E+02 3.92871E+02
 -1       649 5.02339E+04 1.63702E+03-3.33362E+04 5.54670E+02-7.37339E+02-1.15271E+03
 -1       650 4.18343E+04-3.63965E+03-1.66765E+04 3.13526E+02 6.50070E+02-4.71838E+03
 -1       651 4.91592E+04-1.25592E+03-2.60232E+04-1.45864E+02 7.41117E+02-7.53528E+02
 -1       652 4.99309E+04-8.34442E+02-2.81101E+04-7.06262E+01 7.59094E+02 8.41936E+02
 -1       653 4.95142E+04-5.85102E+02-2.79498E+04-1.40523E+01 7.58658E+02 7.49217E+02
 -1       654 4.90732E+04-6.19350E+02-2.76776E+04-3.80451E+00 7.54791E+02 4.33568E+02
 -1       655 4.90003E+04-6.38375E+02-2.74788E+04 7.37746E-01 7.52131E+02 2.57381E+02
 -1       656 4.90831E+04-6.47851E+02-2.73925E+04 2.16273E+00 7.51339E+02 1.89614E+02
 -1       657 4.92241E+04-6.52300E+02-2.73674E+04 2.22328E+00 7.51125E+02 1.72799E+02
 -1       658 4.93800E+04-6.53403E+02-2.73631E+04 2.03036E+00 7.51070E+02 1.71783E+02
 -1       659 4.95370E+04-6.53343E+02-2.73645E+04 1.93133E+00 7.51053E+02 1.72716E+02
 -1       660 4.96945E+04-6.53057E+02-2.73671E+04 1.98988E+00 7.51044E+02 1.71371E+02
 -1       661 4.98545E+04-6.53190E+02-2.73691E+04 2.24386E+00 7.51044E+02 1.68078E+02
 -1       662 5.00125E+04-6.56022E+02-2.73617E+04 2.60125E+00 7.50931E+02 1.69941E+02
 -1       663 5.01405E+04-6.62968E+02-2.73124E+04 2.06079E+00 7.50832E+02 2.02525E+02
 -1       664 5.01660E+04-6.78622E+02-2.71488E+04-3.77450E-01 7.47857E+02 3.29256E+02
 -1       665 4.98168E+04-7.50600E+02-2.68277E+04-7.61132E+00 7.46521E+02 6.62064E+02
 -1       666 4.89685E+04-7.08069E+02-2.62361E+04-6.03979E+00 7.35171E+02 1.21807E+03
 -1       667 4.82471E+04-3.75302E+02-2.63188E+04-2.58490E+02 7.30640E+02 7.63908E+02
 -1       668 4.86316E+04 1.76251E+03-3.02986E+04-4.90746E+02 1.07337E+03-2.53360E+03
 -1       669 4.28290E+04-2.57245E+03-1.46559E+04 4.31174E+02 5.93943E+02-4.50355E+03
 -1       670 4.95807E+04-2.23246E+03-2.46235E+04-2.50276E+02 6.80839E+02-7.35153E+02
 -1       671 5.04066E+04-9.90260E+02-2.65614E+04-1.81376E+01 6.98695E+02 7.88577E+02
 -1       672 4.97652E+04-9.05076E+02-2.65978E+04-3.99804E+00 7.03219E+02 7.10893E+02
 -1       673 4.94308E+04-9.28362E+02-2.63332E+04-1.78266E+00 7.01020E+02 4.19582E+02
 -1       674 4.93726E+04-9.45181E+02-2.61396E+04-6.14823E-02 6.99164E+02 2.54502E+02
 -1       675 4.94565E+04-9.52592E+02-2.60529E+04 1.08408E+00 6.98500E+02 1.90258E+02
 -1       676 4.95959E+04-9.57058E+02-2.60273E+04 1.28460E+00 6.98266E+02 1.74020E+02
 -1       677 4.97510E+04-9.58154E+02-2.60226E+04 1.21390E+00 6.98184E+02 1.72874E+02
 -1       678 4.99074E+04-9.58162E+02-2.60238E+04 1.17453E+00 6.98149E+02 1.73690E+02
 -1       679 5.00646E+04-9.57899E+02-2.60263E+04 1.20233E+00 6.98127E+02 1.72428E+02
 -1       680 5.02239E+04-9.58194E+02-2.60279E+04 1.33960E+00 6.98081E+02 1.69431E+02
 -1       681 5.03806E+04-9.60884E+02-2.60195E+04 1.45459E+00 6.97989E+02 1.71458E+02
 -1       682 5.05040E+04-9.68567E+02-2.59701E+04 7.43149E-01 6.97547E+02 2.03001E+02
 -1       683 5.05305E+04-9.76055E+02-2.58044E+04-1.76789E+00 6.96004E+02 3.21453E+02
 -1       684 5.02667E+04-1.03647E+03-2.54809E+04-1.31965E+00 6.93246E+02 6.35198E+02
 -1       685 4.95931E+04-1.09542E+03-2.49542E+04 2.24895E+01 6.89641E+02 1.13762E+03
 -1       686 4.76833E+04-8.72246E+02-2.55276E+04-1.45343E+02 6.95351E+02 7.84195E+02
 -1       687 4.73289E+04 3.10440E+03-2.90922E+04-1.08644E+03 9.55939E+02-2.24933E+03
 -1       688 4.31488E+04-2.28989E+03-1.38973E+04 6.46162E-05 2.39039E-06-4.40975E+03
 -1       689 4.97292E+04-2.57946E+03-2.40273E+04 5.49513E-05-5.26188E-06-7.20251E+02
 -1       690 5.05713E+04-1.18942E+03-2.59551E+04 4.69385E-05-5.23445E-08 7.72749E+02
 -1       691 4.98786E+04-1.07105E+03-2.60212E+04 4.60778E-05-3.36502E-06 6.98578E+02
 -1       692 4.95541E+04-1.12512E+03-2.57768E+04 4.27932E-05-5.09691E-06 4.14905E+02
 -1       693 4.95113E+04-1.13201E+03-2.55796E+04 3.85250E-05-6.53945E-06 2.53510E+02
 -1       694 4.95930E+04-1.14075E+03-2.54941E+04 3.37922E-05-6.91489E-06 1.90484E+02
 -1       695 4.97324E+04-1.14469E+03-2.54680E+04 2.90025E-05-6.98438E-06 1.74464E+02
 -1       696 4.98871E+04-1.14589E+03-2.54632E+04 2.42767E-05-6.78729E-06 1.73288E+02
 -1       697 5.00435E+04-1.14589E+03-2.54644E+04 1.97218E-05-6.40219E-06 1.74069E+02
 -1       698 5.02005E+04-1.14566E+03-2.54669E+04 1.54558E-05-5.93186E-06 1.72839E+02
 -1       699 5.03596E+04-1.14597E+03-2.54684E+04 1.14924E-05-5.42775E-06 1.69910E+02
 -1       700 5.05155E+04-1.14880E+03-2.54599E+04 7.84997E-06-4.81802E-06 1.72037E+02
 -1       701 5.06382E+04-1.15576E+03-2.54097E+04 4.64212E-06-4.05024E-06 2.02960E+02
 -1       702 5.06595E+04-1.16400E+03-2.52463E+04 1.90261E-06-3.29368E-06 3.19152E+02
 -1       703 5.04586E+04-1.19946E+03-2.49070E+04-4.69753E-07-2.54710E-06 6.25314E+02
 -1       704 4.97316E+04-1.40390E+03-2.44640E+04-2.40565E-06-1.52404E-06 1.11319E+03
 -1       705 4.75518E+04-8.57520E+02-2.50611E+04-3.22538E-06 1.78611E-07 7.98187E+02
 -1       706 4.69077E+04 3.17297E+03-2.86134E+04-2.38228E-06 2.30669E-06-2.14625E+03
 -1       707 4.28290E+04-2.57245E+03-1.46559E+04-4.31174E+02-5.93943E+02-4.50355E+03
 -1       708 4.95807E+04-2.23246E+03-2.46235E+04 2.50276E+02-6.80839E+02-7.35153E+02
 -1       709 5.04066E+04-9.90260E+02-2.65614E+04 1.81377E+01-6.98695E+02 7.88577E+02
 -1       710 4.97652E+04-9.05076E+02-2.65978E+04 3.99812E+00-7.03219E+02 7.10893E+02
 -1       711 4.94308E+04-9.28362E+02-2.63332E+04 1.78275E+00-7.01020E+02 4.19582E+02
 -1       712 4.93726E+04-9.45181E+02-2.61396E+04 6.15566E-02-6.99164E+02 2.54502E+02
 -1       713 4.94565E+04-9.52592E+02-2.60529E+04-1.08401E+00-6.98500E+02 1.90258E+02
 -1       714 4.95959E+04-9.57058E+02-2.60273E+04-1.28454E+00-6.98266E+02 1.74020E+02
 -1       715 4.97510E+04-9.58154E+02-2.60226E+04-1.21385E+00-6.98184E+02 1.72874E+02
 -1       716 4.99074E+04-9.58162E+02-2.60238E+04-1.17449E+00-6.98149E+02 1.73690E+02
 -1       717 5.00646E+04-9.57899E+02-2.60263E+04-1.20229E+00-6.98127E+02 1.72428E+02
 -1       718 5.02239E+04-9.58194E+02-2.60279E+04-1.33958E+00-6.98081E+02 1.69431E+02
 -1       719 5.03806E+04-9.60884E+02-2.60195E+04-1.45457E+00-6.97989E+02 1.71458E+02
 -1       720 5.05040E+04-9.68567E+02-2.59701E+04-7.43139E-01-6.97547E+02 2.03001E+02
 -1       721 5.05305E+04-9.76055E+02-2.58044E+04 1.76789E+00-6.96004E+02 3.21453E+02
 -1       722 5.02667E+04-1.03647E+03-2.54809E+04 1.31966E+00-6.93246E+02 6.35198E+02
 -1       723 4.95931E+04-1.09542E+03-2.49542E+04-2.24895E+01-6.89641E+02 1.13762E+03
 -1       724 4.76833E+04-8.72246E+02-2.55276E+04 1.45343E+02-6.95351E+02 7.84195E+02
 -1       725 4.73289E+04 3.10440E+03-2.90922E+04 1.08644E+03-9.55939E+02-2.24933E+03
 -1       726 4.18343E+04-3.63965E+03-1.66765E+04-3.13526E+02-6.50070E+02-4.71838E+03
 -1       727 4.91592E+04-1.25592E+03-2.60232E+04 1.45864E+02-7.41117E+02-7.53528E+02
 -1       728 4.99309E+04-8.34442E+02-2.81101E+04 7.06263E+01-7.59094E+02 8.41936E+02
 -1       729 4.95142E+04-5.85102E+02-2.79498E+04 1.40523E+01-7.58658E+02 7.49217E+02
 -1       730 4.90732E+04-6.19350E+02-2.76776E+04 3.80458E+00-7.54791E+02 4.33568E+02
 -1       731 4.90003E+04-6.38375E+02-2.74788E+04-7.37680E-01-7.52131E+02 2.57381E+02
 -1       732 4.90831E+04-6.47851E+02-2.73925E+04-2.16267E+00-7.51339E+02 1.89614E+02
 -1       733 4.92241E+04-6.52300E+02-2.73674E+04-2.22323E+00-7.51125E+02 1.72799E+02
 -1       734 4.93800E+04-6.53403E+02-2.73631E+04-2.03032E+00-7.51070E+02 1.71783E+02
 -1       735 4.95370E+04-6.53343E+02-2.73645E+04-1.93129E+00-7.51053E+02 1.72716E+02
 -1       736 4.96945E+04-6.53057E+02-2.73671E+04-1.98985E+00-7.51044E+02 1.71371E+02
 -1       737 4.98545E+04-6.53190E+02-2.73691E+04-2.24383E+00-7.51044E+02 1.68078E+02
 -1       738 5.00125E+04-6.56022E+02-2.73617E+04-2.60123E+00-7.50931E+02 1.69941E+02
 -1       739 5.01405E+04-6.62968E+02-2.73124E+04-2.06078E+00-7.50832E+02 2.02525E+02
 -1       740 5.01660E+04-6.78622E+02-2.71488E+04 3.77457E-01-7.47857E+02 3.29256E+02
 -1       741 4.98168E+04-7.50600E+02-2.68277E+04 7.61133E+00-7.46521E+02 6.62064E+02
 -1       742 4.89685E+04-7.08069E+02-2.62361E+04 6.03979E+00-7.35171E+02 1.21807E+03
 -1       743 4.82471E+04-3.75302E+02-2.63188E+04 2.58490E+02-7.30640E+02 7.63908E+02
 -1       744 4.86316E+04 1.76251E+03-3.02986E+04 4.90746E+02-1.07337E+03-2.53360E+03
 -1       745 4.19035E+04-4.31718E+03-1.98080E+04 4.79839E+02 1.27256E+03-6.71618E+03
 -1       746 4.88337E+04-1.41215E+03-2.73323E+04-1.09224E+02 1.39762E+03-7.36609E+02
 -1       747 4.89557E+04-9.48217E+02-2.82232E+04-6.07743E+01 1.44372E+03 1.05053E+03
 -1       748 4.86287E+04-8.81682E+02-2.81423E+04-5.41373E+00 1.44745E+03 8.08804E+02
 -1       749 4.85903E+04-9.32054E+02-2.79693E+04 3.77532E-01 1.43829E+03 4.37760E+02
 -1       750 4.87214E+04-9.32732E+02-2.78070E+04 1.54230E+00 1.43409E+03 2.24413E+02
 -1       751 4.88674E+04-9.35804E+02-2.77426E+04 2.29329E+00 1.43283E+03 1.45446E+02
 -1       752 4.90228E+04-9.36448E+02-2.77220E+04 2.15558E+00 1.43248E+03 1.26217E+02
 -1       753 4.91767E+04-9.36584E+02-2.77182E+04 2.00478E+00 1.43241E+03 1.25457E+02
 -1       754 4.93293E+04-9.36476E+02-2.77186E+04 1.93314E+00 1.43240E+03 1.26697E+02
 -1       755 4.94818E+04-9.36308E+02-2.77201E+04 1.96850E+00 1.43240E+03 1.25061E+02
 -1       756 4.96355E+04-9.36309E+02-2.77211E+04 2.13710E+00 1.43240E+03 1.20876E+02
 -1       757 4.97917E+04-9.36606E+02-2.77143E+04 2.42386E+00 1.43231E+03 1.22575E+02
 -1       758 4.99463E+04-9.38759E+02-2.76767E+04 2.33141E+00 1.43171E+03 1.60131E+02
 -1       759 5.00931E+04-9.36741E+02-2.75472E+04 8.80200E-01 1.42929E+03 3.13117E+02
 -1       760 5.02077E+04-9.63587E+02-2.72801E+04 4.37493E+00 1.41886E+03 6.98248E+02
 -1       761 4.97336E+04-1.13337E+03-2.71151E+04-1.07873E+01 1.40892E+03 1.40859E+03
 -1       762 4.84953E+04-9.08356E+02-2.64500E+04-2.25210E+02 1.42303E+03 1.24519E+03
 -1       763 4.94265E+04 2.07309E+03-2.75845E+04-3.44142E+02 1.71280E+03-2.21704E+03
 -1       764 4.32383E+04-3.44860E+03-1.65727E+04 5.58846E+02 1.03630E+03-6.25236E+03
 -1       765 4.95465E+04-2.57508E+03-2.46612E+04-2.17361E+02 1.15973E+03-6.95836E+02
 -1       766 4.97651E+04-1.31804E+03-2.54483E+04-8.53403E+00 1.20340E+03 9.70765E+02
 -1       767 4.92597E+04-1.41700E+03-2.55424E+04 1.55520E+00 1.21333E+03 7.57778E+02
 -1       768 4.93252E+04-1.45335E+03-2.53725E+04 4.72957E-03 1.20785E+03 4.19225E+02
 -1       769 4.94648E+04-1.45121E+03-2.52123E+04 1.41792E-01 1.20487E+03 2.20967E+02
 -1       770 4.96086E+04-1.45271E+03-2.51476E+04 1.01179E+00 1.20381E+03 1.46586E+02
 -1       771 4.97614E+04-1.45320E+03-2.51265E+04 1.17438E+00 1.20344E+03 1.28036E+02
 -1       772 4.99142E+04-1.45341E+03-2.51225E+04 1.15404E+00 1.20333E+03 1.27100E+02
 -1       773 5.00664E+04-1.45332E+03-2.51230E+04 1.14037E+00 1.20330E+03 1.28174E+02
 -1       774 5.02186E+04-1.45319E+03-2.51245E+04 1.15829E+00 1.20328E+03 1.26658E+02
 -1       775 5.03716E+04-1.45325E+03-2.51254E+04 1.20774E+00 1.20324E+03 1.22870E+02
 -1       776 5.05259E+04-1.45378E+03-2.51180E+04 1.30192E+00 1.20308E+03 1.24864E+02
 -1       777 5.06739E+04-1.45571E+03-2.50800E+04 5.40324E-01 1.20238E+03 1.61042E+02
 -1       778 5.08159E+04-1.44857E+03-2.49482E+04-1.38872E+00 1.20064E+03 3.03909E+02
 -1       779 5.09968E+04-1.45903E+03-2.46764E+04 4.41963E+00 1.19205E+03 6.60842E+02
 -1       780 5.07424E+04-1.71417E+03-2.45383E+04 2.16077E+01 1.19042E+03 1.29708E+03
 -1       781 4.84544E+04-1.64769E+03-2.44074E+04-1.14636E+02 1.21074E+03 1.25832E+03
 -1       782 4.84359E+04 3.13053E+03-2.53121E+04-9.29069E+02 1.46272E+03-1.73400E+03
 -1       783 4.35642E+04-3.35228E+03-1.56291E+04 6.27880E-05-5.64081E-07-6.08226E+03
 -1       784 4.96777E+04-3.10718E+03-2.38571E+04 5.50364E-05-3.26299E-06-6.68239E+02
 -1       785 4.99375E+04-1.70102E+03-2.46284E+04 4.80094E-05-1.14501E-06 9.47081E+02
 -1       786 4.93928E+04-1.77483E+03-2.47521E+04 4.63374E-05-2.83751E-06 7.41601E+02
 -1       787 4.94704E+04-1.83749E+03-2.45976E+04 4.34390E-05-4.42924E-06 4.12816E+02
 -1       788 4.96227E+04-1.82626E+03-2.44337E+04 3.93714E-05-5.46275E-06 2.19735E+02
 -1       789 4.97635E+04-1.82885E+03-2.43699E+04 3.46997E-05-5.80483E-06 1.46899E+02
 -1       790 4.99158E+04-1.82885E+03-2.43486E+04 2.98514E-05-5.80164E-06 1.28621E+02
 -1       791 5.00682E+04-1.82914E+03-2.43446E+04 2.50315E-05-5.60217E-06 1.27642E+02
 -1       792 5.02203E+04-1.82904E+03-2.43450E+04 2.03730E-05-5.26595E-06 1.28668E+02
 -1       793 5.03724E+04-1.82891E+03-2.43466E+04 1.59905E-05-4.83606E-06 1.27192E+02
 -1       794 5.05252E+04-1.82896E+03-2.43474E+04 1.19317E-05-4.39937E-06 1.23512E+02
 -1       795 5.06784E+04-1.82972E+03-2.43400E+04 8.23607E-06-3.88149E-06 1.25609E+02
 -1       796 5.08253E+04-1.83055E+03-2.43012E+04 4.98394E-06-3.28340E-06 1.61147E+02
 -1       797 5.09597E+04-1.82544E+03-2.41718E+04 2.21022E-06-2.64899E-06 3.00822E+02
 -1       798 5.11979E+04-1.80887E+03-2.38836E+04-9.38206E-08-1.98529E-06 6.47583E+02
 -1       799 5.09119E+04-2.19886E+03-2.38115E+04-1.80073E-06-1.07552E-06 1.26139E+03
 -1       800 4.83727E+04-1.86153E+03-2.37468E+04-2.48404E-06 3.06336E-07 1.28432E+03
 -1       801 4.81108E+04 3.08167E+03-2.45916E+04-1.89947E-06 1.50882E-06-1.56979E+03
 -1       802 4.32383E+04-3.44860E+03-1.65727E+04-5.58846E+02-1.03630E+03-6.25236E+03
 -1       803 4.95465E+04-2.57508E+03-2.46612E+04 2.17361E+02-1.15973E+03-6.95836E+02
 -1       804 4.97651E+04-1.31804E+03-2.54483E+04 8.53412E+00-1.20340E+03 9.70765E+02
 -1       805 4.92597E+04-1.41700E+03-2.55424E+04-1.55511E+00-1.21333E+03 7.57778E+02
 -1       806 4.93252E+04-1.45335E+03-2.53725E+04-4.64677E-03-1.20785E+03 4.19225E+02
 -1       807 4.94648E+04-1.45121E+03-2.52123E+04-1.41717E-01-1.20487E+03 2.20967E+02
 -1       808 4.96086E+04-1.45271E+03-2.51476E+04-1.01172E+00-1.20381E+03 1.46586E+02
 -1       809 4.97614E+04-1.45320E+03-2.51265E+04-1.17432E+00-1.20344E+03 1.28036E+02
 -1       810 4.99142E+04-1.45341E+03-2.51225E+04-1.15399E+00-1.20333E+03 1.27100E+02
 -1       811 5.00664E+04-1.45332E+03-2.51230E+04-1.14033E+00-1.20330E+03 1.28174E+02
 -1       812 5.02186E+04-1.45319E+03-2.51245E+04-1.15826E+00-1.20328E+03 1.26658E+02
 -1       813 5.03716E+04-1.45325E+03-2.51254E+04-1.20772E+00-1.20324E+03 1.22870E+02
 -1       814 5.05259E+04-1.45378E+03-2.51180E+04-1.30190E+00-1.20308E+03 1.24864E+02
 -1       815 5.06739E+04-1.45571E+03-2.50800E+04-5.40313E-01-1.20238E+03 1.61042E+02
 -1       816 5.08159E+04-1.44857E+03-2.49482E+04 1.38873E+00-1.20064E+03 3.03909E+02
 -1       817 5.09968E+04-1.45903E+03-2.46764E+04-4.41963E+00-1.19205E+03 6.60842E+02
 -1       818 5.07424E+04-1.71417E+03-2.45383E+04-2.16077E+01-1.19042E+03 1.29708E+03
 -1       819 4.84544E+04-1.64769E+03-2.44074E+04 1.14636E+02-1.21074E+03 1.25832E+03
 -1       820 4.84359E+04 3.13053E+03-2.53121E+04 9.29069E+02-1.46272E+03-1.73400E+03
 -1       821 4.19035E+04-4.31718E+03-1.98080E+04-4.79839E+02-1.27256E+03-6.71618E+03
 -1       822 4.88337E+04-1.41215E+03-2.73323E+04 1.09224E+02-1.39762E+03-7.36609E+02
 -1       823 4.89557E+04-9.48217E+02-2.82232E+04 6.07744E+01-1.44372E+03 1.05053E+03
 -1       824 4.86287E+04-8.81682E+02-2.81423E+04 5.41380E+00-1.44745E+03 8.08804E+02
 -1       825 4.85903E+04-9.32054E+02-2.79693E+04-3.77461E-01-1.43829E+03 4.37760E+02
 -1       826 4.87214E+04-9.32732E+02-2.78070E+04-1.54224E+00-1.43409E+03 2.24413E+02
 -1       827 4.88674E+04-9.35804E+02-2.77426E+04-2.29323E+00-1.43283E+03 1.45446E+02
 -1       828 4.90228E+04-9.36448E+02-2.77220E+04-2.15552E+00-1.43248E+03 1.26217E+02
 -1       829 4.91767E+04-9.36584E+02-2.77182E+04-2.00474E+00-1.43241E+03 1.25457E+02
 -1       830 4.93293E+04-9.36476E+02-2.77186E+04-1.93310E+00-1.43240E+03 1.26697E+02
 -1       831 4.94818E+04-9.36308E+02-2.77201E+04-1.96847E+00-1.43240E+03 1.25061E+02
 -1       832 4.96355E+04-9.36309E+02-2.77211E+04-2.13708E+00-1.43240E+03 1.20876E+02
 -1       833 4.97917E+04-9.36606E+02-2.77143E+04-2.42384E+00-1.43231E+03 1.22575E+02
 -1       834 4.99463E+04-9.38759E+02-2.76767E+04-2.33139E+00-1.43171E+03 1.60131E+02
 -1       835 5.00931E+04-9.36741E+02-2.75472E+04-8.80192E-01-1.42929E+03 3.13117E+02
 -1       836 5.02077E+04-9.63587E+02-2.72801E+04-4.37492E+00-1.41886E+03 6.98248E+02
 -1       837 4.97336E+04-1.13337E+03-2.71151E+04 1.07873E+01-1.40892E+03 1.40859E+03
 -1       838 4.84953E+04-9.08356E+02-2.64500E+04 2.25210E+02-1.42303E+03 1.24519E+03
 -1       839 4.94265E+04 2.07309E+03-2.75845E+04 3.44142E+02-1.71280E+03-2.21704E+03
 -1       840 4.23644E+04-4.93326E+03-2.38218E+04 7.45959E+02 1.99448E+03-7.54534E+03
 -1       841 4.87189E+04-7.04409E+02-2.72328E+04-1.00780E+02 2.03729E+03-2.44881E+02
 -1       842 4.78269E+04-5.29555E+02-2.72169E+04-4.79861E+01 2.16271E+03 9.23258E+02
 -1       843 4.80476E+04-7.09970E+02-2.74626E+04 1.19414E+01 2.15304E+03 7.13693E+02
 -1       844 4.86112E+04-7.05709E+02-2.72818E+04 3.23595E+00 2.14173E+03 3.59767E+02
 -1       845 4.89362E+04-6.98973E+02-2.71815E+04 2.32052E+00 2.13583E+03 1.69079E+02
 -1       846 4.91531E+04-6.92506E+02-2.71338E+04 1.87022E+00 2.13435E+03 9.82356E+01
 -1       847 4.93171E+04-6.89279E+02-2.71183E+04 1.64164E+00 2.13378E+03 8.14276E+01
 -1       848 4.94665E+04-6.88661E+02-2.71149E+04 1.55733E+00 2.13369E+03 8.10190E+01
 -1       849 4.96137E+04-6.88611E+02-2.71145E+04 1.53704E+00 2.13367E+03 8.22188E+01
 -1       850 4.97601E+04-6.88741E+02-2.71149E+04 1.53413E+00 2.13366E+03 8.07269E+01
 -1       851 4.99055E+04-6.88667E+02-2.71148E+04 1.60210E+00 2.13369E+03 7.67781E+01
 -1       852 5.00541E+04-6.87188E+02-2.71091E+04 1.68661E+00 2.13345E+03 7.79094E+01
 -1       853 5.02329E+04-6.81053E+02-2.70795E+04 2.22787E+00 2.13285E+03 1.11640E+02
 -1       854 5.04957E+04-6.70295E+02-2.69972E+04 1.47231E+00 2.12971E+03 2.46735E+02
 -1       855 5.10569E+04-6.38578E+02-2.67700E+04 1.58032E+01 2.11702E+03 6.06283E+02
 -1       856 5.15691E+04-8.68918E+02-2.68369E+04 1.14706E+01 2.08666E+03 1.19633E+03
 -1       857 5.07850E+04-9.60894E+02-2.63139E+04-2.43561E+02 2.18441E+03 1.55576E+03
 -1       858 5.29424E+04 2.78268E+03-2.38250E+04 1.34841E+02 2.10514E+03-1.29379E+03
 -1       859 4.37467E+04-4.55017E+03-1.99777E+04 6.84741E+02 1.11503E+03-6.83693E+03
 -1       860 4.93683E+04-2.22608E+03-2.39441E+04-2.05233E+02 1.28233E+03-1.94518E+02
 -1       861 4.87190E+04-1.26128E+03-2.38079E+04 9.12266E+00 1.35130E+03 8.26585E+02
 -1       862 4.88110E+04-1.61284E+03-2.42052E+04 1.12813E+01 1.36568E+03 6.57707E+02
 -1       863 4.94746E+04-1.58545E+03-2.40162E+04 1.31789E+00 1.35654E+03 3.38729E+02
 -1       864 4.97994E+04-1.58098E+03-2.39171E+04 1.33753E-01 1.35317E+03 1.65942E+02
 -1       865 5.00108E+04-1.57168E+03-2.38683E+04 4.80729E-01 1.35177E+03 9.93260E+01
 -1       866 5.01705E+04-1.56911E+03-2.38531E+04 6.08660E-01 1.35130E+03 8.33289E+01
 -1       867 5.03187E+04-1.56837E+03-2.38496E+04 6.83034E-01 1.35116E+03 8.26266E+01
 -1       868 5.04655E+04-1.56838E+03-2.38494E+04 7.01197E-01 1.35114E+03 8.36506E+01
 -1       869 5.06118E+04-1.56852E+03-2.38499E+04 6.98983E-01 1.35114E+03 8.22744E+01
 -1       870 5.07564E+04-1.56846E+03-2.38500E+04 6.68699E-01 1.35111E+03 7.88300E+01
 -1       871 5.09028E+04-1.56726E+03-2.38439E+04 5.53366E-01 1.35087E+03 8.02476E+01
 -1       872 5.10714E+04-1.56162E+03-2.38155E+04 2.13922E-01 1.35002E+03 1.12945E+02
 -1       873 5.13245E+04-1.54495E+03-2.37268E+04-2.05540E+00 1.34841E+03 2.37567E+02
 -1       874 5.19242E+04-1.50632E+03-2.35035E+04 1.10504E+01 1.33503E+03 5.63771E+02
 -1       875 5.27218E+04-1.77563E+03-2.35243E+04 3.40803E+01 1.33424E+03 1.06698E+03
 -1       876 5.09356E+04-2.21010E+03-2.36650E+04-9.00272E+01 1.37611E+03 1.56419E+03
 -1       877 5.21852E+04 4.04945E+03-2.07974E+04-6.90397E+02 1.48540E+03-5.85183E+02
 -1       878 4.37461E+04-4.71055E+03-1.97978E+04 5.91063E-05 2.79775E-07-6.63164E+03
 -1       879 4.92564E+04-2.85283E+03-2.36747E+04 5.42802E-05-1.82313E-06-1.64313E+02
 -1       880 4.86390E+04-1.79408E+03-2.35714E+04 4.92299E-05-1.65193E-06 8.04626E+02
 -1       881 4.87185E+04-2.10630E+03-2.39762E+04 4.75723E-05-2.54715E-06 6.38117E+02
 -1       882 4.93909E+04-2.10913E+03-2.38028E+04 4.47378E-05-3.57189E-06 3.32018E+02
 -1       883 4.97269E+04-2.09557E+03-2.36987E+04 4.06494E-05-4.20768E-06 1.64396E+02
 -1       884 4.99339E+04-2.08750E+03-2.36508E+04 3.58533E-05-4.39505E-06 9.94867E+01
 -1       885 5.00929E+04-2.08449E+03-2.36354E+04 3.08134E-05-4.32915E-06 8.37221E+01
 -1       886 5.02405E+04-2.08381E+03-2.36319E+04 2.57935E-05-4.12958E-06 8.29779E+01
 -1       887 5.03872E+04-2.08378E+03-2.36317E+04 2.09526E-05-3.84884E-06 8.39421E+01
 -1       888 5.05334E+04-2.08392E+03-2.36323E+04 1.64018E-05-3.50968E-06 8.26125E+01
 -1       889 5.06779E+04-2.08378E+03-2.36321E+04 1.22055E-05-3.16591E-06 7.92868E+01
 -1       890 5.08230E+04-2.08294E+03-2.36264E+04 8.41674E-06-2.77697E-06 8.08518E+01
 -1       891 5.09899E+04-2.07588E+03-2.35970E+04 5.10093E-06-2.34698E-06 1.12785E+02
 -1       892 5.12323E+04-2.06261E+03-2.35111E+04 2.30705E-06-1.87867E-06 2.34966E+02
 -1       893 5.18845E+04-1.99543E+03-2.32693E+04 8.32215E-08-1.36546E-06 5.46317E+02
 -1       894 5.26766E+04-2.39826E+03-2.33396E+04-1.41869E-06-6.69178E-07 1.03135E+03
 -1       895 5.06064E+04-2.61761E+03-2.36126E+04-1.99002E-06 2.70354E-07 1.59969E+03
 -1       896 5.16810E+04 4.09346E+03-2.04111E+04-1.55720E-06 1.07014E-06-3.77888E+02
 -1       897 4.37467E+04-4.55017E+03-1.99777E+04-6.84741E+02-1.11503E+03-6.83693E+03
 -1       898 4.93683E+04-2.22608E+03-2.39441E+04 2.05233E+02-1.28233E+03-1.94518E+02
 -1       899 4.87190E+04-1.26128E+03-2.38079E+04-9.12257E+00-1.35130E+03 8.26585E+02
 -1       900 4.88110E+04-1.61284E+03-2.42052E+04-1.12812E+01-1.36568E+03 6.57707E+02
 -1       901 4.94746E+04-1.58545E+03-2.40162E+04-1.31780E+00-1.35654E+03 3.38729E+02
 -1       902 4.97994E+04-1.58098E+03-2.39171E+04-1.33675E-01-1.35317E+03 1.65942E+02
 -1       903 5.00108E+04-1.57168E+03-2.38683E+04-4.80659E-01-1.35177E+03 9.93260E+01
 -1       904 5.01705E+04-1.56911E+03-2.38531E+04-6.08600E-01-1.35130E+03 8.33289E+01
 -1       905 5.03187E+04-1.56837E+03-2.38496E+04-6.82984E-01-1.35116E+03 8.26266E+01
 -1       906 5.04655E+04-1.56838E+03-2.38494E+04-7.01155E-01-1.35114E+03 8.36506E+01
 -1       907 5.06118E+04-1.56852E+03-2.38499E+04-6.98950E-01-1.35114E+03 8.22744E+01
 -1       908 5.07564E+04-1.56846E+03-2.38500E+04-6.68674E-01-1.35111E+03 7.88300E+01
 -1       909 5.09028E+04-1.56726E+03-2.38439E+04-5.53349E-01-1.35087E+03 8.02476E+01
 -1       910 5.10714E+04-1.56162E+03-2.38155E+04-2.13911E-01-1.35002E+03 1.12945E+02
 -1       911 5.13245E+04-1.54495E+03-2.37268E+04 2.05541E+00-1.34841E+03 2.37567E+02
 -1       912 5.19242E+04-1.50632E+03-2.35035E+04-1.10504E+01-1.33503E+03 5.63771E+02
 -1       913 5.27218E+04-1.77563E+03-2.35243E+04-3.40803E+01-1.33424E+03 1.06698E+03
 -1       914 5.09356E+04-2.21010E+03-2.36650E+04 9.00272E+01-1.37611E+03 1.56419E+03
 -1       915 5.21852E+04 4.04945E+03-2.07974E+04 6.90397E+02-1.48540E+03-5.85183E+02
 -1       916 4.23644E+04-4.93326E+03-2.38218E+04-7.45959E+02-1.99448E+03-7.54534E+03
 -1       917 4.87189E+04-7.04409E+02-2.72328E+04 1.00780E+02-2.03729E+03-2.44881E+02
 -1       918 4.78269E+04-5.29555E+02-2.72169E+04 4.79862E+01-2.16271E+03 9.23258E+02
 -1       919 4.80476E+04-7.09970E+02-2.74626E+04-1.19413E+01-2.15304E+03 7.13693E+02
 -1       920 4.86112E+04-7.05709E+02-2.72818E+04-3.23588E+00-2.14173E+03 3.59767E+02
 -1       921 4.89362E+04-6.98973E+02-2.71815E+04-2.32045E+00-2.13583E+03 1.69079E+02
 -1       922 4.91531E+04-6.92506E+02-2.71338E+04-1.87015E+00-2.13435E+03 9.82356E+01
 -1       923 4.93171E+04-6.89279E+02-2.71183E+04-1.64159E+00-2.13378E+03 8.14276E+01
 -1       924 4.94665E+04-6.88661E+02-2.71149E+04-1.55728E+00-2.13369E+03 8.10190E+01
 -1       925 4.96137E+04-6.88611E+02-2.71145E+04-1.53700E+00-2.13367E+03 8.22188E+01
 -1       926 4.97601E+04-6.88741E+02-2.71149E+04-1.53410E+00-2.13366E+03 8.07269E+01
 -1       927 4.99055E+04-6.88667E+02-2.71148E+04-1.60207E+00-2.13369E+03 7.67781E+01
 -1       928 5.00541E+04-6.87188E+02-2.71091E+04-1.68659E+00-2.13345E+03 7.79094E+01
 -1       929 5.02329E+04-6.81053E+02-2.70795E+04-2.22786E+00-2.13285E+03 1.11640E+02
 -1       930 5.04957E+04-6.70295E+02-2.69972E+04-1.47230E+00-2.12971E+03 2.46735E+02
 -1       931 5.10569E+04-6.38578E+02-2.67700E+04-1.58032E+01-2.11702E+03 6.06283E+02
 -1       932 5.15691E+04-8.68918E+02-2.68369E+04-1.14706E+01-2.08666E+03 1.19633E+03
 -1       933 5.07850E+04-9.60894E+02-2.63139E+04 2.43561E+02-2.18441E+03 1.55576E+03
 -1       934 5.29424E+04 2.78268E+03-2.38250E+04-1.34841E+02-2.10514E+03-1.29379E+03
 -1       935 4.36167E+04-5.18152E+03-2.84771E+04 8.95910E+02 1.66828E+03-4.32993E+03
 -1       936 4.86001E+04 1.98786E+03-2.31007E+04-2.77888E+02 1.70388E+03-6.66103E+02
 -1       937 4.66422E+04 6.50882E+02-2.49436E+04 4.05270E+01 1.82580E+03 4.94956E+02
 -1       938 4.86999E+04 6.79280E+02-2.48093E+04 2.90264E+01 1.81382E+03 3.97690E+02
 -1       939 4.97051E+04 6.99712E+02-2.47067E+04 1.14839E+01 1.80273E+03 2.06652E+02
 -1       940 5.02338E+04 7.13958E+02-2.46365E+04 2.91393E+00 1.79884E+03 9.55238E+01
 -1       941 5.04926E+04 7.31300E+02-2.46010E+04 9.30477E-01 1.79732E+03 5.09881E+01
 -1       942 5.06537E+04 7.35860E+02-2.45899E+04 4.18093E-01 1.79690E+03 3.94530E+01
 -1       943 5.07950E+04 7.37028E+02-2.45869E+04 4.98070E-01 1.79680E+03 3.84663E+01
 -1       944 5.09361E+04 7.36681E+02-2.45863E+04 5.55886E-01 1.79678E+03 3.89418E+01
 -1       945 5.10767E+04 7.36023E+02-2.45862E+04 5.12290E-01 1.79678E+03 3.80825E+01
 -1       946 5.12122E+04 7.36018E+02-2.45856E+04 3.16347E-01 1.79677E+03 3.61911E+01
 -1       947 5.13462E+04 7.37568E+02-2.45814E+04 3.57263E-01 1.79664E+03 3.81979E+01
 -1       948 5.15229E+04 7.50543E+02-2.45589E+04 6.16462E-01 1.79593E+03 6.13714E+01
 -1       949 5.18905E+04 7.74533E+02-2.44980E+04 6.95457E+00 1.79323E+03 1.46185E+02
 -1       950 5.26867E+04 7.93055E+02-2.43861E+04 1.74230E+01 1.78862E+03 3.48271E+02
 -1       951 5.46775E+04 8.52008E+02-2.41355E+04 1.30675E+02 1.72486E+03 7.26761E+02
 -1       952 5.65462E+04 2.27150E+02-2.46708E+04-4.08267E+02 1.98362E+03 4.99711E+02
 -1       953 6.22478E+04 5.33742E+03-1.89379E+04 5.71591E+02 1.12171E+03-1.09806E+03
 -1       954 4.36669E+04-5.38552E+03-2.78084E+04 3.51420E+02 4.36929E+02-3.94339E+03
 -1       955 4.84959E+04 8.49180E+02-2.22022E+04-2.18506E+02 6.46132E+02-5.32395E+02
 -1       956 4.66461E+04-7.75726E-01-2.41257E+04 6.69334E+01 6.88896E+02 4.19991E+02
 -1       957 4.86568E+04-3.17623E+01-2.40446E+04 3.15501E+01 7.07171E+02 3.50574E+02
 -1       958 4.97337E+04-4.74415E+01-2.39527E+04 6.57132E+00 6.98150E+02 1.91459E+02
 -1       959 5.02646E+04-2.22657E+01-2.38724E+04 1.02445E+00 6.95956E+02 9.22985E+01
 -1       960 5.05121E+04-8.33281E+00-2.38386E+04-5.20290E-01 6.94921E+02 5.15230E+01
 -1       961 5.06694E+04-3.04198E+00-2.38269E+04-3.40297E-01 6.94481E+02 4.04309E+01
 -1       962 5.08091E+04-2.01917E+00-2.38240E+04-1.58093E-01 6.94398E+02 3.92468E+01
 -1       963 5.09500E+04-2.22418E+00-2.38234E+04-4.11148E-02 6.94394E+02 3.95759E+01
 -1       964 5.10906E+04-2.70995E+00-2.38233E+04-1.04672E-01 6.94409E+02 3.88147E+01
 -1       965 5.12255E+04-2.83729E+00-2.38228E+04-3.06640E-01 6.94407E+02 3.72849E+01
 -1       966 5.13574E+04-4.33426E-01-2.38181E+04-7.37537E-01 6.94232E+02 3.96040E+01
 -1       967 5.15220E+04 8.97817E+00-2.37978E+04-8.08787E-01 6.93219E+02 6.20069E+01
 -1       968 5.18742E+04 4.40412E+01-2.37293E+04 7.54838E-01 6.93649E+02 1.38096E+02
 -1       969 5.26917E+04 4.55403E+01-2.36184E+04 1.78429E+01 6.77942E+02 3.21493E+02
 -1       970 5.50504E+04 1.06597E+02-2.32701E+04 1.03064E+02 6.89930E+02 5.75448E+02
 -1       971 5.55969E+04-1.27368E+03-2.47302E+04-4.21622E+01 7.15185E+02 7.33755E+02
 -1       972 6.01974E+04 8.05502E+03-1.76717E+04-1.00011E+03 6.79169E+02-5.36642E+02
 -1       973 4.45755E+04-3.27539E+03-2.69728E+04 5.26178E-05 7.64821E-07-3.87850E+03
 -1       974 4.91219E+04 2.09765E+03-2.15037E+04 5.24070E-05-5.74173E-07-4.78077E+02
 -1       975 4.73476E+04 1.52081E+03-2.33915E+04 5.06337E-05-1.42805E-06 4.08554E+02
 -1       976 4.93216E+04 1.47228E+03-2.33342E+04 4.90379E-05-1.66133E-06 3.34525E+02
 -1       977 5.04188E+04 1.43157E+03-2.32507E+04 4.58690E-05-2.14012E-06 1.86575E+02
 -1       978 5.09569E+04 1.46159E+03-2.31659E+04 4.14191E-05-2.42220E-06 9.09365E+01
 -1       979 5.12001E+04 1.47415E+03-2.31327E+04 3.62730E-05-2.48597E-06 5.15092E+01
 -1       980 5.13563E+04 1.47947E+03-2.31210E+04 3.09199E-05-2.41628E-06 4.06176E+01
 -1       981 5.14955E+04 1.48045E+03-2.31182E+04 2.56479E-05-2.27882E-06 3.94015E+01
 -1       982 5.16362E+04 1.48019E+03-2.31176E+04 2.06195E-05-2.10431E-06 3.96931E+01
 -1       983 5.17768E+04 1.47966E+03-2.31175E+04 1.59379E-05-1.90584E-06 3.89692E+01
 -1       984 5.19116E+04 1.47957E+03-2.31171E+04 1.16653E-05-1.70474E-06 3.74943E+01
 -1       985 5.20420E+04 1.48159E+03-2.31124E+04 7.84871E-06-1.48638E-06 4.00443E+01
 -1       986 5.22056E+04 1.49244E+03-2.30920E+04 4.54332E-06-1.25015E-06 6.13027E+01
 -1       987 5.25410E+04 1.51962E+03-2.30263E+04 1.81267E-06-9.90951E-07 1.37524E+02
 -1       988 5.34250E+04 1.56415E+03-2.28883E+04-2.51000E-07-6.96721E-07 3.03400E+02
 -1       989 5.57698E+04 1.41409E+03-2.26147E+04-1.48596E-06-3.04751E-07 5.51548E+02
 -1       990 5.59674E+04 3.62680E+02-2.41496E+04-1.85250E-06 1.77099E-07 8.21393E+02
 -1       991 5.99575E+04 9.91543E+03-1.69824E+04-1.47056E-06 5.83572E-07-5.12194E+02
 -1       992 4.36669E+04-5.38552E+03-2.78084E+04-3.51420E+02-4.36929E+02-3.94339E+03
 -1       993 4.84959E+04 8.49180E+02-2.22022E+04 2.18506E+02-6.46132E+02-5.32395E+02
 -1       994 4.66461E+04-7.75727E-01-2.41257E+04-6.69333E+01-6.88896E+02 4.19991E+02
 -1       995 4.86568E+04-3.17623E+01-2.40446E+04-3.15500E+01-7.07171E+02 3.50574E+02
 -1       996 4.97337E+04-4.74415E+01-2.39527E+04-6.57124E+00-6.98150E+02 1.91459E+02
 -1       997 5.02646E+04-2.22657E+01-2.38724E+04-1.02437E+00-6.95956E+02 9.22985E+01
 -1       998 5.05121E+04-8.33281E+00-2.38386E+04 5.20361E-01-6.94921E+02 5.15230E+01
 -1       999 5.06694E+04-3.04198E+00-2.38269E+04 3.40358E-01-6.94481E+02 4.04309E+01
 -1      1000 5.08091E+04-2.01917E+00-2.38240E+04 1.58144E-01-6.94398E+02 3.92468E+01
 -1      1001 5.09500E+04-2.22418E+00-2.38234E+04 4.11563E-02-6.94394E+02 3.95759E+01
 -1      1002 5.10906E+04-2.70995E+00-2.38233E+04 1.04704E-01-6.94409E+02 3.88147E+01
 -1      1003 5.12255E+04-2.83729E+00-2.38228E+04 3.06664E-01-6.94407E+02 3.72849E+01
 -1      1004 5.13574E+04-4.33426E-01-2.38181E+04 7.37553E-01-6.94232E+02 3.96040E+01
 -1      1005 5.15220E+04 8.97817E+00-2.37978E+04 8.08797E-01-6.93219E+02 6.20069E+01
 -1      1006 5.18742E+04 4.40412E+01-2.37293E+04-7.54833E-01-6.93649E+02 1.38096E+02
 -1      1007 5.26917E+04 4.55403E+01-2.36184E+04-1.78429E+01-6.77942E+02 3.21493E+02
 -1      1008 5.50504E+04 1.06597E+02-2.32701E+04-1.03064E+02-6.89930E+02 5.75448E+02
 -1      1009 5.55969E+04-1.27368E+03-2.47302E+04 4.21622E+01-7.15185E+02 7.33755E+02
 -1      1010 6.01974E+04 8.05502E+03-1.76717E+04 1.00011E+03-6.79169E+02-5.36642E+02
 -1      1011 4.36167E+04-5.18152E+03-2.84771E+04-8.95910E+02-1.66828E+03-4.32993E+03
 -1      1012 4.86001E+04 1.98786E+03-2.31007E+04 2.77888E+02-1.70388E+03-6.66103E+02
 -1      1013 4.66422E+04 6.50882E+02-2.49436E+04-4.05269E+01-1.82580E+03 4.94956E+02
 -1      1014 4.86999E+04 6.79280E+02-2.48093E+04-2.90263E+01-1.81382E+03 3.97690E+02
 -1      1015 4.97051E+04 6.99712E+02-2.47067E+04-1.14839E+01-1.80273E+03 2.06652E+02
 -1      1016 5.02338E+04 7.13958E+02-2.46365E+04-2.91386E+00-1.79884E+03 9.55238E+01
 -1      1017 5.04926E+04 7.31300E+02-2.46010E+04-9.30414E-01-1.79732E+03 5.09881E+01
 -1      1018 5.06537E+04 7.35860E+02-2.45899E+04-4.18038E-01-1.79690E+03 3.94530E+01
 -1      1019 5.07950E+04 7.37028E+02-2.45869E+04-4.98023E-01-1.79680E+03 3.84663E+01
 -1      1020 5.09361E+04 7.36681E+02-2.45863E+04-5.55846E-01-1.79678E+03 3.89418E+01
 -1      1021 5.10767E+04 7.36023E+02-2.45862E+04-5.12258E-01-1.79678E+03 3.80825E+01
 -1      1022 5.12122E+04 7.36018E+02-2.45856E+04-3.16322E-01-1.79677E+03 3.61911E+01
 -1      1023 5.13462E+04 7.37568E+02-2.45814E+04-3.57244E-01-1.79664E+03 3.81979E+01
 -1      1024 5.15229E+04 7.50543E+02-2.45589E+04-6.16450E-01-1.79593E+03 6.13714E+01
 -1      1025 5.18905E+04 7.74533E+02-2.44980E+04-6.95456E+00-1.79323E+03 1.46185E+02
 -1      1026 5.26867E+04 7.93055E+02-2.43861E+04-1.74230E+01-1.78862E+03 3.48271E+02
 -1      1027 5.46775E+04 8.52008E+02-2.41355E+04-1.30675E+02-1.72486E+03 7.26761E+02
 -1      1028 5.65462E+04 2.27150E+02-2.46708E+04 4.08267E+02-1.98362E+03 4.99711E+02
 -1      1029 6.22478E+04 5.33742E+03-1.89379E+04-5.71591E+02-1.12171E+03-1.09806E+03
 -1      1030-2.44803E+03-2.44805E+03-5.71206E+03 2.25835E-02-1.79856E+03-2.29944E+03
 -1      1031-3.73745E+02-3.73755E+02-8.72089E+02 6.43156E-05-1.05289E+02 8.57456E+02
 -1      1032-1.74538E+03-1.74539E+03-4.07256E+03 2.07195E-02-1.46912E+03-2.25900E+03
 -1      1033-3.57609E+02-3.57618E+02-8.34438E+02-1.42576E-04-2.50932E+01 8.04192E+02
 -1      1034-1.96448E+03-1.96450E+03-4.58380E+03 2.43796E-02-1.37401E+03-2.46016E+03
 -1      1035-3.24322E+02-3.24329E+02-7.56768E+02-8.88812E-04 4.52660E+00 7.51276E+02
 -1      1036-2.29857E+03-2.29860E+03-5.36334E+03 2.52523E-02-1.21338E+03-2.78082E+03
 -1      1037-2.86090E+02-2.86097E+02-6.67561E+02-1.23562E-03 1.07591E+01 7.11651E+02
 -1      1038-2.62913E+03-2.62919E+03-6.13466E+03 2.13021E-02-9.15361E+02-3.10802E+03
 -1      1039-2.53249E+02-2.53258E+02-5.90935E+02-1.11351E-03 8.89318E+00 6.86030E+02
 -1      1040-2.86163E+03-2.86169E+03-6.67715E+03 1.22763E-02-4.93208E+02-3.34552E+03
 -1      1041-2.30898E+02-2.30908E+02-5.38785E+02-6.46104E-04 4.67592E+00 6.72113E+02
 -1      1042-2.94482E+03-2.94490E+03-6.87128E+03 5.85115E-08-4.49471E-03-3.43167E+03
 -1      1043-2.22989E+02-2.22999E+02-5.20330E+02-1.81162E-11-1.44242E-06 6.67751E+02
 -1      1044-2.86163E+03-2.86170E+03-6.67717E+03-1.22762E-02 4.93201E+02-3.34553E+03
 -1      1045-2.30898E+02-2.30908E+02-5.38785E+02 6.46104E-04-4.67593E+00 6.72113E+02
 -1      1046-2.62914E+03-2.62920E+03-6.13469E+03-2.13021E-02 9.15357E+02-3.10802E+03
 -1      1047-2.53249E+02-2.53258E+02-5.90935E+02 1.11351E-03-8.89318E+00 6.86030E+02
 -1      1048-2.29858E+03-2.29861E+03-5.36337E+03-2.52523E-02 1.21338E+03-2.78082E+03
 -1      1049-2.86090E+02-2.86097E+02-6.67561E+02 1.23562E-03-1.07591E+01 7.11651E+02
 -1      1050-1.96449E+03-1.96451E+03-4.58383E+03-2.43796E-02 1.37401E+03-2.46016E+03
 -1      1051-3.24322E+02-3.24329E+02-7.56768E+02 8.88812E-04-4.52660E+00 7.51276E+02
 -1      1052-1.74538E+03-1.74540E+03-4.07257E+03-2.07196E-02 1.46913E+03-2.25900E+03
 -1      1053-3.57609E+02-3.57618E+02-8.34438E+02 1.42576E-04 2.50932E+01 8.04192E+02
 -1      1054-2.44804E+03-2.44806E+03-5.71208E+03-2.25836E-02 1.79856E+03-2.29944E+03
 -1      1055-3.73745E+02-3.73755E+02-8.72089E+02-6.43156E-05 1.05289E+02 8.57456E+02
 -1      1056-7.11693E+02-2.03439E+02-2.82154E+03-1.64414E+02-7.33580E+02-1.77221E+03
 -1      1057-5.38689E+02-1.00650E+02-4.91829E+02 3.21192E+01 9.59830E+00 7.24629E+02
 -1      1058-6.03738E+02-4.42952E+02-2.71244E+03-2.70962E+02-1.02640E+03-1.68365E+03
 -1      1059-4.81422E+02-1.58270E+02-5.22006E+02 3.37515E+01 2.19386E+01 6.28651E+02
 -1      1060-8.13756E+02-8.89674E+02-3.25999E+03-4.33641E+02-1.28964E+03-1.87932E+03
 -1      1061-5.18265E+02-2.62690E+02-5.12727E+02 4.09115E+01 3.49921E+01 5.85361E+02
 -1      1062-9.20016E+02-8.39757E+02-3.86665E+03-4.64940E+02-1.18181E+03-2.18074E+03
 -1      1063-5.77149E+02-3.12597E+02-4.83763E+02 4.36270E+01 3.47953E+01 5.55252E+02
 -1      1064-9.89390E+02-6.82659E+02-4.40689E+03-3.82158E+02-9.04411E+02-2.48166E+03
 -1      1065-6.35552E+02-3.33687E+02-4.50376E+02 3.63543E+01 2.64645E+01 5.35684E+02
 -1      1066-1.03292E+03-5.53249E+02-4.77781E+03-2.13629E+02-4.89051E+02-2.69761E+03
 -1      1067-6.77911E+02-3.42635E+02-4.25667E+02 2.05440E+01 1.41685E+01 5.24907E+02
 -1      1068-1.04754E+03-5.04442E+02-4.90841E+03 7.54996E-04-6.55355E-03-2.77545E+03
 -1      1069-6.93302E+02-3.45144E+02-4.16650E+02 3.95993E-07-1.30158E-06 5.21516E+02
 -1      1070-1.03293E+03-5.53248E+02-4.77783E+03 2.13630E+02 4.89041E+02-2.69761E+03
 -1      1071-6.77911E+02-3.42635E+02-4.25667E+02-2.05440E+01-1.41685E+01 5.24907E+02
 -1      1072-9.89396E+02-6.82658E+02-4.40692E+03 3.82158E+02 9.04407E+02-2.48166E+03
 -1      1073-6.35552E+02-3.33687E+02-4.50376E+02-3.63543E+01-2.64645E+01 5.35684E+02
 -1      1074-9.20022E+02-8.39757E+02-3.86667E+03 4.64940E+02 1.18181E+03-2.18074E+03
 -1      1075-5.77149E+02-3.12597E+02-4.83763E+02-4.36270E+01-3.47953E+01 5.55252E+02
 -1      1076-8.13761E+02-8.89675E+02-3.26001E+03 4.33641E+02 1.28965E+03-1.87932E+03
 -1      1077-5.18265E+02-2.62690E+02-5.12727E+02-4.09115E+01-3.49921E+01 5.85361E+02
 -1      1078-6.03741E+02-4.42953E+02-2.71245E+03 2.70962E+02 1.02641E+03-1.68365E+03
 -1      1079-4.81422E+02-1.58270E+02-5.22006E+02-3.37515E+01-2.19386E+01 6.28651E+02
 -1      1080-7.11696E+02-2.03439E+02-2.82156E+03 1.64414E+02 7.33584E+02-1.77221E+03
 -1      1081-5.38689E+02-1.00650E+02-4.91829E+02-3.21192E+01-9.59830E+00 7.24629E+02
 -1      1082 6.35044E+01 1.09616E+02 5.18888E+01-4.07381E+02-1.91117E+02-9.96371E+02
 -1      1083-6.03425E+02-1.51350E+02-1.58594E+01 7.45651E+01 7.60392E+01 4.83515E+02
 -1      1084-1.16850E+02-1.31606E+02-1.16042E+03-5.23997E+02-5.90509E+02-9.51580E+02
 -1      1085-5.05243E+02-1.31317E+02-3.91680E+01 6.19612E+01 6.14045E+01 3.99018E+02
 -1      1086-6.49394E+01 9.24477E+01-1.59704E+03-7.24395E+02-8.74184E+02-1.14153E+03
 -1      1087-5.26242E+02-1.56156E+02-4.31638E+01 5.91746E+01 7.51418E+01 3.61341E+02
 -1      1088-7.13094E+01 3.59959E+02-2.09605E+03-7.56754E+02-8.83014E+02-1.42283E+03
 -1      1089-6.20635E+02-2.09124E+02-4.97164E+01 5.57307E+01 6.73549E+01 3.31971E+02
 -1      1090-4.60997E+01 7.33891E+02-2.50346E+03-6.15184E+02-6.89763E+02-1.69767E+03
 -1      1091-7.24471E+02-2.50419E+02-4.93960E+01 4.46604E+01 5.16203E+01 3.07937E+02
 -1      1092-1.56688E+01 1.03084E+03-2.75987E+03-3.41816E+02-3.74010E+02-1.88890E+03
 -1      1093-8.00951E+02-2.75158E+02-4.63209E+01 2.50191E+01 2.80098E+01 2.92252E+02
 -1      1094-2.23622E+00 1.14178E+03-2.84476E+03 1.75182E-03-1.16338E-02-1.95596E+03
 -1      1095-8.28752E+02-2.83250E+02-4.46583E+01 4.85181E-07-6.52873E-07 2.86850E+02
 -1      1096-1.56771E+01 1.03084E+03-2.75990E+03 3.41818E+02 3.73994E+02-1.88889E+03
 -1      1097-8.00951E+02-2.75158E+02-4.63209E+01-2.50191E+01-2.80098E+01 2.92252E+02
 -1      1098-4.61090E+01 7.33895E+02-2.50351E+03 6.15184E+02 6.89760E+02-1.69767E+03
 -1      1099-7.24471E+02-2.50419E+02-4.93960E+01-4.46604E+01-5.16203E+01 3.07937E+02
 -1      1100-7.13156E+01 3.59962E+02-2.09609E+03 7.56753E+02 8.83020E+02-1.42282E+03
 -1      1101-6.20635E+02-2.09124E+02-4.97164E+01-5.57307E+01-6.73549E+01 3.31971E+02
 -1      1102-6.49428E+01 9.24496E+01-1.59706E+03 7.24393E+02 8.74192E+02-1.14153E+03
 -1      1103-5.26242E+02-1.56156E+02-4.31638E+01-5.91746E+01-7.51418E+01 3.61341E+02
 -1      1104-1.16852E+02-1.31606E+02-1.16043E+03 5.23997E+02 5.90515E+02-9.51578E+02
 -1      1105-5.05243E+02-1.31317E+02-3.91680E+01-6.19612E+01-6.14045E+01 3.99018E+02
 -1      1106 6.35026E+01 1.09616E+02 5.18808E+01 4.07381E+02 1.91120E+02-9.96369E+02
 -1      1107-6.03425E+02-1.51350E+02-1.58594E+01-7.45651E+01-7.60392E+01 4.83515E+02
 -1      1108 4.23281E+02 3.01847E+02 1.32322E+03-4.68278E+02-7.38654E+01-4.08742E+02
 -1      1109-5.30083E+02-1.35010E+02 1.83562E+02 7.00000E+01 4.87386E+01 2.28281E+02
 -1      1110 2.22693E+02 9.01655E+01 3.33358E+01-6.36822E+02-2.37832E+02-4.60211E+02
 -1      1111-4.18249E+02-9.46578E+01 2.12650E+02 5.42429E+01 6.52377E+01 1.95693E+02
 -1      1112 2.69924E+02 4.47733E+02-5.31871E+02-8.95000E+02-4.56620E+02-6.75603E+02
 -1      1113-4.51399E+02-1.23482E+02 1.57025E+02 4.43012E+01 9.38579E+01 1.66425E+02
 -1      1114 3.52861E+02 9.40149E+02-8.81440E+02-9.33593E+02-5.30740E+02-9.90968E+02
 -1      1115-5.51760E+02-1.74074E+02 1.03359E+02 3.49854E+01 9.43292E+01 1.35987E+02
 -1      1116 4.31309E+02 1.42874E+03-1.13845E+03-7.53391E+02-4.36534E+02-1.30087E+03
 -1      1117-6.67243E+02-2.28577E+02 5.81794E+01 2.59602E+01 7.48124E+01 1.07355E+02
 -1      1118 5.01946E+02 1.79290E+03-1.25935E+03-4.12297E+02-2.34848E+02-1.50001E+03
 -1      1119-7.54660E+02-2.66062E+02 2.92470E+01 1.42467E+01 4.09427E+01 8.60625E+01
 -1      1120 5.30441E+02 1.92446E+03-1.28934E+03 3.33137E-03-2.37791E-02-1.56403E+03
 -1      1121-7.86819E+02-2.78916E+02 1.98730E+01 2.10359E-07-1.04398E-07 7.79500E+01
 -1      1122 5.01924E+02 1.79290E+03-1.25943E+03 4.12301E+02 2.34819E+02-1.50000E+03
 -1      1123-7.54660E+02-2.66062E+02 2.92470E+01-1.42467E+01-4.09427E+01 8.60625E+01
 -1      1124 4.31292E+02 1.42874E+03-1.13853E+03 7.53391E+02 4.36538E+02-1.30086E+03
 -1      1125-6.67243E+02-2.28577E+02 5.81794E+01-2.59602E+01-7.48124E+01 1.07355E+02
 -1      1126 3.52855E+02 9.40156E+02-8.81481E+02 9.33591E+02 5.30757E+02-9.90963E+02
 -1      1127-5.51760E+02-1.74074E+02 1.03359E+02-3.49854E+01-9.43292E+01 1.35987E+02
 -1      1128 2.69922E+02 4.47733E+02-5.31890E+02 8.94998E+02 4.56633E+02-6.75601E+02
 -1      1129-4.51399E+02-1.23482E+02 1.57025E+02-4.43012E+01-9.38579E+01 1.66425E+02
 -1      1130 2.22691E+02 9.01630E+01 3.33248E+01 6.36821E+02 2.37838E+02-4.60210E+02
 -1      1131-4.18249E+02-9.46578E+01 2.12650E+02-5.42429E+01-6.52377E+01 1.95693E+02
 -1      1132 4.23280E+02 3.01847E+02 1.32321E+03 4.68278E+02 7.38682E+01-4.08741E+02
 -1      1133-5.30083E+02-1.35010E+02 1.83562E+02-7.00000E+01-4.87386E+01 2.28281E+02
 -1      1134 4.45007E+02 2.33371E+02 1.37535E+03-3.92656E+02 2.93467E+01 9.70472E+01
 -1      1135-3.36091E+02-9.24792E+01 1.82993E+02 3.83179E+01 2.24794E+01 4.00521E+01
 -1      1136 3.25236E+02 1.11459E+02 4.50003E+02-5.76669E+02 3.04156E+01-9.13448E+01
 -1      1137-2.46512E+02-5.90699E+01 2.15115E+02 2.25443E+01 4.34153E+01 5.89596E+01
 -1      1138 3.82420E+02 4.54959E+02 5.45968E+01-8.70442E+02-5.86763E+01-2.99362E+02
 -1      1139-2.54044E+02-8.99318E+01 1.50904E+02 1.18677E+01 7.98432E+01 4.38466E+01
 -1      1140 4.69363E+02 9.50226E+02-1.55146E+02-9.44517E+02-1.52050E+02-6.58238E+02
 -1      1141-2.92939E+02-1.35752E+02 8.46823E+01 6.07482E+00 9.21429E+01 2.83549E+01
 -1      1142 5.57971E+02 1.43398E+03-2.37968E+02-7.46598E+02-1.35655E+02-1.01683E+03
 -1      1143-3.43545E+02-1.80718E+02 2.79839E+01 2.13542E+00 7.36295E+01 1.43688E+01
 -1      1144 6.30341E+02 1.75167E+03-2.20499E+02-3.84079E+02-6.27123E+01-1.19420E+03
 -1      1145-3.99521E+02-2.17926E+02-2.57075E+01-8.02828E-01 3.84380E+01-6.48988E+00
 -1      1146 6.57941E+02 1.85385E+03-1.99150E+02 5.51829E-03-5.36936E-02-1.24000E+03
 -1      1147-4.25135E+02-2.31760E+02-4.76082E+01-2.62583E-07 1.36769E-07-1.45083E+01
 -1      1148 6.30269E+02 1.75164E+03-2.20746E+02 3.84084E+02 6.26719E+01-1.19419E+03
 -1      1149-3.99521E+02-2.17926E+02-2.57075E+01 8.02827E-01-3.84380E+01-6.48988E+00
 -1      1150 5.57955E+02 1.43400E+03-2.38078E+02 7.46594E+02 1.35687E+02-1.01681E+03
 -1      1151-3.43545E+02-1.80718E+02 2.79839E+01-2.13542E+00-7.36295E+01 1.43688E+01
 -1      1152 4.69365E+02 9.50231E+02-1.55168E+02 9.44511E+02 1.52081E+02-6.58233E+02
 -1      1153-2.92939E+02-1.35752E+02 8.46823E+01-6.07482E+00-9.21429E+01 2.83549E+01
 -1      1154 3.82416E+02 4.54946E+02 5.45824E+01 8.70440E+02 5.86911E+01-2.99361E+02
 -1      1155-2.54044E+02-8.99318E+01 1.50904E+02-1.18677E+01-7.98432E+01 4.38466E+01
 -1      1156 3.25233E+02 1.11452E+02 4.49996E+02 5.76669E+02-3.04110E+01-9.13447E+01
 -1      1157-2.46512E+02-5.90699E+01 2.15115E+02-2.25443E+01-4.34153E+01 5.89596E+01
 -1      1158 4.45006E+02 2.33370E+02 1.37535E+03 3.92656E+02-2.93451E+01 9.70466E+01
 -1      1159-3.36091E+02-9.24792E+01 1.82993E+02-3.83179E+01-2.24794E+01 4.00521E+01
 -1      1160 3.76411E+02 1.77404E+02 8.06188E+02-1.54041E+02 8.19920E+01 3.09033E+02
 -1      1161-4.18045E+01-2.12284E+01 1.20068E+02-7.63904E-01 4.13535E+00-1.28033E+01
 -1      1162 3.24302E+02 1.02393E+02 3.55634E+02-2.40351E+02 1.67565E+02 9.05130E+01
 -1      1163 1.73773E+01 3.63442E+00 1.44571E+02-1.33146E+01 1.30853E+01 2.53888E+01
 -1      1164 3.84121E+02 2.65867E+02 1.59640E+02-4.76493E+02 1.83785E+02-3.96005E+01
 -1      1165 6.96173E+01-3.65325E+00 1.07407E+02-4.50330E+00 3.19799E+01 1.62106E+01
 -1      1166 4.11460E+02 5.24355E+02 3.24668E+01-6.20757E+02 1.26216E+02-4.22093E+02
 -1      1167 2.25751E+02 2.89306E+01 2.02531E+02 2.18078E+01 4.01407E+01-1.66339E+01
 -1      1168 4.47697E+02 7.86484E+02 5.91190E+01-4.24818E+02 9.66823E+01-8.15271E+02
 -1      1169 3.95847E+02 8.27535E+01 3.34584E+02 1.07231E+01 3.01245E+01-5.43927E+01
 -1      1170 4.77513E+02 9.04681E+02 1.01185E+02-1.49401E+02 6.49944E+01-9.32139E+02
 -1      1171 4.17385E+02 8.86615E+01 3.05437E+02-6.24532E+00 1.39333E+01-8.12228E+01
 -1      1172 4.84686E+02 9.27105E+02 1.24205E+02 7.52831E-03-7.16884E-02-9.34759E+02
 -1      1173 4.25486E+02 1.03490E+02 3.00808E+02-4.79305E-07-5.45469E-08-9.03092E+01
 -1      1174 4.77346E+02 9.04624E+02 1.00588E+02 1.49395E+02-6.50319E+01-9.32129E+02
 -1      1175 4.17385E+02 8.86615E+01 3.05437E+02 6.24532E+00-1.39334E+01-8.12228E+01
 -1      1176 4.47731E+02 7.86539E+02 5.91056E+01 4.24805E+02-9.66211E+01-8.15264E+02
 -1      1177 3.95847E+02 8.27535E+01 3.34584E+02-1.07231E+01-3.01245E+01-5.43927E+01
 -1      1178 4.11447E+02 5.24304E+02 3.24362E+01 6.20759E+02-1.26183E+02-4.22093E+02
 -1      1179 2.25751E+02 2.89306E+01 2.02531E+02-2.18078E+01-4.01407E+01-1.66339E+01
 -1      1180 3.84118E+02 2.65850E+02 1.59630E+02 4.76496E+02-1.83778E+02-3.96007E+01
 -1      1181 6.96173E+01-3.65325E+00 1.07407E+02 4.50330E+00-3.19799E+01 1.62106E+01
 -1      1182 3.24301E+02 1.02387E+02 3.55631E+02 2.40352E+02-1.67564E+02 9.05125E+01
 -1      1183 1.73773E+01 3.63442E+00 1.44571E+02 1.33146E+01-1.30853E+01 2.53888E+01
 -1      1184 3.76411E+02 1.77403E+02 8.06189E+02 1.54042E+02-8.19920E+01 3.09031E+02
 -1      1185-4.18045E+01-2.12284E+01 1.20068E+02 7.63903E-01-4.13535E+00-1.28033E+01
 -1      1186 3.49677E+02 1.62914E+02 4.50877E+02 2.68087E+02 7.66743E+01 2.98514E+02
 -1      1187 2.46713E+02 4.34731E+01 1.34702E+02-4.16800E+01 2.39989E+00 3.48235E+00
 -1      1188 3.89856E+02 1.55379E+02 2.60021E+02 3.98832E+02 1.65112E+02 8.52071E+01
 -1      1189 2.99232E+02 4.40149E+01 1.55049E+02-4.37685E+01-3.33980E+00 4.65468E+01
 -1      1190 5.82346E+02 2.11102E+02 1.83997E+02 6.11007E+02 2.14732E+02 5.75752E+01
 -1      1191 3.67412E+02 2.10737E+01 1.24750E+02-6.15962E+01 2.38452E+01 3.59180E+01
 -1      1192 8.06478E+02 1.44264E+02 8.40804E+01 6.64614E+02 2.05753E+02-5.50734E+02
 -1      1193 4.44554E+02 8.71533E+01 2.91210E+02-6.71882E+01 5.95067E+01 3.06914E+01
 -1      1194 1.08421E+03 1.05903E+02 1.79167E+02 5.04082E+02 1.72408E+02-1.19212E+03
 -1      1195 5.10736E+02 1.89749E+02 5.09109E+02-3.63666E+01 2.97840E+01 2.73908E+01
 -1      1196 1.25370E+03 1.01417E+02 2.39273E+02 2.38529E+02 9.47030E+01-1.15991E+03
 -1      1197 5.08356E+02 1.99063E+02 4.79559E+02-4.60325E+00-2.43362E+00-4.21830E+00
 -1      1198 1.32078E+03 1.23440E+02 2.80353E+02-7.51423E-02-1.62028E-01-1.13812E+03
 -1      1199 5.21396E+02 2.11444E+02 4.82764E+02-4.34369E-07-4.45296E-08-9.47877E+00
 -1      1200 1.25337E+03 1.00914E+02 2.38285E+02-2.38573E+02-9.47138E+01-1.15983E+03
 -1      1201 5.08356E+02 1.99063E+02 4.79559E+02 4.60325E+00 2.43362E+00-4.21830E+00
 -1      1202 1.08427E+03 1.05888E+02 1.79226E+02-5.04026E+02-1.72253E+02-1.19213E+03
 -1      1203 5.10736E+02 1.89749E+02 5.09109E+02 3.63666E+01-2.97840E+01 2.73908E+01
 -1      1204 8.06495E+02 1.44283E+02 8.40744E+01-6.64581E+02-2.05744E+02-5.50733E+02
 -1      1205 4.44554E+02 8.71533E+01 2.91210E+02 6.71882E+01-5.95067E+01 3.06914E+01
 -1      1206 5.82362E+02 2.11126E+02 1.84007E+02-6.10994E+02-2.14727E+02 5.75743E+01
 -1      1207 3.67412E+02 2.10737E+01 1.24750E+02 6.15962E+01-2.38452E+01 3.59180E+01
 -1      1208 3.89861E+02 1.55387E+02 2.60023E+02-3.98827E+02-1.65112E+02 8.52066E+01
 -1      1209 2.99232E+02 4.40149E+01 1.55049E+02 4.37685E+01 3.33980E+00 4.65468E+01
 -1      1210 3.49679E+02 1.62918E+02 4.50880E+02-2.68084E+02-7.66743E+01 2.98512E+02
 -1      1211 2.46713E+02 4.34731E+01 1.34702E+02 4.16800E+01-2.39989E+00 3.48235E+00
 -1      1212-2.33994E+03-2.33994E+03-5.45985E+03 2.91252E-02-2.41317E+03-2.07352E+03
 -1      1213-2.33994E+03-2.33995E+03-5.45985E+03-2.91252E-02 2.41317E+03-2.07352E+03
 -1      1214-4.12664E+03-4.12659E+03-9.62871E+03 4.62609E-02-4.10868E+03-1.97334E+03
 -1      1215-4.12664E+03-4.12659E+03-9.62871E+03-4.62609E-02 4.10868E+03-1.97333E+03
 -1      1216-5.30744E+03-5.30733E+03-1.23838E+04 3.67555E-02-5.31246E+03-1.25650E+03
 -1      1217-5.30744E+03-5.30733E+03-1.23838E+04-3.67556E-02 5.31246E+03-1.25650E+03
 -1      1218-5.83325E+03-5.83310E+03-1.36106E+04 1.82537E-02-5.86247E+03-5.84441E+02
 -1      1219-5.83325E+03-5.83310E+03-1.36106E+04-1.82537E-02 5.86247E+03-5.84441E+02
 -1      1220-5.94857E+03-5.94841E+03-1.38797E+04 5.62940E-03-6.01158E+03-1.85073E+02
 -1      1221-5.94857E+03-5.94841E+03-1.38797E+04-5.62941E-03 6.01158E+03-1.85073E+02
 -1      1222-5.93345E+03-5.93329E+03-1.38444E+04 1.72667E-04-6.01536E+03-1.17376E+01
 -1      1223-5.93345E+03-5.93329E+03-1.38444E+04-1.72667E-04 6.01536E+03-1.17377E+01
 -1      1224-5.91003E+03-5.90987E+03-1.37898E+04-1.69770E-03-5.99535E+03 5.05900E+01
 -1      1225-5.91003E+03-5.90987E+03-1.37898E+04 1.69770E-03 5.99535E+03 5.05900E+01
 -1      1226-5.90278E+03-5.90263E+03-1.37729E+04-2.40664E-03-5.98499E+03 7.51251E+01
 -1      1227-5.90278E+03-5.90263E+03-1.37729E+04 2.40664E-03 5.98499E+03 7.51251E+01
 -1      1228-5.90524E+03-5.90509E+03-1.37786E+04-2.84127E-03-5.98376E+03 8.98172E+01
 -1      1229-5.90524E+03-5.90509E+03-1.37786E+04 2.84127E-03 5.98376E+03 8.98172E+01
 -1      1230-5.90993E+03-5.90977E+03-1.37895E+04-3.20222E-03-5.98603E+03 1.01623E+02
 -1      1231-5.90993E+03-5.90977E+03-1.37895E+04 3.20222E-03 5.98603E+03 1.01623E+02
 -1      1232-5.91362E+03-5.91346E+03-1.37981E+04-3.53185E-03-5.98830E+03 1.12262E+02
 -1      1233-5.91362E+03-5.91346E+03-1.37981E+04 3.53185E-03 5.98830E+03 1.12262E+02
 -1      1234-5.91498E+03-5.91483E+03-1.38013E+04-3.90534E-03-5.98847E+03 1.24246E+02
 -1      1235-5.91498E+03-5.91483E+03-1.38013E+04 3.90534E-03 5.98847E+03 1.24246E+02
 -1      1236-5.91072E+03-5.91057E+03-1.37914E+04-4.47548E-03-5.98279E+03 1.42352E+02
 -1      1237-5.91072E+03-5.91057E+03-1.37914E+04 4.47548E-03 5.98279E+03 1.42352E+02
 -1      1238-5.89155E+03-5.89140E+03-1.37467E+04-5.39256E-03-5.96326E+03 1.71157E+02
 -1      1239-5.89155E+03-5.89140E+03-1.37467E+04 5.39256E-03 5.96326E+03 1.71157E+02
 -1      1240-5.84278E+03-5.84263E+03-1.36329E+04-6.42402E-03-5.92012E+03 2.03561E+02
 -1      1241-5.84278E+03-5.84263E+03-1.36329E+04 6.42402E-03 5.92012E+03 2.03561E+02
 -1      1242-5.76605E+03-5.76591E+03-1.34538E+04-6.31057E-03-5.86082E+03 2.01016E+02
 -1      1243-5.76605E+03-5.76591E+03-1.34538E+04 6.31056E-03 5.86082E+03 2.01016E+02
 -1      1244-5.73936E+03-5.73922E+03-1.33916E+04-3.32199E-03-5.84811E+03 1.11661E+02
 -1      1245-5.73936E+03-5.73922E+03-1.33916E+04 3.32199E-03 5.84811E+03 1.11661E+02
 -1      1246-5.93680E+03-5.93665E+03-1.38522E+04 4.57652E-05-6.00419E+03 2.75490E+01
 -1      1247-5.93681E+03-5.93665E+03-1.38522E+04-4.57654E-05 6.00419E+03 2.75490E+01
 -1      1248-6.33976E+03-6.33958E+03-1.47924E+04-1.27085E-02-6.30022E+03 4.12035E+02
 -1      1249-6.33976E+03-6.33958E+03-1.47924E+04 1.27085E-02 6.30022E+03 4.12035E+02
 -1      1250-6.05350E+03-6.05335E+03-1.41245E+04-5.39197E-02-5.95625E+03 1.62591E+03
 -1      1251-6.05350E+03-6.05335E+03-1.41245E+04 5.39197E-02 5.95625E+03 1.62591E+03
 -1      1252-3.88794E+03-3.88791E+03-9.07179E+03-5.92117E-02-3.90404E+03 2.61539E+03
 -1      1253-3.88794E+03-3.88791E+03-9.07179E+03 5.92117E-02 3.90404E+03 2.61539E+03
 -1      1254-1.41115E+03-1.41118E+03-3.29274E+03-2.09925E-02-1.55046E+03 2.25643E+03
 -1      1255-1.41115E+03-1.41118E+03-3.29274E+03 2.09925E-02 1.55046E+03 2.25643E+03
 -1      1256-1.74530E+02-1.74549E+02-4.07273E+02-2.42446E-03-3.61431E+02 1.27393E+03
 -1      1257-1.74530E+02-1.74549E+02-4.07273E+02 2.42446E-03 3.61431E+02 1.27393E+03
 -1      1258-8.59819E+02-2.24095E+02-3.11301E+03-1.74864E+02-1.15117E+03-1.97405E+03
 -1      1259-8.59820E+02-2.24094E+02-3.11301E+03 1.74864E+02 1.15117E+03-1.97405E+03
 -1      1260-1.40122E+03-4.86993E+02-5.36383E+03-1.86131E+02-1.98977E+03-1.90582E+03
 -1      1261-1.40122E+03-4.86993E+02-5.36383E+03 1.86130E+02 1.98977E+03-1.90582E+03
 -1      1262-1.65418E+03-6.23297E+02-6.89673E+03-1.13398E+02-2.58125E+03-1.21344E+03
 -1      1263-1.65418E+03-6.23297E+02-6.89673E+03 1.13398E+02 2.58125E+03-1.21344E+03
 -1      1264-2.00545E+03-6.71411E+02-7.56091E+03-4.18523E+01-2.82804E+03-5.59471E+02
 -1      1265-2.00545E+03-6.71411E+02-7.56091E+03 4.18523E+01 2.82804E+03-5.59471E+02
 -1      1266-2.27648E+03-7.01284E+02-7.71409E+03-5.60533E+00-2.88915E+03-1.75158E+02
 -1      1267-2.27648E+03-7.01284E+02-7.71409E+03 5.60533E+00 2.88915E+03-1.75159E+02
 -1      1268-2.42326E+03-7.15021E+02-7.70274E+03 4.87817E+00-2.88593E+03-1.01197E+01
 -1      1269-2.42326E+03-7.15021E+02-7.70274E+03-4.87817E+00 2.88593E+03-1.01197E+01
 -1      1270-2.48387E+03-7.21945E+02-7.68294E+03 5.23682E+00-2.87469E+03 4.91677E+01
 -1      1271-2.48387E+03-7.21945E+02-7.68294E+03-5.23682E+00 2.87469E+03 4.91677E+01
 -1      1272-2.50473E+03-7.24410E+02-7.68119E+03 3.57466E+00-2.86903E+03 7.30626E+01
 -1      1273-2.50473E+03-7.24410E+02-7.68119E+03-3.57466E+00 2.86903E+03 7.30626E+01
 -1      1274-2.51285E+03-7.25266E+02-7.68900E+03 2.41797E+00-2.86802E+03 8.77608E+01
 -1      1275-2.51285E+03-7.25266E+02-7.68900E+03-2.41797E+00 2.86802E+03 8.77608E+01
 -1      1276-2.51727E+03-7.25633E+02-7.69752E+03 1.95429E+00-2.86879E+03 9.95787E+01
 -1      1277-2.51727E+03-7.25633E+02-7.69752E+03-1.95428E+00 2.86879E+03 9.95787E+01
 -1      1278-2.51899E+03-7.25701E+02-7.70342E+03 1.93489E+00-2.86971E+03 1.10083E+02
 -1      1279-2.51899E+03-7.25701E+02-7.70342E+03-1.93489E+00 2.86971E+03 1.10083E+02
 -1      1280-2.51626E+03-7.25267E+02-7.70557E+03 2.34740E+00-2.86978E+03 1.21719E+02
 -1      1281-2.51626E+03-7.25267E+02-7.70557E+03-2.34740E+00 2.86978E+03 1.21719E+02
 -1      1282-2.50703E+03-7.24170E+02-7.70017E+03 3.53482E+00-2.86734E+03 1.39219E+02
 -1      1283-2.50703E+03-7.24170E+02-7.70017E+03-3.53482E+00 2.86734E+03 1.39219E+02
 -1      1284-2.49300E+03-7.22781E+02-7.67547E+03 5.83757E+00-2.85866E+03 1.67387E+02
 -1      1285-2.49300E+03-7.22781E+02-7.67547E+03-5.83757E+00 2.85866E+03 1.67387E+02
 -1      1286-2.48691E+03-7.21528E+02-7.61113E+03 8.29973E+00-2.83874E+03 2.00202E+02
 -1      1287-2.48691E+03-7.21528E+02-7.61113E+03-8.29973E+00 2.83874E+03 2.00202E+02
 -1      1288-2.50574E+03-7.16934E+02-7.50263E+03 6.02000E+00-2.80934E+03 2.00515E+02
 -1      1289-2.50574E+03-7.16934E+02-7.50263E+03-6.02000E+00 2.80934E+03 2.00515E+02
 -1      1290-2.51896E+03-7.00383E+02-7.44543E+03-9.90890E+00-2.79776E+03 1.13353E+02
 -1      1291-2.51896E+03-7.00383E+02-7.44543E+03 9.90890E+00 2.79776E+03 1.13353E+02
 -1      1292-2.37946E+03-6.78440E+02-7.68681E+03-2.99721E+01-2.86769E+03 1.79645E+01
 -1      1293-2.37946E+03-6.78440E+02-7.68681E+03 2.99721E+01 2.86769E+03 1.79645E+01
 -1      1294-1.99836E+03-7.12444E+02-8.25739E+03 1.16274E+01-3.03985E+03 3.73843E+02
 -1      1295-1.99836E+03-7.12444E+02-8.25739E+03-1.16274E+01 3.03985E+03 3.73843E+02
 -1      1296-1.66119E+03-7.52224E+02-7.96760E+03 1.62819E+02-2.92979E+03 1.57338E+03
 -1      1297-1.66119E+03-7.52224E+02-7.96760E+03-1.62819E+02 2.92979E+03 1.57338E+03
 -1      1298-1.38553E+03-4.65830E+02-5.06332E+03 2.86355E+02-1.88336E+03 2.56066E+03
 -1      1299-1.38553E+03-4.65830E+02-5.06332E+03-2.86355E+02 1.88336E+03 2.56066E+03
 -1      1300-1.14968E+03-1.47492E+02-1.74708E+03 2.34947E+02-6.88053E+02 2.19080E+03
 -1      1301-1.14968E+03-1.47492E+02-1.74708E+03-2.34947E+02 6.88053E+02 2.19080E+03
 -1      1302-6.98402E+02-8.04516E+01-2.26822E+02 9.11327E+01-1.55686E+02 1.20336E+03
 -1      1303-6.98402E+02-8.04516E+01-2.26822E+02-9.11327E+01 1.55686E+02 1.20336E+03
 -1      1304 7.56745E+01 3.03560E+02-6.87208E+02-3.24134E+02-5.62924E+02-1.37315E+03
 -1      1305 7.56736E+01 3.03561E+02-6.87210E+02 3.24134E+02 5.62924E+02-1.37315E+03
 -1      1306 5.20671E+02 4.21619E+02-8.92354E+02-3.15101E+02-1.02617E+03-1.27387E+03
 -1      1307 5.20670E+02 4.21619E+02-8.92353E+02 3.15101E+02 1.02617E+03-1.27387E+03
 -1      1308 7.59186E+02 5.58632E+02-1.17080E+03-1.86956E+02-1.33393E+03-8.11447E+02
 -1      1309 7.59186E+02 5.58632E+02-1.17079E+03 1.86956E+02 1.33393E+03-8.11447E+02
 -1      1310 5.70117E+02 6.31593E+02-1.21511E+03-6.57852E+01-1.43291E+03-3.73335E+02
 -1      1311 5.70117E+02 6.31593E+02-1.21511E+03 6.57852E+01 1.43291E+03-3.73336E+02
 -1      1312 2.49399E+02 6.35863E+02-1.17340E+03-7.36411E+00-1.44791E+03-1.19570E+02
 -1      1313 2.49399E+02 6.35863E+02-1.17340E+03 7.36410E+00 1.44791E+03-1.19570E+02
 -1      1314 2.39877E+01 6.16854E+02-1.14294E+03 9.24370E+00-1.44045E+03-6.34016E+00
 -1      1315 2.39877E+01 6.16854E+02-1.14294E+03-9.24370E+00 1.44045E+03-6.34017E+00
 -1      1316-8.69818E+01 6.01028E+02-1.14209E+03 9.74116E+00-1.43363E+03 4.12509E+01
 -1      1317-8.69818E+01 6.01028E+02-1.14209E+03-9.74116E+00 1.43363E+03 4.12509E+01
 -1      1318-1.30932E+02 5.93428E+02-1.15347E+03 7.08123E+00-1.43062E+03 6.57308E+01
 -1      1319-1.30932E+02 5.93428E+02-1.15347E+03-7.08123E+00 1.43062E+03 6.57308E+01
 -1      1320-1.47860E+02 5.90928E+02-1.16460E+03 5.23306E+00-1.42994E+03 8.19795E+01
 -1      1321-1.47860E+02 5.90928E+02-1.16460E+03-5.23306E+00 1.42994E+03 8.19795E+01
 -1      1322-1.55284E+02 5.90423E+02-1.17183E+03 4.49139E+00-1.43012E+03 9.40249E+01
 -1      1323-1.55284E+02 5.90423E+02-1.17183E+03-4.49139E+00 1.43012E+03 9.40249E+01
 -1      1324-1.57483E+02 5.90625E+02-1.17589E+03 4.46066E+00-1.43043E+03 1.03551E+02
 -1      1325-1.57483E+02 5.90625E+02-1.17589E+03-4.46066E+00 1.43043E+03 1.03551E+02
 -1      1326-1.53732E+02 5.91089E+02-1.17854E+03 5.11885E+00-1.43049E+03 1.12728E+02
 -1      1327-1.53732E+02 5.91089E+02-1.17854E+03-5.11885E+00 1.43049E+03 1.12728E+02
 -1      1328-1.43552E+02 5.90966E+02-1.18051E+03 7.00532E+00-1.42967E+03 1.25130E+02
 -1      1329-1.43552E+02 5.90966E+02-1.18051E+03-7.00532E+00 1.42967E+03 1.25130E+02
 -1      1330-1.34118E+02 5.87775E+02-1.17823E+03 1.06845E+01-1.42637E+03 1.45164E+02
 -1      1331-1.34118E+02 5.87775E+02-1.17823E+03-1.06845E+01 1.42637E+03 1.45164E+02
 -1      1332-1.48657E+02 5.78823E+02-1.15864E+03 1.47949E+01-1.41765E+03 1.72352E+02
 -1      1333-1.48657E+02 5.78824E+02-1.15864E+03-1.47949E+01 1.41765E+03 1.72352E+02
 -1      1334-2.05980E+02 5.71553E+02-1.10232E+03 1.22168E+01-1.40098E+03 1.85709E+02
 -1      1335-2.05980E+02 5.71553E+02-1.10232E+03-1.22168E+01 1.40098E+03 1.85709E+02
 -1      1336-2.23716E+02 5.93982E+02-1.03822E+03-1.19949E+01-1.38448E+03 1.40225E+02
 -1      1337-2.23716E+02 5.93982E+02-1.03822E+03 1.19949E+01 1.38448E+03 1.40225E+02
 -1      1338 7.98849E+01 6.64554E+02-1.13346E+03-5.00895E+01-1.40692E+03 6.00292E+01
 -1      1339 7.98849E+01 6.64554E+02-1.13346E+03 5.00895E+01 1.40692E+03 6.00292E+01
 -1      1340 8.11015E+02 6.85488E+02-1.49590E+03 7.53001E+00-1.54087E+03 2.48622E+02
 -1      1341 8.11015E+02 6.85488E+02-1.49590E+03-7.53001E+00 1.54087E+03 2.48622E+02
 -1      1342 1.10012E+03 5.17953E+02-1.64084E+03 2.69876E+02-1.59390E+03 1.04260E+03
 -1      1343 1.10012E+03 5.17953E+02-1.64084E+03-2.69876E+02 1.59390E+03 1.04260E+03
 -1      1344 2.75784E+02 3.92240E+02-8.51613E+02 4.91097E+02-9.54375E+02 1.71670E+03
 -1      1345 2.75784E+02 3.92240E+02-8.51613E+02-4.91097E+02 9.54375E+02 1.71670E+03
 -1      1346-7.37308E+02 2.33332E+02 7.30043E+01 3.91816E+02-2.44964E+02 1.44296E+03
 -1      1347-7.37308E+02 2.33332E+02 7.30043E+01-3.91816E+02 2.44964E+02 1.44296E+03
 -1      1348-8.18707E+02-5.05685E+00 1.91796E+02 1.61481E+02-4.38846E+01 8.03808E+02
 -1      1349-8.18707E+02-5.05685E+00 1.91796E+02-1.61481E+02 4.38846E+01 8.03808E+02
 -1      1350 5.57877E+02 4.86292E+02 6.13579E+02-3.95515E+02-3.32234E+02-5.94927E+02
 -1      1351 5.57876E+02 4.86293E+02 6.13580E+02 3.95514E+02 3.32234E+02-5.94927E+02
 -1      1352 1.46382E+03 7.23286E+02 1.46063E+03-3.60377E+02-6.91695E+02-5.81460E+02
 -1      1353 1.46382E+03 7.23286E+02 1.46063E+03 3.60377E+02 6.91695E+02-5.81461E+02
 -1      1354 1.92800E+03 9.75889E+02 1.88684E+03-2.00722E+02-8.81661E+02-3.64434E+02
 -1      1355 1.92800E+03 9.75889E+02 1.88684E+03 2.00722E+02 8.81661E+02-3.64435E+02
 -1      1356 1.80393E+03 1.09112E+03 2.10042E+03-6.33944E+01-9.20653E+02-1.69107E+02
 -1      1357 1.80393E+03 1.09112E+03 2.10042E+03 6.33944E+01 9.20653E+02-1.69107E+02
 -1      1358 1.48325E+03 1.11002E+03 2.20846E+03-1.91350E+00-9.12497E+02-5.71532E+01
 -1      1359 1.48325E+03 1.11002E+03 2.20846E+03 1.91349E+00 9.12498E+02-5.71533E+01
 -1      1360 1.23337E+03 1.09198E+03 2.23360E+03 1.41703E+01-9.01847E+02-2.31466E+00
 -1      1361 1.23337E+03 1.09198E+03 2.23360E+03-1.41703E+01 9.01847E+02-2.31466E+00
 -1      1362 1.10005E+03 1.07470E+03 2.22292E+03 1.39099E+01-8.96905E+02 3.03658E+01
 -1      1363 1.10005E+03 1.07470E+03 2.22292E+03-1.39099E+01 8.96905E+02 3.03658E+01
 -1      1364 1.04092E+03 1.06618E+03 2.20663E+03 1.08626E+01-8.95523E+02 5.37477E+01
 -1      1365 1.04092E+03 1.06618E+03 2.20663E+03-1.08627E+01 8.95523E+02 5.37477E+01
 -1      1366 1.01540E+03 1.06331E+03 2.19539E+03 8.92072E+00-8.95471E+02 7.06325E+01
 -1      1367 1.01540E+03 1.06331E+03 2.19539E+03-8.92072E+00 8.95471E+02 7.06325E+01
 -1      1368 1.00372E+03 1.06276E+03 2.18962E+03 8.19263E+00-8.95708E+02 8.23190E+01
 -1      1369 1.00372E+03 1.06276E+03 2.18962E+03-8.19263E+00 8.95708E+02 8.23190E+01
 -1      1370 9.99672E+02 1.06298E+03 2.18688E+03 8.19263E+00-8.95931E+02 9.03966E+01
 -1      1371 9.99672E+02 1.06298E+03 2.18688E+03-8.19263E+00 8.95931E+02 9.03966E+01
 -1      1372 1.00265E+03 1.06333E+03 2.18445E+03 8.88738E+00-8.96097E+02 9.66346E+01
 -1      1373 1.00265E+03 1.06333E+03 2.18445E+03-8.88738E+00 8.96097E+02 9.66346E+01
 -1      1374 1.01197E+03 1.06271E+03 2.17980E+03 1.08843E+01-8.96032E+02 1.03367E+02
 -1      1375 1.01197E+03 1.06271E+03 2.17980E+03-1.08843E+01 8.96032E+02 1.03367E+02
 -1      1376 1.01969E+03 1.05824E+03 2.17239E+03 1.49505E+01-8.94910E+02 1.14564E+02
 -1      1377 1.01969E+03 1.05824E+03 2.17239E+03-1.49505E+01 8.94910E+02 1.14564E+02
 -1      1378 1.00291E+03 1.04632E+03 2.16861E+03 1.99772E+01-8.90199E+02 1.35135E+02
 -1      1379 1.00291E+03 1.04632E+03 2.16861E+03-1.99772E+01 8.90199E+02 1.35135E+02
 -1      1380 9.43859E+02 1.03412E+03 2.18633E+03 1.90930E+01-8.76444E+02 1.60070E+02
 -1      1381 9.43859E+02 1.03412E+03 2.18633E+03-1.90930E+01 8.76444E+02 1.60070E+02
 -1      1382 9.26293E+02 1.05288E+03 2.22859E+03-5.17247E+00-8.53475E+02 1.55163E+02
 -1      1383 9.26293E+02 1.05288E+03 2.22859E+03 5.17247E+00 8.53475E+02 1.55163E+02
 -1      1384 1.25298E+03 1.13836E+03 2.20212E+03-5.81235E+01-8.55050E+02 9.43490E+01
 -1      1385 1.25298E+03 1.13836E+03 2.20212E+03 5.81235E+01 8.55050E+02 9.43490E+01
 -1      1386 2.08906E+03 1.19240E+03 2.06851E+03-1.73651E+01-9.93656E+02 1.12677E+02
 -1      1387 2.08906E+03 1.19240E+03 2.06851E+03 1.73651E+01 9.93656E+02 1.12677E+02
 -1      1388 2.37527E+03 9.45792E+02 1.90344E+03 3.02955E+02-1.14919E+03 4.54381E+02
 -1      1389 2.37527E+03 9.45792E+02 1.90344E+03-3.02955E+02 1.14919E+03 4.54381E+02
 -1      1390 1.05927E+03 6.98464E+02 1.34977E+03 5.86008E+02-6.10907E+02 7.70143E+02
 -1      1391 1.05927E+03 6.98464E+02 1.34977E+03-5.86008E+02 6.10907E+02 7.70143E+02
 -1      1392-4.85711E+02 3.83983E+02 7.83883E+02 4.43371E+02-4.33430E+01 6.22237E+02
 -1      1393-4.85711E+02 3.83983E+02 7.83883E+02-4.43371E+02 4.33430E+01 6.22237E+02
 -1      1394-7.70359E+02 1.41688E+01 3.10997E+02 1.65854E+02 2.50609E+01 3.34995E+02
 -1      1395-7.70359E+02 1.41688E+01 3.10997E+02-1.65854E+02-2.50609E+01 3.34995E+02
 -1      1396 6.09499E+02 2.32002E+02 9.50719E+02-3.43978E+02-1.12449E+02 1.22154E+02
 -1      1397 6.09500E+02 2.32003E+02 9.50721E+02 3.43977E+02 1.12449E+02 1.22152E+02
 -1      1398 1.43723E+03 1.80075E+02 2.01636E+03-2.97293E+02-2.94345E+02 8.48026E+01
 -1      1399 1.43723E+03 1.80075E+02 2.01636E+03 2.97293E+02 2.94345E+02 8.48012E+01
 -1      1400 1.86054E+03 3.29201E+02 2.61579E+03-1.47701E+02-3.65418E+02 2.24268E+01
 -1      1401 1.86054E+03 3.29201E+02 2.61579E+03 1.47701E+02 3.65418E+02 2.24262E+01
 -1      1402 1.76446E+03 4.11039E+02 2.85194E+03-3.55810E+01-3.55484E+02-5.65229E+00
 -1      1403 1.76446E+03 4.11039E+02 2.85194E+03 3.55809E+01 3.55484E+02-5.65247E+00
 -1      1404 1.49912E+03 4.30379E+02 2.93988E+03 9.39392E+00-3.34734E+02-1.33899E+01
 -1      1405 1.49912E+03 4.30379E+02 2.93988E+03-9.39393E+00 3.34734E+02-1.33900E+01
 -1      1406 1.27913E+03 4.23090E+02 2.95065E+03 1.95404E+01-3.25218E+02-3.91985E+00
 -1      1407 1.27913E+03 4.23090E+02 2.95065E+03-1.95405E+01 3.25218E+02-3.91985E+00
 -1      1408 1.14812E+03 4.12947E+02 2.93691E+03 1.82239E+01-3.23167E+02 1.63418E+01
 -1      1409 1.14812E+03 4.12947E+02 2.93691E+03-1.82240E+01 3.23167E+02 1.63418E+01
 -1      1410 1.08061E+03 4.07510E+02 2.92279E+03 1.56498E+01-3.23452E+02 3.69462E+01
 -1      1411 1.08061E+03 4.07510E+02 2.92279E+03-1.56498E+01 3.23452E+02 3.69462E+01
 -1      1412 1.04689E+03 4.05253E+02 2.91416E+03 1.42797E+01-3.23958E+02 5.24344E+01
 -1      1413 1.04689E+03 4.05253E+02 2.91416E+03-1.42797E+01 3.23958E+02 5.24344E+01
 -1      1414 1.03018E+03 4.04563E+02 2.91018E+03 1.38772E+01-3.24231E+02 6.24653E+01
 -1      1415 1.03018E+03 4.04563E+02 2.91018E+03-1.38772E+01 3.24231E+02 6.24653E+01
 -1      1416 1.02337E+03 4.04478E+02 2.90846E+03 1.39641E+01-3.24360E+02 6.85391E+01
 -1      1417 1.02337E+03 4.04478E+02 2.90846E+03-1.39641E+01 3.24360E+02 6.85391E+01
 -1      1418 1.02409E+03 4.04566E+02 2.90674E+03 1.45068E+01-3.24541E+02 7.19539E+01
 -1      1419 1.02409E+03 4.04566E+02 2.90674E+03-1.45068E+01 3.24541E+02 7.19539E+01
 -1      1420 1.03063E+03 4.04119E+02 2.90267E+03 1.60332E+01-3.24976E+02 7.37674E+01
 -1      1421 1.03063E+03 4.04119E+02 2.90267E+03-1.60332E+01 3.24976E+02 7.37674E+01
 -1      1422 1.03781E+03 4.01861E+02 2.89470E+03 1.93770E+01-3.25563E+02 7.67020E+01
 -1      1423 1.03781E+03 4.01861E+02 2.89470E+03-1.93770E+01 3.25563E+02 7.67020E+01
 -1      1424 1.03289E+03 3.95547E+02 2.88430E+03 2.40470E+01-3.24613E+02 8.76911E+01
 -1      1425 1.03289E+03 3.95547E+02 2.88430E+03-2.40470E+01 3.24613E+02 8.76911E+01
 -1      1426 1.00794E+03 3.91422E+02 2.87971E+03 2.52353E+01-3.16364E+02 1.13310E+02
 -1      1427 1.00794E+03 3.91422E+02 2.87971E+03-2.52353E+01 3.16364E+02 1.13310E+02
 -1      1428 1.01351E+03 4.08068E+02 2.88983E+03 8.81892E+00-2.93424E+02 1.39284E+02
 -1      1429 1.01351E+03 4.08068E+02 2.88983E+03-8.81892E+00 2.93424E+02 1.39284E+02
 -1      1430 1.25668E+03 4.78431E+02 2.88406E+03-4.55825E+01-2.78678E+02 1.32159E+02
 -1      1431 1.25668E+03 4.78431E+02 2.88406E+03 4.55825E+01 2.78678E+02 1.32159E+02
 -1      1432 1.92082E+03 5.10742E+02 2.94312E+03-4.14063E+01-3.92074E+02 6.55430E+01
 -1      1433 1.92082E+03 5.10742E+02 2.94312E+03 4.14063E+01 3.92074E+02 6.55430E+01
 -1      1434 2.09032E+03 8.75023E+01 2.87404E+03 2.47192E+02-5.70502E+02-8.25648E+01
 -1      1435 2.09032E+03 8.75023E+01 2.87404E+03-2.47192E+02 5.70502E+02-8.25648E+01
 -1      1436 1.01433E+03 2.80576E+02 1.86344E+03 5.15655E+02-2.34023E+02-1.96305E+02
 -1      1437 1.01433E+03 2.80576E+02 1.86344E+03-5.15655E+02 2.34023E+02-1.96305E+02
 -1      1438-2.63878E+02 3.43429E+02 7.65431E+02 3.60997E+02 9.83716E+01-1.44919E+02
 -1      1439-2.63878E+02 3.43429E+02 7.65431E+02-3.60997E+02-9.83716E+01-1.44919E+02
 -1      1440-5.35248E+02-2.11997E+00 2.30652E+02 1.09038E+02 6.38725E+01-3.42482E+01
 -1      1441-5.35248E+02-2.11997E+00 2.30652E+02-1.09038E+02-6.38725E+01-3.42482E+01
 -1      1442 5.01921E+02 8.85780E+01 6.31238E+02-1.21582E+02 7.67649E+01 4.37919E+02
 -1      1443 5.01922E+02 8.85784E+01 6.31239E+02 1.21582E+02-7.67651E+01 4.37917E+02
 -1      1444 9.94770E+02-1.36578E+01 1.29938E+03-8.42880E+01 1.29711E+02 3.99803E+02
 -1      1445 9.94771E+02-1.36584E+01 1.29938E+03 8.42880E+01-1.29711E+02 3.99802E+02
 -1      1446 1.24228E+03 7.26908E+01 1.69819E+03-2.19971E+01 1.54166E+02 1.91951E+02
 -1      1447 1.24229E+03 7.26908E+01 1.69819E+03 2.19970E+01-1.54166E+02 1.91950E+02
 -1      1448 1.20177E+03 1.29745E+02 1.83726E+03 9.20928E+00 1.90364E+02 5.27044E+01
 -1      1449 1.20177E+03 1.29745E+02 1.83726E+03-9.20929E+00-1.90364E+02 5.27043E+01
 -1      1450 1.05017E+03 1.47580E+02 1.88235E+03 1.96120E+01 2.09627E+02-6.71463E-01
 -1      1451 1.05017E+03 1.47580E+02 1.88235E+03-1.96120E+01-2.09627E+02-6.71476E-01
 -1      1452 8.96387E+02 1.49692E+02 1.88769E+03 2.08166E+01 2.13207E+02-7.52613E+00
 -1      1453 8.96387E+02 1.49692E+02 1.88769E+03-2.08166E+01-2.13207E+02-7.52613E+00
 -1      1454 7.80428E+02 1.46559E+02 1.88068E+03 1.96371E+01 2.11907E+02 3.95557E+00
 -1      1455 7.80428E+02 1.46559E+02 1.88068E+03-1.96371E+01-2.11907E+02 3.95557E+00
 -1      1456 7.06906E+02 1.43607E+02 1.87292E+03 1.89492E+01 2.10221E+02 1.76549E+01
 -1      1457 7.06906E+02 1.43607E+02 1.87292E+03-1.89492E+01-2.10221E+02 1.76549E+01
 -1      1458 6.65121E+02 1.41671E+02 1.86792E+03 1.89469E+01 2.09379E+02 2.77632E+01
 -1      1459 6.65121E+02 1.41671E+02 1.86792E+03-1.89469E+01-2.09379E+02 2.77632E+01
 -1      1460 6.43422E+02 1.40697E+02 1.86547E+03 1.92102E+01 2.09106E+02 3.39488E+01
 -1      1461 6.43422E+02 1.40697E+02 1.86547E+03-1.92102E+01-2.09106E+02 3.39488E+01
 -1      1462 6.33795E+02 1.40249E+02 1.86433E+03 1.94647E+01 2.09059E+02 3.73401E+01
 -1      1463 6.33795E+02 1.40249E+02 1.86433E+03-1.94647E+01-2.09059E+02 3.73401E+01
 -1      1464 6.31549E+02 1.39965E+02 1.86321E+03 1.97114E+01 2.08929E+02 3.86718E+01
 -1      1465 6.31549E+02 1.39965E+02 1.86321E+03-1.97114E+01-2.08929E+02 3.86718E+01
 -1      1466 6.33428E+02 1.39493E+02 1.86088E+03 2.02233E+01 2.08341E+02 3.81083E+01
 -1      1467 6.33428E+02 1.39493E+02 1.86088E+03-2.02233E+01-2.08341E+02 3.81083E+01
 -1      1468 6.37743E+02 1.38917E+02 1.85689E+03 2.14897E+01 2.06767E+02 3.64877E+01
 -1      1469 6.37743E+02 1.38917E+02 1.85689E+03-2.14897E+01-2.06767E+02 3.64877E+01
 -1      1470 6.48161E+02 1.38158E+02 1.85195E+03 2.34925E+01 2.04887E+02 3.77979E+01
 -1      1471 6.48161E+02 1.38157E+02 1.85195E+03-2.34925E+01-2.04887E+02 3.77979E+01
 -1      1472 6.80600E+02 1.39906E+02 1.84630E+03 2.48026E+01 2.05788E+02 4.94550E+01
 -1      1473 6.80600E+02 1.39906E+02 1.84630E+03-2.48026E+01-2.05788E+02 4.94550E+01
 -1      1474 7.47757E+02 1.44461E+02 1.83364E+03 2.15535E+01 2.20079E+02 7.86887E+01
 -1      1475 7.47757E+02 1.44461E+02 1.83364E+03-2.15535E+01-2.20079E+02 7.86887E+01
 -1      1476 8.64754E+02 1.77346E+02 1.81918E+03 7.10050E-01 2.38955E+02 1.35749E+02
 -1      1477 8.64754E+02 1.77346E+02 1.81918E+03-7.10049E-01-2.38955E+02 1.35749E+02
 -1      1478 1.09362E+03 1.96712E+02 1.91825E+03-2.50692E+01 1.72254E+02 9.39868E+01
 -1      1479 1.09362E+03 1.96712E+02 1.91825E+03 2.50692E+01-1.72254E+02 9.39868E+01
 -1      1480 1.07490E+03-1.29427E+02 1.93565E+03 7.35790E+01 1.19830E+02-3.23640E+02
 -1      1481 1.07490E+03-1.29427E+02 1.93565E+03-7.35790E+01-1.19830E+02-3.23640E+02
 -1      1482 6.13757E+02 1.09750E+02 1.20969E+03 1.76615E+02 1.14803E+02-7.00322E+02
 -1      1483 6.13757E+02 1.09750E+02 1.20969E+03-1.76615E+02-1.14803E+02-7.00322E+02
 -1      1484 7.28407E+01 2.35017E+02 4.13068E+02 9.60632E+01 1.26402E+02-4.98482E+02
 -1      1485 7.28407E+01 2.35017E+02 4.13068E+02-9.60632E+01-1.26402E+02-4.98482E+02
 -1      1486-9.62704E+01 1.26155E+01 1.16505E+02 7.90141E+00 6.94670E+01-1.52060E+02
 -1      1487-9.62704E+01 1.26155E+01 1.16505E+02-7.90141E+00-6.94670E+01-1.52060E+02
 -1      1488 6.44365E+02 5.80436E+02 5.61903E+02 3.97134E+02 6.44890E+01 4.31269E+02
 -1      1489 6.44367E+02 5.80437E+02 5.61904E+02-3.97132E+02-6.44891E+01 4.31267E+02
 -1      1490 1.19843E+03 1.29142E+03 1.21180E+03 4.16968E+02 1.28295E+02 4.12074E+02
 -1      1491 1.19844E+03 1.29142E+03 1.21180E+03-4.16967E+02-1.28295E+02 4.12073E+02
 -1      1492 1.39956E+03 1.63452E+03 1.53591E+03 2.19167E+02 1.59184E+02 1.97637E+02
 -1      1493 1.39957E+03 1.63452E+03 1.53591E+03-2.19167E+02-1.59184E+02 1.97637E+02
 -1      1494 1.44083E+03 1.70465E+03 1.63075E+03 7.57822E+01 1.89774E+02 4.81272E+01
 -1      1495 1.44083E+03 1.70465E+03 1.63075E+03-7.57822E+01-1.89774E+02 4.81271E+01
 -1      1496 1.41162E+03 1.70147E+03 1.66593E+03 2.30888E+01 2.02528E+02-9.68467E-01
 -1      1497 1.41162E+03 1.70147E+03 1.66593E+03-2.30888E+01-2.02528E+02-9.68474E-01
 -1      1498 1.31180E+03 1.68995E+03 1.67255E+03 1.08243E+01 2.03503E+02-6.22112E+00
 -1      1499 1.31180E+03 1.68995E+03 1.67255E+03-1.08244E+01-2.03503E+02-6.22111E+00
 -1      1500 1.19932E+03 1.68049E+03 1.66697E+03 1.25381E+01 2.01673E+02 1.13100E+00
 -1      1501 1.19932E+03 1.68049E+03 1.66697E+03-1.25381E+01-2.01673E+02 1.13101E+00
 -1      1502 1.11560E+03 1.67446E+03 1.65967E+03 1.66251E+01 2.00135E+02 9.14257E+00
 -1      1503 1.11560E+03 1.67446E+03 1.65967E+03-1.66251E+01-2.00135E+02 9.14257E+00
 -1      1504 1.06607E+03 1.67139E+03 1.65495E+03 1.96937E+01 1.99441E+02 1.46860E+01
 -1      1505 1.06607E+03 1.67139E+03 1.65495E+03-1.96937E+01-1.99441E+02 1.46860E+01
 -1      1506 1.04097E+03 1.67012E+03 1.65274E+03 2.14029E+01 1.99233E+02 1.79256E+01
 -1      1507 1.04097E+03 1.67012E+03 1.65274E+03-2.14029E+01-1.99233E+02 1.79256E+01
 -1      1508 1.03005E+03 1.66967E+03 1.65179E+03 2.20689E+01 1.99208E+02 1.95947E+01
 -1      1509 1.03005E+03 1.66967E+03 1.65179E+03-2.20689E+01-1.99208E+02 1.95947E+01
 -1      1510 1.02585E+03 1.66930E+03 1.65074E+03 2.18088E+01 1.99148E+02 2.00723E+01
 -1      1511 1.02585E+03 1.66930E+03 1.65074E+03-2.18088E+01-1.99148E+02 2.00723E+01
 -1      1512 1.02243E+03 1.66834E+03 1.64842E+03 2.03624E+01 1.98757E+02 1.92265E+01
 -1      1513 1.02243E+03 1.66834E+03 1.64842E+03-2.03624E+01-1.98757E+02 1.92265E+01
 -1      1514 1.01873E+03 1.66616E+03 1.64466E+03 1.72429E+01 1.97546E+02 1.67262E+01
 -1      1515 1.01873E+03 1.66616E+03 1.64466E+03-1.72429E+01-1.97546E+02 1.67262E+01
 -1      1516 1.03298E+03 1.66201E+03 1.64221E+03 1.27315E+01 1.95746E+02 1.31986E+01
 -1      1517 1.03298E+03 1.66201E+03 1.64221E+03-1.27315E+01-1.95746E+02 1.31986E+01
 -1      1518 1.11641E+03 1.65031E+03 1.64301E+03 1.10694E+01 1.95259E+02 1.22135E+01
 -1      1519 1.11641E+03 1.65031E+03 1.64301E+03-1.10694E+01-1.95259E+02 1.22135E+01
 -1      1520 1.27075E+03 1.61189E+03 1.62706E+03 2.62464E+01 2.05553E+02 3.31450E+01
 -1      1521 1.27075E+03 1.61189E+03 1.62706E+03-2.62464E+01-2.05553E+02 3.31450E+01
 -1      1522 1.27030E+03 1.56230E+03 1.57019E+03 9.85227E+01 2.22229E+02 1.21861E+02
 -1      1523 1.27030E+03 1.56230E+03 1.57019E+03-9.85227E+01-2.22229E+02 1.21861E+02
 -1      1524 1.09479E+03 1.79225E+03 1.65929E+03 9.95751E+01 1.79756E+02 1.22229E+02
 -1      1525 1.09479E+03 1.79225E+03 1.65929E+03-9.95752E+01-1.79756E+02 1.22229E+02
 -1      1526 1.09158E+03 2.19465E+03 1.92060E+03-3.16989E+02 1.42139E+02-3.28132E+02
 -1      1527 1.09158E+03 2.19465E+03 1.92060E+03 3.16989E+02-1.42139E+02-3.28132E+02
 -1      1528 7.23583E+02 1.11872E+03 1.06018E+03-7.15509E+02 1.19323E+02-7.49618E+02
 -1      1529 7.23583E+02 1.11872E+03 1.06018E+03 7.15509E+02-1.19323E+02-7.49618E+02
 -1      1530 4.53616E+02 5.19537E+01 2.20545E+02-5.00478E+02 9.95930E+01-5.10343E+02
 -1      1531 4.53616E+02 5.19537E+01 2.20545E+02 5.00478E+02-9.95930E+01-5.10343E+02
 -1      1532 3.65701E+02 4.49102E+00 1.24611E+02-1.46734E+02 5.02370E+01-1.25884E+02
 -1      1533 3.65701E+02 4.49102E+00 1.24611E+02 1.46734E+02-5.02370E+01-1.25884E+02
 -1      1534-1.29291E+03-1.29292E+03-3.01681E+03 2.53570E-02-2.04096E+03-1.86338E+03
 -1      1535 6.38845E+02 7.74787E+02 7.13513E+01 5.88388E+02 6.47289E+01 1.20508E+02
 -1      1536-2.41366E+03-2.41362E+03-5.63184E+03 3.68189E-02-3.51545E+03-1.67628E+03
 -1      1537 1.08144E+03 1.80627E+03 3.50685E+02 6.05736E+02 1.65304E+02 9.09463E+01
 -1      1538-3.06920E+03-3.06911E+03-7.16136E+03 2.88199E-02-4.56563E+03-1.07762E+03
 -1      1539 1.14334E+03 2.23236E+03 4.34787E+02 3.08018E+02 1.97066E+02 2.37552E+01
 -1      1540-3.33597E+03-3.33585E+03-7.78381E+03 1.41295E-02-5.01699E+03-5.09785E+02
 -1      1541 1.18664E+03 2.32736E+03 4.59835E+02 1.14884E+02 2.41001E+02-5.30685E+00
 -1      1542-3.36789E+03-3.36778E+03-7.85831E+03 4.27592E-03-5.12866E+03-1.65202E+02
 -1      1543 1.20932E+03 2.33719E+03 4.95016E+02 4.90341E+01 2.52918E+02-2.91595E+00
 -1      1544-3.34108E+03-3.34096E+03-7.79574E+03-1.95010E-05-5.12209E+03-9.56478E+00
 -1      1545 1.14255E+03 2.32595E+03 5.14735E+02 3.50540E+01 2.53708E+02 5.09196E+00
 -1      1546-3.32171E+03-3.32160E+03-7.75056E+03-1.54201E-03-5.10004E+03 5.07667E+01
 -1      1547 1.04248E+03 2.31432E+03 5.18117E+02 3.72343E+01 2.52188E+02 1.17890E+01
 -1      1548-3.31680E+03-3.31668E+03-7.73909E+03-2.15167E-03-5.08841E+03 7.67700E+01
 -1      1549 9.61077E+02 2.30650E+03 5.14631E+02 4.17044E+01 2.50832E+02 1.64364E+01
 -1      1550-3.31858E+03-3.31846E+03-7.74324E+03-2.52683E-03-5.08568E+03 9.24114E+01
 -1      1551 9.11408E+02 2.30280E+03 5.11075E+02 4.50201E+01 2.50268E+02 1.95206E+01
 -1      1552-3.32156E+03-3.32144E+03-7.75019E+03-2.82862E-03-5.08659E+03 1.04338E+02
 -1      1553 8.86139E+02 2.30155E+03 5.09063E+02 4.68346E+01 2.50063E+02 2.15061E+01
 -1      1554-3.32389E+03-3.32378E+03-7.75565E+03-3.09702E-03-5.08802E+03 1.14608E+02
 -1      1555 8.75078E+02 2.30131E+03 5.08037E+02 4.74652E+01 2.50019E+02 2.27856E+01
 -1      1556-3.32518E+03-3.32506E+03-7.75864E+03-3.39379E-03-5.08808E+03 1.25679E+02
 -1      1557 8.70131E+02 2.30098E+03 5.06934E+02 4.70088E+01 2.49924E+02 2.36537E+01
 -1      1558-3.32380E+03-3.32369E+03-7.75542E+03-3.83706E-03-5.08367E+03 1.41691E+02
 -1      1559 8.64872E+02 2.29940E+03 5.05051E+02 4.50885E+01 2.49585E+02 2.43287E+01
 -1      1560-3.31393E+03-3.31382E+03-7.73240E+03-4.54522E-03-5.06807E+03 1.66554E+02
 -1      1561 8.59283E+02 2.29533E+03 5.03650E+02 4.07984E+01 2.48339E+02 2.48880E+01
 -1      1562-3.28445E+03-3.28435E+03-7.66363E+03-5.35501E-03-5.03257E+03 1.94793E+02
 -1      1563 8.77181E+02 2.28835E+03 5.08605E+02 3.29621E+01 2.46351E+02 2.48972E+01
 -1      1564-3.23196E+03-3.23185E+03-7.54113E+03-5.30640E-03-4.98186E+03 1.95040E+02
 -1      1565 9.75758E+02 2.27316E+03 5.23485E+02 2.54501E+01 2.44203E+02 2.31338E+01
 -1      1566-3.20688E+03-3.20678E+03-7.48263E+03-3.03714E-03-4.96785E+03 1.25653E+02
 -1      1567 1.15989E+03 2.24021E+03 5.28021E+02 3.94221E+01 2.49484E+02 2.24643E+01
 -1      1568-3.34146E+03-3.34135E+03-7.79664E+03-6.65636E-04-5.10374E+03 7.29349E+01
 -1      1569 1.13719E+03 2.17161E+03 4.51809E+02 1.57342E+02 2.86769E+02 5.95956E+01
 -1      1570-3.65270E+03-3.65256E+03-8.52281E+03-1.09648E-02-5.39100E+03 4.15685E+02
 -1      1571 7.43293E+02 2.39328E+03 3.73465E+02 2.21948E+02 2.17576E+02 1.22667E+02
 -1      1572-3.55483E+03-3.55471E+03-8.29446E+03-4.21140E-02-5.13465E+03 1.38940E+03
 -1      1573 6.76824E+02 3.06157E+03 6.31599E+02-4.31192E+02 2.02819E+02-4.56644E+01
 -1      1574-2.21441E+03-2.21439E+03-5.16696E+03-4.67223E-02-3.33914E+03 2.16747E+03
 -1      1575 5.39782E+02 1.52704E+03 3.02040E+02-1.09410E+03 1.41073E+02-2.41982E+02
 -1      1576-6.87901E+02-6.87927E+02-1.60516E+03-1.83609E-02-1.27294E+03 1.90094E+03
 -1      1577 5.69734E+02 5.71996E+01 4.04087E+01-7.20219E+02 1.15937E+02-1.05669E+02
 -1      1578 1.74739E+01 1.74576E+01 4.07380E+01-3.13414E-03-2.85614E+02 1.12420E+03
 -1      1579 5.14911E+02 6.00735E+01 1.45158E+02-1.74788E+02 6.18805E+01 2.63068E+01
 -1      1580-1.68422E+03-1.68423E+03-3.92986E+03 2.82301E-02-1.89221E+03-1.96270E+03
 -1      1581 8.54584E+02 1.04194E+03 6.74820E+01 9.25134E+02-8.03248E+02 1.37499E+02
 -1      1582-3.19767E+03-3.19764E+03-7.46117E+03 3.88536E-02-3.31556E+03-1.72302E+03
 -1      1583 1.34429E+03 2.54303E+03 7.49922E+02 9.45551E+02-2.01954E+03 9.29064E+01
 -1      1584-4.06262E+03-4.06254E+03-9.47930E+03 2.89096E-02-4.30542E+03-1.06246E+03
 -1      1585 1.29420E+03 3.08798E+03 7.70646E+02 4.77382E+02-2.34787E+03-1.68025E+01
 -1      1586-4.38134E+03-4.38124E+03-1.02229E+04 1.32785E-02-4.72278E+03-4.80538E+02
 -1      1587 1.44517E+03 3.28295E+03 8.09226E+02 2.13448E+02-2.33629E+03-1.61366E+01
 -1      1588-4.40583E+03-4.40572E+03-1.02801E+04 3.48099E-03-4.81943E+03-1.42186E+02
 -1      1589 1.55755E+03 3.33494E+03 8.43526E+02 1.32219E+02-2.28796E+03 1.83810E+00
 -1      1590-4.36379E+03-4.36368E+03-1.01820E+04-4.97804E-04-4.80824E+03 4.23399E+00
 -1      1591 1.53081E+03 3.32709E+03 8.60447E+02 1.17682E+02-2.25037E+03 1.42110E+01
 -1      1592-4.33467E+03-4.33457E+03-1.01141E+04-1.79315E-03-4.78466E+03 5.95937E+01
 -1      1593 1.44413E+03 3.31073E+03 8.64423E+02 1.21989E+02-2.23680E+03 2.18448E+01
 -1      1594-4.32499E+03-4.32488E+03-1.00915E+04-2.27997E-03-4.77198E+03 8.37098E+01
 -1      1595 1.36376E+03 3.29837E+03 8.60360E+02 1.27795E+02-2.23217E+03 2.59102E+01
 -1      1596-4.32471E+03-4.32461E+03-1.00908E+04-2.59008E-03-4.76829E+03 9.86713E+01
 -1      1597 1.31288E+03 3.29291E+03 8.56787E+02 1.31981E+02-2.23135E+03 2.84829E+01
 -1      1598-4.32687E+03-4.32677E+03-1.00959E+04-2.85292E-03-4.76847E+03 1.10223E+02
 -1      1599 1.28646E+03 3.29129E+03 8.54528E+02 1.34245E+02-2.23127E+03 3.01247E+01
 -1      1600-4.32895E+03-4.32884E+03-1.01007E+04-3.09314E-03-4.76946E+03 1.20130E+02
 -1      1601 1.27452E+03 3.29119E+03 8.53324E+02 1.35036E+02-2.23137E+03 3.12733E+01
 -1      1602-4.33020E+03-4.33010E+03-1.01036E+04-3.36489E-03-4.76945E+03 1.30733E+02
 -1      1603 1.26808E+03 3.29074E+03 8.51958E+02 1.34477E+02-2.23154E+03 3.22101E+01
 -1      1604-4.32863E+03-4.32853E+03-1.01000E+04-3.78489E-03-4.76553E+03 1.46170E+02
 -1      1605 1.26013E+03 3.28790E+03 8.50012E+02 1.32001E+02-2.23172E+03 3.31287E+01
 -1      1606-4.31733E+03-4.31723E+03-1.00736E+04-4.48427E-03-4.75151E+03 1.70850E+02
 -1      1607 1.25050E+03 3.27958E+03 8.47772E+02 1.26190E+02-2.22987E+03 3.42889E+01
 -1      1608-4.28268E+03-4.28258E+03-9.99275E+03-5.33353E-03-4.71914E+03 2.00898E+02
 -1      1609 1.26828E+03 3.26639E+03 8.52632E+02 1.13436E+02-2.22245E+03 3.41777E+01
 -1      1610-4.21771E+03-4.21762E+03-9.84117E+03-5.34160E-03-4.67190E+03 2.05324E+02
 -1      1611 1.37630E+03 3.24826E+03 8.63598E+02 9.67632E+01-2.18909E+03 3.17404E+01
 -1      1612-4.17829E+03-4.17820E+03-9.74920E+03-2.83139E-03-4.65783E+03 1.33020E+02
 -1      1613 1.60996E+03 3.23915E+03 8.62895E+02 1.05418E+02-2.13103E+03 1.79506E+01
 -1      1614-4.33676E+03-4.33666E+03-1.01189E+04 4.92649E-04-4.78599E+03 5.05995E+01
 -1      1615 1.62785E+03 3.20149E+03 8.05065E+02 2.79186E+02-2.01904E+03 3.17874E+01
 -1      1616-4.77208E+03-4.77195E+03-1.11346E+04-9.09466E-03-5.06994E+03 3.60625E+02
 -1      1617 7.50941E+02 3.21753E+03 4.49278E+02 5.19365E+02-2.26376E+03 2.56019E+02
 -1      1618-4.73304E+03-4.73293E+03-1.10436E+04-4.31478E-02-4.86111E+03 1.40527E+03
 -1      1619 7.30676E+02 4.33017E+03 1.57584E+03-5.08050E+02-3.74542E+03 2.05944E+01
 -1      1620-2.90119E+03-2.90117E+03-6.76941E+03-5.02793E-02-3.14364E+03 2.26444E+03
 -1      1621 6.04861E+02 2.14771E+03 4.02355E+02-1.71902E+03-1.38425E+03-3.53657E+02
 -1      1622-8.24215E+02-8.24241E+02-1.92323E+03-2.08780E-02-1.16863E+03 1.93666E+03
 -1      1623 9.25507E+02 1.91826E+02-2.01335E+02-1.04566E+03 4.79699E+02-4.05007E+01
 -1      1624 1.85510E+01 1.85364E+01 4.32510E+01-4.54306E-03-2.57019E+02 1.08086E+03
 -1      1625 8.89930E+02 2.68012E+02 2.98289E+02-1.73497E+02 3.90247E+01 1.13940E+02
 -1      1626-2.24874E+03-2.24876E+03-5.24705E+03 2.85272E-02-1.63640E+03-2.21326E+03
 -1      1627-1.35601E+03-1.92487E+03-4.97249E+03 1.03750E+03-1.67232E+03-4.92346E+02
 -1      1628-4.31435E+03-4.31434E+03-1.00667E+04 3.87331E-02-2.91170E+03-1.90789E+03
 -1      1629-4.77063E+03-4.83785E+03-1.20004E+04 1.07089E+03-4.36090E+03-3.63492E+02
 -1      1630-5.48661E+03-5.48656E+03-1.28018E+04 2.77660E-02-3.77912E+03-1.12795E+03
 -1      1631-5.91103E+03-5.51255E+03-1.39223E+04 5.41769E+02-5.08783E+03-1.05046E+02
 -1      1632-5.89458E+03-5.89452E+03-1.37537E+04 1.19057E-02-4.14074E+03-4.74875E+02
 -1      1633-5.77806E+03-5.40944E+03-1.41607E+04 2.67112E+02-5.12384E+03 6.16914E+01
 -1      1634-5.91856E+03-5.91850E+03-1.38097E+04 2.57576E-03-4.22185E+03-1.19791E+02
 -1      1635-5.48383E+03-5.19641E+03-1.39316E+04 1.91937E+02-5.05067E+03 1.21550E+02
 -1      1636-5.85988E+03-5.85982E+03-1.36727E+04-9.20650E-04-4.20974E+03 2.28301E+01
 -1      1637-5.37262E+03-5.07117E+03-1.37066E+04 1.82048E+02-4.98164E+03 1.31504E+02
 -1      1638-5.81927E+03-5.81921E+03-1.35780E+04-1.92619E-03-4.18778E+03 7.24824E+01
 -1      1639-5.40426E+03-5.03584E+03-1.36139E+04 1.88107E+02-4.95361E+03 1.30065E+02
 -1      1640-5.80411E+03-5.80405E+03-1.35426E+04-2.26312E-03-4.17582E+03 9.33981E+01
 -1      1641-5.46527E+03-5.02967E+03-1.35799E+04 1.93884E+02-4.94357E+03 1.28747E+02
 -1      1642-5.80174E+03-5.80169E+03-1.35371E+04-2.49142E-03-4.17203E+03 1.06975E+02
 -1      1643-5.51248E+03-5.03120E+03-1.35735E+04 1.97783E+02-4.94185E+03 1.28912E+02
 -1      1644-5.80327E+03-5.80321E+03-1.35407E+04-2.70293E-03-4.17184E+03 1.17941E+02
 -1      1645-5.53870E+03-5.03196E+03-1.35728E+04 1.99845E+02-4.94229E+03 1.29726E+02
 -1      1646-5.80527E+03-5.80521E+03-1.35453E+04-2.90461E-03-4.17255E+03 1.27515E+02
 -1      1647-5.55142E+03-5.03213E+03-1.35735E+04 2.00587E+02-4.94328E+03 1.30646E+02
 -1      1648-5.80655E+03-5.80649E+03-1.35483E+04-3.14047E-03-4.17250E+03 1.37902E+02
 -1      1649-5.55913E+03-5.03294E+03-1.35743E+04 2.00133E+02-4.94435E+03 1.31776E+02
 -1      1650-5.80449E+03-5.80443E+03-1.35435E+04-3.52156E-03-4.16917E+03 1.53522E+02
 -1      1651-5.56860E+03-5.03605E+03-1.35742E+04 1.97833E+02-4.94491E+03 1.33988E+02
 -1      1652-5.79057E+03-5.79051E+03-1.35110E+04-4.18623E-03-4.15724E+03 1.79713E+02
 -1      1653-5.57260E+03-5.03625E+03-1.35560E+04 1.91876E+02-4.94029E+03 1.39049E+02
 -1      1654-5.74773E+03-5.74767E+03-1.34111E+04-5.04211E-03-4.12946E+03 2.13973E+02
 -1      1655-5.52959E+03-5.01791E+03-1.34949E+04 1.76993E+02-4.92293E+03 1.48620E+02
 -1      1656-5.66470E+03-5.66464E+03-1.32173E+04-5.11077E-03-4.08848E+03 2.22651E+02
 -1      1657-5.31622E+03-4.91083E+03-1.32832E+04 1.54215E+02-4.85794E+03 1.57927E+02
 -1      1658-5.60600E+03-5.60595E+03-1.30804E+04-2.45672E-03-4.07590E+03 1.36245E+02
 -1      1659-4.88075E+03-4.70064E+03-1.29714E+04 1.57453E+02-4.74993E+03 1.37705E+02
 -1      1660-5.79844E+03-5.79838E+03-1.35294E+04 1.80977E-03-4.18718E+03-4.11407E-01
 -1      1661-4.60635E+03-4.51608E+03-1.27117E+04 3.44431E+02-4.60285E+03 2.55892E+01
 -1      1662-6.40000E+03-6.39992E+03-1.49330E+04-6.57310E-03-4.44321E+03 2.95531E+02
 -1      1663-6.29873E+03-5.28521E+03-1.37840E+04 7.16906E+02-4.90668E+03 4.07923E+01
 -1      1664-6.42490E+03-6.42483E+03-1.49911E+04-4.25289E-02-4.28400E+03 1.53463E+03
 -1      1665-1.08514E+04-8.80368E+03-2.12933E+04-4.18112E+02-7.95927E+03 5.56317E+02
 -1      1666-3.90658E+03-3.90659E+03-9.11530E+03-5.11488E-02-2.76030E+03 2.58319E+03
 -1      1667-3.75138E+03-2.96674E+03-8.19225E+03-1.92598E+03-3.24352E+03 8.33039E+02
 -1      1668-1.05429E+03-1.05433E+03-2.46008E+03-2.08219E-02-1.00764E+03 2.14343E+03
 -1      1669 2.34426E+03 1.37269E+03 1.74191E+03-1.12343E+03 8.52768E+02 5.04802E+02
 -1      1670 9.67422E+00 9.65765E+00 2.25352E+01-4.75466E-03-2.17990E+02 1.10193E+03
 -1      1671 1.09503E+03 3.42130E+02-6.12484E+00-1.13138E+02-3.81457E+01 1.50533E+02
 -1      1672-2.79322E+03-2.79325E+03-6.51748E+03 2.38165E-02-1.21477E+03-2.48788E+03
 -1      1673-3.66337E+03-5.16346E+03-1.00465E+04 7.99832E+02-7.85244E+02-1.18093E+03
 -1      1674-5.39743E+03-5.39745E+03-1.25938E+04 3.23736E-02-2.18586E+03-2.11942E+03
 -1      1675-1.14634E+04-1.32454E+04-2.56875E+04 8.35051E+02-2.36381E+03-8.78115E+02
 -1      1676-6.87137E+03-6.87136E+03-1.60328E+04 2.26771E-02-2.83677E+03-1.21545E+03
 -1      1677-1.38630E+04-1.54664E+04-2.98311E+04 4.05870E+02-2.84170E+03-2.03603E+02
 -1      1678-7.36940E+03-7.36939E+03-1.71948E+04 9.20222E-03-3.10578E+03-4.80453E+02
 -1      1679-1.37352E+04-1.54781E+04-3.02800E+04 1.85045E+02-2.86270E+03 1.46935E+02
 -1      1680-7.39501E+03-7.39500E+03-1.72545E+04 1.62686E-03-3.16511E+03-1.01023E+02
 -1      1681-1.32810E+04-1.51189E+04-2.98762E+04 1.29775E+02-2.82644E+03 2.45672E+02
 -1      1682-7.32136E+03-7.32136E+03-1.70827E+04-1.02404E-03-3.15515E+03 4.06707E+01
 -1      1683-1.30476E+04-1.48640E+04-2.94632E+04 1.24264E+02-2.79181E+03 2.53534E+02
 -1      1684-7.27024E+03-7.27023E+03-1.69634E+04-1.69297E-03-3.13818E+03 8.53305E+01
 -1      1685-1.30279E+04-1.47736E+04-2.92860E+04 1.29485E+02-2.77759E+03 2.43539E+02
 -1      1686-7.25016E+03-7.25016E+03-1.69166E+04-1.88360E-03-3.12888E+03 1.03030E+02
 -1      1687-1.30728E+04-1.47498E+04-2.92214E+04 1.33873E+02-2.77279E+03 2.36814E+02
 -1      1688-7.24602E+03-7.24602E+03-1.69069E+04-2.02490E-03-3.12580E+03 1.15156E+02
 -1      1689-1.31181E+04-1.47489E+04-2.92101E+04 1.36714E+02-2.77237E+03 2.34681E+02
 -1      1690-7.24710E+03-7.24710E+03-1.69094E+04-2.17124E-03-3.12552E+03 1.25540E+02
 -1      1691-1.31466E+04-1.47516E+04-2.92124E+04 1.38212E+02-2.77312E+03 2.34708E+02
 -1      1692-7.24911E+03-7.24911E+03-1.69141E+04-2.31744E-03-3.12598E+03 1.34846E+02
 -1      1693-1.31625E+04-1.47547E+04-2.92184E+04 1.38764E+02-2.77415E+03 2.35452E+02
 -1      1694-7.25046E+03-7.25046E+03-1.69173E+04-2.49431E-03-3.12593E+03 1.45161E+02
 -1      1695-1.31739E+04-1.47588E+04-2.92248E+04 1.38447E+02-2.77524E+03 2.36844E+02
 -1      1696-7.24789E+03-7.24789E+03-1.69113E+04-2.79201E-03-3.12349E+03 1.61253E+02
 -1      1697-1.31866E+04-1.47642E+04-2.92276E+04 1.36804E+02-2.77583E+03 2.40396E+02
 -1      1698-7.23132E+03-7.23131E+03-1.68726E+04-3.33107E-03-3.11471E+03 1.89399E+02
 -1      1699-1.31872E+04-1.47576E+04-2.91960E+04 1.32178E+02-2.77405E+03 2.49576E+02
 -1      1700-7.18033E+03-7.18033E+03-1.67537E+04-4.05519E-03-3.09416E+03 2.28154E+02
 -1      1701-1.31189E+04-1.47029E+04-2.90791E+04 1.20465E+02-2.76378E+03 2.68467E+02
 -1      1702-7.07965E+03-7.07965E+03-1.65187E+04-4.14874E-03-3.06370E+03 2.40323E+02
 -1      1703-1.28115E+04-1.44738E+04-2.86900E+04 1.01285E+02-2.73341E+03 2.89514E+02
 -1      1704-7.00224E+03-7.00224E+03-1.63381E+04-1.82014E-03-3.05412E+03 1.37065E+02
 -1      1705-1.21717E+04-1.40332E+04-2.80559E+04 1.03541E+02-2.67124E+03 2.60987E+02
 -1      1706-7.22790E+03-7.22789E+03-1.68646E+04 2.36738E-03-3.13670E+03-5.42282E+01
 -1      1707-1.16763E+04-1.36935E+04-2.75817E+04 2.65569E+02-2.59889E+03 3.36073E+01
 -1      1708-7.99111E+03-7.99109E+03-1.86453E+04-3.95589E-03-3.33277E+03 2.38691E+02
 -1      1709-1.40002E+04-1.51712E+04-2.89754E+04 5.63234E+02-2.82948E+03-2.00135E+02
 -1      1710-8.07838E+03-8.07836E+03-1.88490E+04-3.54649E-02-3.22700E+03 1.68920E+03
 -1      1711-2.34477E+04-2.37632E+04-4.58848E+04-3.34473E+02-4.51991E+03 1.05694E+03
 -1      1712-4.89435E+03-4.89440E+03-1.14200E+04-4.34392E-02-2.07467E+03 2.93886E+03
 -1      1713-9.25167E+03-9.75408E+03-1.89228E+04-1.53459E+03-2.13842E+03 2.14610E+03
 -1      1714-1.28393E+03-1.28398E+03-2.99592E+03-1.70620E-02-7.47225E+02 2.38692E+03
 -1      1715 3.91432E+03 2.65275E+03 4.18340E+03-9.07278E+02 5.15244E+02 1.15296E+03
 -1      1716 1.27724E+00 1.25796E+00 2.93793E+00-3.85958E-03-1.59476E+02 1.14795E+03
 -1      1717 1.22005E+03 3.72042E+02-4.24710E+02-7.80412E+01 1.26632E+01 1.76725E+02
 -1      1718-3.17396E+03-3.17401E+03-7.40586E+03 1.36701E-02-6.48624E+02-2.69202E+03
 -1      1719-3.25273E+03-5.09690E+03-9.10633E+03 3.83875E+02 9.65897E+01-1.15281E+03
 -1      1720-6.16045E+03-6.16050E+03-1.43741E+04 1.86534E-02-1.17492E+03-2.27864E+03
 -1      1721-1.14512E+04-1.37934E+04-2.49335E+04 4.08358E+02-1.02375E+02-9.11632E+02
 -1      1722-7.84877E+03-7.84881E+03-1.83133E+04 1.29081E-02-1.52497E+03-1.28430E+03
 -1      1723-1.41149E+04-1.64210E+04-2.92853E+04 1.89386E+02-2.11097E+02-2.52605E+02
 -1      1724-8.41094E+03-8.41098E+03-1.96249E+04 5.06288E-03-1.66884E+03-4.87712E+02
 -1      1725-1.39572E+04-1.64870E+04-2.97982E+04 7.13398E+01-2.16158E+02 1.36214E+02
 -1      1726-8.43798E+03-8.43803E+03-1.96880E+04 7.64227E-04-1.70031E+03-8.85903E+01
 -1      1727-1.34605E+04-1.61056E+04-2.94169E+04 4.32651E+01-2.13465E+02 2.50312E+02
 -1      1728-8.35400E+03-8.35405E+03-1.94921E+04-6.75273E-04-1.69474E+03 5.33348E+01
 -1      1729-1.32118E+04-1.58375E+04-2.90183E+04 4.07820E+01-2.11379E+02 2.61315E+02
 -1      1730-8.29562E+03-8.29566E+03-1.93558E+04-1.00381E-03-1.68549E+03 9.46274E+01
 -1      1731-1.31870E+04-1.57425E+04-2.88467E+04 4.33698E+01-2.11099E+02 2.52148E+02
 -1      1732-8.27217E+03-8.27222E+03-1.93011E+04-1.08309E-03-1.68041E+03 1.10028E+02
 -1      1733-1.32302E+04-1.57172E+04-2.87816E+04 4.55251E+01-2.10914E+02 2.45187E+02
 -1      1734-8.26686E+03-8.26690E+03-1.92887E+04-1.14785E-03-1.67869E+03 1.21093E+02
 -1      1735-1.32757E+04-1.57165E+04-2.87699E+04 4.69189E+01-2.11049E+02 2.42778E+02
 -1      1736-8.26767E+03-8.26772E+03-1.92906E+04-1.22200E-03-1.67851E+03 1.31062E+02
 -1      1737-1.33044E+04-1.57192E+04-2.87715E+04 4.76661E+01-2.11184E+02 2.42654E+02
 -1      1738-8.26972E+03-8.26977E+03-1.92954E+04-1.29885E-03-1.67874E+03 1.40197E+02
 -1      1739-1.33207E+04-1.57225E+04-2.87770E+04 4.79407E+01-2.11322E+02 2.43349E+02
 -1      1740-8.27113E+03-8.27118E+03-1.92987E+04-1.39416E-03-1.67871E+03 1.50501E+02
 -1      1741-1.33327E+04-1.57270E+04-2.87831E+04 4.77713E+01-2.11439E+02 2.44826E+02
 -1      1742-8.26820E+03-8.26825E+03-1.92919E+04-1.55908E-03-1.67741E+03 1.67015E+02
 -1      1743-1.33460E+04-1.57324E+04-2.87845E+04 4.69732E+01-2.11467E+02 2.48555E+02
 -1      1744-8.24975E+03-8.24980E+03-1.92488E+04-1.86469E-03-1.67274E+03 1.96684E+02
 -1      1745-1.33486E+04-1.57262E+04-2.87541E+04 4.46042E+01-2.11518E+02 2.58332E+02
 -1      1746-8.19301E+03-8.19306E+03-1.91164E+04-2.28523E-03-1.66179E+03 2.38734E+02
 -1      1747-1.32781E+04-1.56639E+04-2.86327E+04 3.88824E+01-2.10154E+02 2.76641E+02
 -1      1748-8.07985E+03-8.07989E+03-1.88524E+04-2.35054E-03-1.64552E+03 2.53125E+02
 -1      1749-1.29753E+04-1.54287E+04-2.82704E+04 2.90189E+01-2.10950E+02 2.97738E+02
 -1      1750-7.98913E+03-7.98918E+03-1.86407E+04-9.68209E-04-1.64032E+03 1.36966E+02
 -1      1751-1.22881E+04-1.49407E+04-2.76305E+04 3.09613E+01-2.00535E+02 2.56177E+02
 -1      1752-8.23835E+03-8.23839E+03-1.92222E+04 1.65769E-03-1.68439E+03-9.33541E+01
 -1      1753-1.17598E+04-1.46402E+04-2.72144E+04 1.26446E+02-1.92799E+02-1.12716E+01
 -1      1754-9.11722E+03-9.11725E+03-2.12727E+04-1.76270E-03-1.79117E+03 2.00520E+02
 -1      1755-1.45697E+04-1.66263E+04-2.89927E+04 2.54044E+02-3.23833E+02-1.33061E+02
 -1      1756-9.25138E+03-9.25142E+03-2.15858E+04-2.04434E-02-1.73887E+03 1.80677E+03
 -1      1757-2.42563E+04-2.52684E+04-4.55952E+04-1.99615E+02-4.87123E+02 1.07523E+03
 -1      1758-5.59662E+03-5.59670E+03-1.30586E+04-2.52767E-02-1.11672E+03 3.20376E+03
 -1      1759-1.01070E+04-1.12196E+04-1.98842E+04-7.74875E+02-4.10503E+02 2.09821E+03
 -1      1760-1.44609E+03-1.44615E+03-3.37431E+03-9.66289E-03-3.98900E+02 2.57187E+03
 -1      1761 4.21424E+03 2.64504E+03 4.21440E+03-4.79406E+02 8.14258E+01 1.26468E+03
 -1      1762-3.37853E+00-3.39991E+00-7.92894E+00-2.14564E-03-8.43742E+01 1.18837E+03
 -1      1763 1.49617E+03 5.94502E+02-2.85284E+02-5.00739E+01 5.44699E+01 2.44398E+02
 -1      1764-3.30999E+03-3.31005E+03-7.72327E+03 1.77165E-09-1.29322E-03-2.76671E+03
 -1      1765-3.09685E+03-4.94375E+03-8.86298E+03-1.00807E-02 3.93038E-02-1.13590E+03
 -1      1766-6.43413E+03-6.43419E+03-1.50127E+04-8.31065E-09 1.93676E-05-2.33715E+03
 -1      1767-1.14333E+04-1.37163E+04-2.49084E+04-5.96152E-04-7.94900E-03-9.16069E+02
 -1      1768-8.19975E+03-8.19981E+03-1.91322E+04-1.26847E-09 1.49249E-04-1.30998E+03
 -1      1769-1.41857E+04-1.64462E+04-2.93554E+04-5.63756E-04 1.61081E-03-2.66191E+02
 -1      1770-8.78505E+03-8.78511E+03-2.04978E+04 7.65756E-10 9.82161E-05-4.90790E+02
 -1      1771-1.40230E+04-1.65351E+04-2.98970E+04-6.35608E-05-2.87986E-04 1.32020E+02
 -1      1772-8.81266E+03-8.81272E+03-2.05622E+04 5.61011E-10 4.94152E-05-8.42457E+01
 -1      1773-1.35120E+04-1.61504E+04-2.95203E+04-7.45785E-05 4.19298E-05 2.51342E+02
 -1      1774-8.72500E+03-8.72507E+03-2.03577E+04 2.73279E-10 2.10383E-05 5.78960E+01
 -1      1775-1.32575E+04-1.58807E+04-2.91209E+04-3.78732E-05-1.28592E-05 2.63500E+02
 -1      1776-8.66403E+03-8.66410E+03-2.02154E+04 1.30213E-10 5.61057E-06 9.80051E+01
 -1      1777-1.32311E+04-1.57859E+04-2.89499E+04-2.01287E-05-1.20936E-05 2.54599E+02
 -1      1778-8.63940E+03-8.63947E+03-2.01579E+04 6.21414E-11-3.34286E-06 1.12578E+02
 -1      1779-1.32738E+04-1.57607E+04-2.88842E+04-8.40129E-06-1.73275E-05 2.47650E+02
 -1      1780-8.63367E+03-8.63373E+03-2.01446E+04 3.03266E-11-8.29981E-06 1.23258E+02
 -1      1781-1.33193E+04-1.57601E+04-2.88723E+04-1.88970E-06-1.74089E-05 2.45182E+02
 -1      1782-8.63439E+03-8.63446E+03-2.01463E+04 1.56929E-11-1.11037E-05 1.33077E+02
 -1      1783-1.33482E+04-1.57630E+04-2.88739E+04 1.15451E-06-1.63497E-05 2.45013E+02
 -1      1784-8.63646E+03-8.63653E+03-2.01511E+04 8.54363E-12-1.27300E-05 1.42152E+02
 -1      1785-1.33647E+04-1.57663E+04-2.88794E+04 2.92110E-06-1.51430E-05 2.45703E+02
 -1      1786-8.63790E+03-8.63796E+03-2.01544E+04 2.82970E-12-1.38286E-05 1.52460E+02
 -1      1787-1.33769E+04-1.57707E+04-2.88853E+04 3.01156E-06-1.64042E-05 2.47185E+02
 -1      1788-8.63484E+03-8.63491E+03-2.01473E+04-1.48573E-12-1.42101E-05 1.69137E+02
 -1      1789-1.33906E+04-1.57765E+04-2.88870E+04 2.39497E-06-1.39371E-05 2.51014E+02
 -1      1790-8.61572E+03-8.61579E+03-2.01027E+04-4.52931E-12-1.45104E-05 1.99373E+02
 -1      1791-1.33932E+04-1.57700E+04-2.88553E+04 3.25136E-06-5.97304E-06 2.60787E+02
 -1      1792-8.55691E+03-8.55697E+03-1.99655E+04-9.63923E-12-1.47481E-05 2.42619E+02
 -1      1793-1.33233E+04-1.57076E+04-2.87346E+04 3.63323E-06-9.88765E-06 2.79035E+02
 -1      1794-8.43926E+03-8.43933E+03-1.96910E+04-1.24612E-11-1.47043E-05 2.57765E+02
 -1      1795-1.30202E+04-1.54718E+04-2.83730E+04 3.14062E-06-8.94986E-06 2.99945E+02
 -1      1796-8.34376E+03-8.34383E+03-1.94682E+04 5.98549E-14-1.44778E-05 1.36834E+02
 -1      1797-1.23145E+04-1.49718E+04-2.77244E+04 4.31546E-06-8.98081E-06 2.52908E+02
 -1      1798-8.60148E+03-8.60155E+03-2.00695E+04 2.47562E-11-1.48394E-05-1.07524E+02
 -1      1799-1.17894E+04-1.47067E+04-2.73374E+04 7.18036E-06-1.02480E-05-2.19849E+01
 -1      1800-9.52220E+03-9.52226E+03-2.22176E+04-1.32641E-11-1.62803E-05 1.87122E+02
 -1      1801-1.47322E+04-1.68210E+04-2.91929E+04 7.71943E-06 2.92650E-07-1.17489E+02
 -1      1802-9.67379E+03-9.67385E+03-2.25714E+04-2.18634E-10-1.64882E-05 1.85008E+03
 -1      1803-2.45739E+04-2.54301E+04-4.60292E+04-4.99896E-06-7.44189E-06 1.08005E+03
 -1      1804-5.84987E+03-5.84996E+03-1.36495E+04-2.71331E-10-9.98367E-06 3.30067E+03
 -1      1805-1.03329E+04-1.14982E+04-2.02144E+04-1.90634E-05-8.41834E-06 2.07722E+03
 -1      1806-1.50436E+03-1.50443E+03-3.51028E+03-1.03340E-10-2.48159E-06 2.64006E+03
 -1      1807 4.29789E+03 2.59157E+03 4.24345E+03-1.33963E-05 2.41695E-06 1.28514E+03
 -1      1808-4.82945E+00-4.85160E+00-1.13157E+01-3.14278E-11-3.32623E-07 1.20402E+03
 -1      1809 1.58817E+03 6.70815E+02-2.52526E+02-3.03009E-06 9.57714E-07 2.66099E+02
 -1      1810-3.17396E+03-3.17401E+03-7.40587E+03-1.36701E-02 6.48621E+02-2.69202E+03
 -1      1811-3.25257E+03-5.09679E+03-9.10607E+03-3.83892E+02-9.65890E+01-1.15275E+03
 -1      1812-6.16045E+03-6.16050E+03-1.43741E+04-1.86534E-02 1.17492E+03-2.27864E+03
 -1      1813-1.14512E+04-1.37934E+04-2.49336E+04-4.08360E+02 1.02377E+02-9.11639E+02
 -1      1814-7.84877E+03-7.84881E+03-1.83133E+04-1.29081E-02 1.52497E+03-1.28430E+03
 -1      1815-1.41149E+04-1.64210E+04-2.92853E+04-1.89387E+02 2.11097E+02-2.52605E+02
 -1      1816-8.41094E+03-8.41098E+03-1.96249E+04-5.06288E-03 1.66884E+03-4.87712E+02
 -1      1817-1.39572E+04-1.64870E+04-2.97982E+04-7.13400E+01 2.16158E+02 1.36214E+02
 -1      1818-8.43798E+03-8.43803E+03-1.96880E+04-7.64226E-04 1.70031E+03-8.85903E+01
 -1      1819-1.34605E+04-1.61056E+04-2.94169E+04-4.32652E+01 2.13465E+02 2.50312E+02
 -1      1820-8.35400E+03-8.35405E+03-1.94921E+04 6.75274E-04 1.69474E+03 5.33348E+01
 -1      1821-1.32118E+04-1.58375E+04-2.90183E+04-4.07821E+01 2.11379E+02 2.61315E+02
 -1      1822-8.29562E+03-8.29566E+03-1.93558E+04 1.00381E-03 1.68549E+03 9.46274E+01
 -1      1823-1.31870E+04-1.57425E+04-2.88467E+04-4.33698E+01 2.11099E+02 2.52148E+02
 -1      1824-8.27217E+03-8.27222E+03-1.93011E+04 1.08309E-03 1.68041E+03 1.10028E+02
 -1      1825-1.32302E+04-1.57172E+04-2.87816E+04-4.55252E+01 2.10914E+02 2.45187E+02
 -1      1826-8.26686E+03-8.26690E+03-1.92887E+04 1.14785E-03 1.67869E+03 1.21093E+02
 -1      1827-1.32757E+04-1.57165E+04-2.87699E+04-4.69189E+01 2.11049E+02 2.42778E+02
 -1      1828-8.26767E+03-8.26772E+03-1.92906E+04 1.22200E-03 1.67851E+03 1.31062E+02
 -1      1829-1.33044E+04-1.57192E+04-2.87715E+04-4.76661E+01 2.11184E+02 2.42654E+02
 -1      1830-8.26972E+03-8.26977E+03-1.92954E+04 1.29885E-03 1.67874E+03 1.40197E+02
 -1      1831-1.33207E+04-1.57225E+04-2.87770E+04-4.79407E+01 2.11322E+02 2.43349E+02
 -1      1832-8.27113E+03-8.27118E+03-1.92987E+04 1.39416E-03 1.67871E+03 1.50501E+02
 -1      1833-1.33327E+04-1.57270E+04-2.87831E+04-4.77713E+01 2.11439E+02 2.44826E+02
 -1      1834-8.26820E+03-8.26825E+03-1.92919E+04 1.55908E-03 1.67741E+03 1.67015E+02
 -1      1835-1.33460E+04-1.57324E+04-2.87845E+04-4.69732E+01 2.11467E+02 2.48555E+02
 -1      1836-8.24975E+03-8.24980E+03-1.92488E+04 1.86469E-03 1.67274E+03 1.96684E+02
 -1      1837-1.33486E+04-1.57262E+04-2.87541E+04-4.46042E+01 2.11518E+02 2.58332E+02
 -1      1838-8.19301E+03-8.19306E+03-1.91164E+04 2.28523E-03 1.66179E+03 2.38734E+02
 -1      1839-1.32781E+04-1.56639E+04-2.86327E+04-3.88824E+01 2.10154E+02 2.76641E+02
 -1      1840-8.07985E+03-8.07989E+03-1.88524E+04 2.35054E-03 1.64552E+03 2.53125E+02
 -1      1841-1.29753E+04-1.54287E+04-2.82704E+04-2.90189E+01 2.10950E+02 2.97738E+02
 -1      1842-7.98913E+03-7.98918E+03-1.86407E+04 9.68209E-04 1.64032E+03 1.36966E+02
 -1      1843-1.22881E+04-1.49407E+04-2.76305E+04-3.09613E+01 2.00535E+02 2.56177E+02
 -1      1844-8.23835E+03-8.23839E+03-1.92222E+04-1.65769E-03 1.68439E+03-9.33541E+01
 -1      1845-1.17598E+04-1.46402E+04-2.72144E+04-1.26446E+02 1.92799E+02-1.12716E+01
 -1      1846-9.11722E+03-9.11725E+03-2.12727E+04 1.76270E-03 1.79117E+03 2.00520E+02
 -1      1847-1.45697E+04-1.66263E+04-2.89927E+04-2.54044E+02 3.23833E+02-1.33061E+02
 -1      1848-9.25138E+03-9.25142E+03-2.15858E+04 2.04434E-02 1.73887E+03 1.80677E+03
 -1      1849-2.42563E+04-2.52684E+04-4.55952E+04 1.99615E+02 4.87123E+02 1.07523E+03
 -1      1850-5.59662E+03-5.59670E+03-1.30586E+04 2.52767E-02 1.11672E+03 3.20376E+03
 -1      1851-1.01070E+04-1.12196E+04-1.98842E+04 7.74875E+02 4.10503E+02 2.09821E+03
 -1      1852-1.44609E+03-1.44615E+03-3.37431E+03 9.66289E-03 3.98900E+02 2.57187E+03
 -1      1853 4.21424E+03 2.64504E+03 4.21440E+03 4.79406E+02-8.14257E+01 1.26468E+03
 -1      1854-3.37853E+00-3.39991E+00-7.92894E+00 2.14564E-03 8.43742E+01 1.18837E+03
 -1      1855 1.49617E+03 5.94502E+02-2.85284E+02 5.00739E+01-5.44699E+01 2.44398E+02
 -1      1856-2.79322E+03-2.79326E+03-6.51749E+03-2.38164E-02 1.21477E+03-2.48788E+03
 -1      1857-3.66334E+03-5.16348E+03-1.00466E+04-7.99835E+02 7.85206E+02-1.18093E+03
 -1      1858-5.39743E+03-5.39745E+03-1.25938E+04-3.23737E-02 2.18586E+03-2.11942E+03
 -1      1859-1.14634E+04-1.32453E+04-2.56875E+04-8.35055E+02 2.36381E+03-8.78111E+02
 -1      1860-6.87137E+03-6.87136E+03-1.60328E+04-2.26771E-02 2.83677E+03-1.21545E+03
 -1      1861-1.38630E+04-1.54664E+04-2.98311E+04-4.05870E+02 2.84170E+03-2.03604E+02
 -1      1862-7.36940E+03-7.36939E+03-1.71948E+04-9.20222E-03 3.10578E+03-4.80453E+02
 -1      1863-1.37352E+04-1.54781E+04-3.02800E+04-1.85046E+02 2.86270E+03 1.46936E+02
 -1      1864-7.39501E+03-7.39500E+03-1.72545E+04-1.62686E-03 3.16511E+03-1.01023E+02
 -1      1865-1.32810E+04-1.51189E+04-2.98762E+04-1.29775E+02 2.82644E+03 2.45672E+02
 -1      1866-7.32136E+03-7.32136E+03-1.70827E+04 1.02404E-03 3.15515E+03 4.06707E+01
 -1      1867-1.30476E+04-1.48640E+04-2.94632E+04-1.24264E+02 2.79181E+03 2.53534E+02
 -1      1868-7.27024E+03-7.27023E+03-1.69634E+04 1.69297E-03 3.13818E+03 8.53305E+01
 -1      1869-1.30279E+04-1.47736E+04-2.92860E+04-1.29485E+02 2.77759E+03 2.43539E+02
 -1      1870-7.25016E+03-7.25016E+03-1.69166E+04 1.88360E-03 3.12888E+03 1.03030E+02
 -1      1871-1.30728E+04-1.47498E+04-2.92214E+04-1.33873E+02 2.77279E+03 2.36814E+02
 -1      1872-7.24602E+03-7.24602E+03-1.69069E+04 2.02490E-03 3.12580E+03 1.15156E+02
 -1      1873-1.31181E+04-1.47489E+04-2.92101E+04-1.36714E+02 2.77237E+03 2.34681E+02
 -1      1874-7.24710E+03-7.24710E+03-1.69094E+04 2.17124E-03 3.12552E+03 1.25540E+02
 -1      1875-1.31466E+04-1.47516E+04-2.92124E+04-1.38212E+02 2.77312E+03 2.34708E+02
 -1      1876-7.24911E+03-7.24911E+03-1.69141E+04 2.31744E-03 3.12598E+03 1.34846E+02
 -1      1877-1.31625E+04-1.47547E+04-2.92184E+04-1.38764E+02 2.77415E+03 2.35452E+02
 -1      1878-7.25046E+03-7.25046E+03-1.69173E+04 2.49431E-03 3.12593E+03 1.45161E+02
 -1      1879-1.31739E+04-1.47588E+04-2.92248E+04-1.38447E+02 2.77524E+03 2.36844E+02
 -1      1880-7.24789E+03-7.24789E+03-1.69113E+04 2.79201E-03 3.12349E+03 1.61253E+02
 -1      1881-1.31866E+04-1.47642E+04-2.92276E+04-1.36804E+02 2.77583E+03 2.40396E+02
 -1      1882-7.23132E+03-7.23131E+03-1.68726E+04 3.33107E-03 3.11471E+03 1.89399E+02
 -1      1883-1.31872E+04-1.47576E+04-2.91960E+04-1.32178E+02 2.77405E+03 2.49576E+02
 -1      1884-7.18033E+03-7.18033E+03-1.67537E+04 4.05519E-03 3.09416E+03 2.28154E+02
 -1      1885-1.31189E+04-1.47029E+04-2.90791E+04-1.20465E+02 2.76378E+03 2.68467E+02
 -1      1886-7.07965E+03-7.07965E+03-1.65187E+04 4.14874E-03 3.06370E+03 2.40323E+02
 -1      1887-1.28115E+04-1.44738E+04-2.86900E+04-1.01285E+02 2.73341E+03 2.89514E+02
 -1      1888-7.00224E+03-7.00224E+03-1.63381E+04 1.82014E-03 3.05412E+03 1.37065E+02
 -1      1889-1.21717E+04-1.40332E+04-2.80559E+04-1.03541E+02 2.67124E+03 2.60987E+02
 -1      1890-7.22790E+03-7.22789E+03-1.68646E+04-2.36738E-03 3.13670E+03-5.42282E+01
 -1      1891-1.16763E+04-1.36935E+04-2.75817E+04-2.65569E+02 2.59889E+03 3.36073E+01
 -1      1892-7.99111E+03-7.99109E+03-1.86453E+04 3.95589E-03 3.33277E+03 2.38691E+02
 -1      1893-1.40002E+04-1.51712E+04-2.89754E+04-5.63234E+02 2.82948E+03-2.00135E+02
 -1      1894-8.07838E+03-8.07836E+03-1.88490E+04 3.54649E-02 3.22700E+03 1.68920E+03
 -1      1895-2.34477E+04-2.37632E+04-4.58848E+04 3.34473E+02 4.51991E+03 1.05694E+03
 -1      1896-4.89435E+03-4.89440E+03-1.14200E+04 4.34392E-02 2.07467E+03 2.93886E+03
 -1      1897-9.25167E+03-9.75408E+03-1.89228E+04 1.53459E+03 2.13842E+03 2.14610E+03
 -1      1898-1.28393E+03-1.28398E+03-2.99592E+03 1.70620E-02 7.47225E+02 2.38692E+03
 -1      1899 3.91432E+03 2.65275E+03 4.18340E+03 9.07278E+02-5.15244E+02 1.15296E+03
 -1      1900 1.27724E+00 1.25795E+00 2.93793E+00 3.85958E-03 1.59476E+02 1.14795E+03
 -1      1901 1.22005E+03 3.72042E+02-4.24710E+02 7.80412E+01-1.26632E+01 1.76725E+02
 -1      1902-2.24874E+03-2.24876E+03-5.24705E+03-2.85272E-02 1.63640E+03-2.21326E+03
 -1      1903-1.35600E+03-1.92488E+03-4.97249E+03-1.03749E+03 1.67232E+03-4.92348E+02
 -1      1904-4.31435E+03-4.31434E+03-1.00667E+04-3.87331E-02 2.91170E+03-1.90789E+03
 -1      1905-4.77062E+03-4.83785E+03-1.20004E+04-1.07090E+03 4.36090E+03-3.63491E+02
 -1      1906-5.48661E+03-5.48656E+03-1.28018E+04-2.77660E-02 3.77912E+03-1.12795E+03
 -1      1907-5.91103E+03-5.51255E+03-1.39223E+04-5.41769E+02 5.08783E+03-1.05046E+02
 -1      1908-5.89458E+03-5.89452E+03-1.37537E+04-1.19057E-02 4.14074E+03-4.74875E+02
 -1      1909-5.77806E+03-5.40944E+03-1.41608E+04-2.67113E+02 5.12384E+03 6.16913E+01
 -1      1910-5.91856E+03-5.91850E+03-1.38097E+04-2.57576E-03 4.22185E+03-1.19791E+02
 -1      1911-5.48383E+03-5.19641E+03-1.39316E+04-1.91937E+02 5.05067E+03 1.21550E+02
 -1      1912-5.85988E+03-5.85982E+03-1.36727E+04 9.20650E-04 4.20974E+03 2.28300E+01
 -1      1913-5.37262E+03-5.07117E+03-1.37066E+04-1.82048E+02 4.98164E+03 1.31504E+02
 -1      1914-5.81927E+03-5.81921E+03-1.35780E+04 1.92619E-03 4.18778E+03 7.24824E+01
 -1      1915-5.40426E+03-5.03584E+03-1.36139E+04-1.88107E+02 4.95361E+03 1.30065E+02
 -1      1916-5.80411E+03-5.80405E+03-1.35426E+04 2.26312E-03 4.17582E+03 9.33981E+01
 -1      1917-5.46527E+03-5.02967E+03-1.35799E+04-1.93884E+02 4.94357E+03 1.28747E+02
 -1      1918-5.80174E+03-5.80169E+03-1.35371E+04 2.49142E-03 4.17203E+03 1.06975E+02
 -1      1919-5.51248E+03-5.03120E+03-1.35735E+04-1.97783E+02 4.94185E+03 1.28912E+02
 -1      1920-5.80327E+03-5.80321E+03-1.35407E+04 2.70293E-03 4.17184E+03 1.17941E+02
 -1      1921-5.53870E+03-5.03196E+03-1.35728E+04-1.99845E+02 4.94229E+03 1.29726E+02
 -1      1922-5.80527E+03-5.80521E+03-1.35453E+04 2.90461E-03 4.17255E+03 1.27515E+02
 -1      1923-5.55142E+03-5.03213E+03-1.35735E+04-2.00587E+02 4.94328E+03 1.30646E+02
 -1      1924-5.80655E+03-5.80649E+03-1.35483E+04 3.14047E-03 4.17250E+03 1.37902E+02
 -1      1925-5.55913E+03-5.03294E+03-1.35743E+04-2.00133E+02 4.94435E+03 1.31776E+02
 -1      1926-5.80449E+03-5.80443E+03-1.35435E+04 3.52156E-03 4.16917E+03 1.53522E+02
 -1      1927-5.56861E+03-5.03605E+03-1.35742E+04-1.97833E+02 4.94491E+03 1.33988E+02
 -1      1928-5.79057E+03-5.79051E+03-1.35110E+04 4.18623E-03 4.15724E+03 1.79713E+02
 -1      1929-5.57260E+03-5.03625E+03-1.35560E+04-1.91876E+02 4.94029E+03 1.39049E+02
 -1      1930-5.74773E+03-5.74767E+03-1.34111E+04 5.04211E-03 4.12946E+03 2.13973E+02
 -1      1931-5.52959E+03-5.01791E+03-1.34949E+04-1.76993E+02 4.92293E+03 1.48620E+02
 -1      1932-5.66470E+03-5.66464E+03-1.32173E+04 5.11077E-03 4.08848E+03 2.22651E+02
 -1      1933-5.31622E+03-4.91083E+03-1.32832E+04-1.54215E+02 4.85794E+03 1.57927E+02
 -1      1934-5.60600E+03-5.60595E+03-1.30804E+04 2.45672E-03 4.07590E+03 1.36245E+02
 -1      1935-4.88075E+03-4.70064E+03-1.29714E+04-1.57453E+02 4.74993E+03 1.37705E+02
 -1      1936-5.79844E+03-5.79838E+03-1.35294E+04-1.80977E-03 4.18718E+03-4.11411E-01
 -1      1937-4.60635E+03-4.51608E+03-1.27117E+04-3.44431E+02 4.60285E+03 2.55892E+01
 -1      1938-6.40000E+03-6.39992E+03-1.49330E+04 6.57310E-03 4.44321E+03 2.95531E+02
 -1      1939-6.29873E+03-5.28521E+03-1.37840E+04-7.16906E+02 4.90668E+03 4.07923E+01
 -1      1940-6.42490E+03-6.42483E+03-1.49911E+04 4.25289E-02 4.28400E+03 1.53463E+03
 -1      1941-1.08514E+04-8.80368E+03-2.12933E+04 4.18112E+02 7.95927E+03 5.56317E+02
 -1      1942-3.90658E+03-3.90659E+03-9.11530E+03 5.11488E-02 2.76030E+03 2.58319E+03
 -1      1943-3.75139E+03-2.96674E+03-8.19225E+03 1.92598E+03 3.24352E+03 8.33039E+02
 -1      1944-1.05429E+03-1.05433E+03-2.46008E+03 2.08219E-02 1.00764E+03 2.14343E+03
 -1      1945 2.34426E+03 1.37269E+03 1.74191E+03 1.12343E+03-8.52768E+02 5.04802E+02
 -1      1946 9.67422E+00 9.65765E+00 2.25352E+01 4.75466E-03 2.17990E+02 1.10193E+03
 -1      1947 1.09503E+03 3.42130E+02-6.12487E+00 1.13138E+02 3.81457E+01 1.50533E+02
 -1      1948-1.68422E+03-1.68423E+03-3.92986E+03-2.82300E-02 1.89221E+03-1.96270E+03
 -1      1949 8.54590E+02 1.04193E+03 6.74796E+01-9.25127E+02 8.03248E+02 1.37498E+02
 -1      1950-3.19767E+03-3.19764E+03-7.46117E+03-3.88536E-02 3.31556E+03-1.72302E+03
 -1      1951 1.34430E+03 2.54303E+03 7.49923E+02-9.45551E+02 2.01954E+03 9.29067E+01
 -1      1952-4.06262E+03-4.06254E+03-9.47930E+03-2.89096E-02 4.30542E+03-1.06246E+03
 -1      1953 1.29421E+03 3.08798E+03 7.70647E+02-4.77382E+02 2.34787E+03-1.68024E+01
 -1      1954-4.38134E+03-4.38124E+03-1.02229E+04-1.32785E-02 4.72278E+03-4.80538E+02
 -1      1955 1.44517E+03 3.28295E+03 8.09226E+02-2.13448E+02 2.33629E+03-1.61366E+01
 -1      1956-4.40583E+03-4.40572E+03-1.02801E+04-3.48099E-03 4.81943E+03-1.42186E+02
 -1      1957 1.55755E+03 3.33494E+03 8.43526E+02-1.32219E+02 2.28796E+03 1.83809E+00
 -1      1958-4.36379E+03-4.36368E+03-1.01820E+04 4.97804E-04 4.80824E+03 4.23396E+00
 -1      1959 1.53081E+03 3.32709E+03 8.60448E+02-1.17682E+02 2.25037E+03 1.42110E+01
 -1      1960-4.33467E+03-4.33457E+03-1.01141E+04 1.79315E-03 4.78466E+03 5.95937E+01
 -1      1961 1.44413E+03 3.31073E+03 8.64423E+02-1.21989E+02 2.23680E+03 2.18448E+01
 -1      1962-4.32499E+03-4.32488E+03-1.00915E+04 2.27997E-03 4.77198E+03 8.37098E+01
 -1      1963 1.36376E+03 3.29837E+03 8.60360E+02-1.27795E+02 2.23217E+03 2.59102E+01
 -1      1964-4.32471E+03-4.32461E+03-1.00908E+04 2.59008E-03 4.76829E+03 9.86713E+01
 -1      1965 1.31288E+03 3.29291E+03 8.56787E+02-1.31981E+02 2.23135E+03 2.84829E+01
 -1      1966-4.32687E+03-4.32677E+03-1.00959E+04 2.85292E-03 4.76847E+03 1.10223E+02
 -1      1967 1.28646E+03 3.29129E+03 8.54528E+02-1.34245E+02 2.23127E+03 3.01247E+01
 -1      1968-4.32895E+03-4.32884E+03-1.01007E+04 3.09314E-03 4.76946E+03 1.20130E+02
 -1      1969 1.27452E+03 3.29119E+03 8.53324E+02-1.35036E+02 2.23137E+03 3.12733E+01
 -1      1970-4.33020E+03-4.33010E+03-1.01036E+04 3.36489E-03 4.76945E+03 1.30733E+02
 -1      1971 1.26808E+03 3.29074E+03 8.51958E+02-1.34477E+02 2.23154E+03 3.22101E+01
 -1      1972-4.32863E+03-4.32853E+03-1.01000E+04 3.78489E-03 4.76553E+03 1.46170E+02
 -1      1973 1.26013E+03 3.28790E+03 8.50012E+02-1.32001E+02 2.23172E+03 3.31287E+01
 -1      1974-4.31733E+03-4.31723E+03-1.00736E+04 4.48427E-03 4.75151E+03 1.70850E+02
 -1      1975 1.25050E+03 3.27958E+03 8.47772E+02-1.26190E+02 2.22987E+03 3.42889E+01
 -1      1976-4.28268E+03-4.28258E+03-9.99275E+03 5.33353E-03 4.71914E+03 2.00898E+02
 -1      1977 1.26828E+03 3.26639E+03 8.52632E+02-1.13436E+02 2.22245E+03 3.41777E+01
 -1      1978-4.21771E+03-4.21762E+03-9.84117E+03 5.34160E-03 4.67190E+03 2.05324E+02
 -1      1979 1.37630E+03 3.24826E+03 8.63598E+02-9.67632E+01 2.18909E+03 3.17404E+01
 -1      1980-4.17829E+03-4.17820E+03-9.74920E+03 2.83139E-03 4.65783E+03 1.33020E+02
 -1      1981 1.60996E+03 3.23915E+03 8.62895E+02-1.05418E+02 2.13103E+03 1.79506E+01
 -1      1982-4.33676E+03-4.33666E+03-1.01189E+04-4.92649E-04 4.78599E+03 5.05995E+01
 -1      1983 1.62785E+03 3.20149E+03 8.05065E+02-2.79186E+02 2.01904E+03 3.17874E+01
 -1      1984-4.77208E+03-4.77195E+03-1.11346E+04 9.09466E-03 5.06994E+03 3.60625E+02
 -1      1985 7.50941E+02 3.21753E+03 4.49278E+02-5.19365E+02 2.26376E+03 2.56019E+02
 -1      1986-4.73304E+03-4.73293E+03-1.10436E+04 4.31478E-02 4.86111E+03 1.40527E+03
 -1      1987 7.30676E+02 4.33017E+03 1.57584E+03 5.08050E+02 3.74542E+03 2.05944E+01
 -1      1988-2.90119E+03-2.90117E+03-6.76941E+03 5.02793E-02 3.14364E+03 2.26444E+03
 -1      1989 6.04861E+02 2.14771E+03 4.02355E+02 1.71902E+03 1.38425E+03-3.53657E+02
 -1      1990-8.24215E+02-8.24241E+02-1.92323E+03 2.08780E-02 1.16863E+03 1.93666E+03
 -1      1991 9.25507E+02 1.91826E+02-2.01335E+02 1.04566E+03-4.79699E+02-4.05007E+01
 -1      1992 1.85510E+01 1.85364E+01 4.32510E+01 4.54306E-03 2.57019E+02 1.08086E+03
 -1      1993 8.89930E+02 2.68012E+02 2.98289E+02 1.73497E+02-3.90247E+01 1.13940E+02
 -1      1994-1.29292E+03-1.29292E+03-3.01681E+03-2.53570E-02 2.04097E+03-1.86338E+03
 -1      1995 6.38849E+02 7.74788E+02 7.13514E+01-5.88385E+02-6.47290E+01 1.20507E+02
 -1      1996-2.41366E+03-2.41362E+03-5.63184E+03-3.68189E-02 3.51545E+03-1.67628E+03
 -1      1997 1.08144E+03 1.80627E+03 3.50685E+02-6.05735E+02-1.65304E+02 9.09461E+01
 -1      1998-3.06920E+03-3.06911E+03-7.16136E+03-2.88199E-02 4.56563E+03-1.07762E+03
 -1      1999 1.14334E+03 2.23236E+03 4.34787E+02-3.08018E+02-1.97066E+02 2.37552E+01
 -1      2000-3.33597E+03-3.33585E+03-7.78381E+03-1.41295E-02 5.01699E+03-5.09785E+02
 -1      2001 1.18664E+03 2.32736E+03 4.59835E+02-1.14884E+02-2.41001E+02-5.30690E+00
 -1      2002-3.36789E+03-3.36778E+03-7.85831E+03-4.27593E-03 5.12866E+03-1.65202E+02
 -1      2003 1.20932E+03 2.33719E+03 4.95016E+02-4.90342E+01-2.52918E+02-2.91596E+00
 -1      2004-3.34108E+03-3.34096E+03-7.79574E+03 1.95004E-05 5.12209E+03-9.56481E+00
 -1      2005 1.14255E+03 2.32595E+03 5.14735E+02-3.50541E+01-2.53708E+02 5.09196E+00
 -1      2006-3.32171E+03-3.32160E+03-7.75056E+03 1.54201E-03 5.10004E+03 5.07667E+01
 -1      2007 1.04248E+03 2.31432E+03 5.18117E+02-3.72343E+01-2.52188E+02 1.17890E+01
 -1      2008-3.31680E+03-3.31668E+03-7.73909E+03 2.15167E-03 5.08841E+03 7.67700E+01
 -1      2009 9.61077E+02 2.30650E+03 5.14631E+02-4.17045E+01-2.50832E+02 1.64364E+01
 -1      2010-3.31858E+03-3.31846E+03-7.74324E+03 2.52683E-03 5.08568E+03 9.24114E+01
 -1      2011 9.11408E+02 2.30280E+03 5.11075E+02-4.50201E+01-2.50268E+02 1.95206E+01
 -1      2012-3.32156E+03-3.32144E+03-7.75019E+03 2.82862E-03 5.08659E+03 1.04338E+02
 -1      2013 8.86139E+02 2.30155E+03 5.09063E+02-4.68346E+01-2.50063E+02 2.15061E+01
 -1      2014-3.32389E+03-3.32378E+03-7.75565E+03 3.09702E-03 5.08802E+03 1.14608E+02
 -1      2015 8.75078E+02 2.30131E+03 5.08037E+02-4.74652E+01-2.50019E+02 2.27856E+01
 -1      2016-3.32518E+03-3.32506E+03-7.75864E+03 3.39379E-03 5.08808E+03 1.25679E+02
 -1      2017 8.70131E+02 2.30098E+03 5.06934E+02-4.70088E+01-2.49924E+02 2.36537E+01
 -1      2018-3.32380E+03-3.32369E+03-7.75542E+03 3.83706E-03 5.08367E+03 1.41691E+02
 -1      2019 8.64872E+02 2.29940E+03 5.05051E+02-4.50885E+01-2.49585E+02 2.43287E+01
 -1      2020-3.31393E+03-3.31382E+03-7.73240E+03 4.54522E-03 5.06807E+03 1.66554E+02
 -1      2021 8.59283E+02 2.29533E+03 5.03650E+02-4.07984E+01-2.48339E+02 2.48880E+01
 -1      2022-3.28445E+03-3.28435E+03-7.66363E+03 5.35501E-03 5.03257E+03 1.94793E+02
 -1      2023 8.77181E+02 2.28835E+03 5.08605E+02-3.29621E+01-2.46351E+02 2.48972E+01
 -1      2024-3.23196E+03-3.23185E+03-7.54113E+03 5.30640E-03 4.98186E+03 1.95040E+02
 -1      2025 9.75758E+02 2.27316E+03 5.23485E+02-2.54501E+01-2.44203E+02 2.31338E+01
 -1      2026-3.20688E+03-3.20678E+03-7.48263E+03 3.03714E-03 4.96785E+03 1.25653E+02
 -1      2027 1.15989E+03 2.24021E+03 5.28021E+02-3.94221E+01-2.49484E+02 2.24643E+01
 -1      2028-3.34146E+03-3.34135E+03-7.79664E+03 6.65636E-04 5.10374E+03 7.29349E+01
 -1      2029 1.13719E+03 2.17161E+03 4.51809E+02-1.57342E+02-2.86769E+02 5.95956E+01
 -1      2030-3.65270E+03-3.65256E+03-8.52281E+03 1.09648E-02 5.39100E+03 4.15685E+02
 -1      2031 7.43293E+02 2.39328E+03 3.73465E+02-2.21948E+02-2.17576E+02 1.22667E+02
 -1      2032-3.55483E+03-3.55471E+03-8.29447E+03 4.21140E-02 5.13465E+03 1.38940E+03
 -1      2033 6.76824E+02 3.06157E+03 6.31599E+02 4.31192E+02-2.02819E+02-4.56644E+01
 -1      2034-2.21441E+03-2.21439E+03-5.16696E+03 4.67223E-02 3.33914E+03 2.16747E+03
 -1      2035 5.39782E+02 1.52704E+03 3.02040E+02 1.09410E+03-1.41073E+02-2.41982E+02
 -1      2036-6.87901E+02-6.87927E+02-1.60516E+03 1.83609E-02 1.27294E+03 1.90094E+03
 -1      2037 5.69734E+02 5.71996E+01 4.04087E+01 7.20219E+02-1.15937E+02-1.05669E+02
 -1      2038 1.74739E+01 1.74576E+01 4.07380E+01 3.13414E-03 2.85614E+02 1.12420E+03
 -1      2039 5.14911E+02 6.00735E+01 1.45158E+02 1.74788E+02-6.18805E+01 2.63068E+01
 -1      2040-7.10125E+02-3.83402E+02-2.82540E+03-2.85629E+02-1.53695E+03-1.70224E+03
 -1      2041-1.45397E+03-9.22722E+02-5.05878E+03-2.95602E+02-2.71956E+03-1.56032E+03
 -1      2042-1.78486E+03-1.16656E+03-6.46780E+03-1.53224E+02-3.52729E+03-9.92923E+02
 -1      2043-2.08151E+03-1.24584E+03-7.01033E+03-4.18773E+01-3.85024E+03-4.64955E+02
 -1      2044-2.28919E+03-1.26365E+03-7.08938E+03 3.93180E+00-3.91975E+03-1.48061E+02
 -1      2045-2.39968E+03-1.26442E+03-7.04631E+03 1.27559E+01-3.90776E+03-6.20989E+00
 -1      2046-2.44620E+03-1.26415E+03-7.01441E+03 1.01132E+01-3.88861E+03 4.98037E+01
 -1      2047-2.46349E+03-1.26424E+03-7.00741E+03 6.68371E+00-3.87886E+03 7.51241E+01
 -1      2048-2.47111E+03-1.26470E+03-7.01201E+03 4.72825E+00-3.87624E+03 9.08668E+01
 -1      2049-2.47549E+03-1.26520E+03-7.01834E+03 3.90807E+00-3.87656E+03 1.02786E+02
 -1      2050-2.47737E+03-1.26551E+03-7.02306E+03 3.68330E+00-3.87744E+03 1.12798E+02
 -1      2051-2.47552E+03-1.26540E+03-7.02530E+03 3.96461E+00-3.87751E+03 1.23263E+02
 -1      2052-2.46824E+03-1.26447E+03-7.02188E+03 5.23975E+00-3.87454E+03 1.38162E+02
 -1      2053-2.45614E+03-1.26196E+03-7.00172E+03 8.35914E+00-3.86358E+03 1.61609E+02
 -1      2054-2.44751E+03-1.25590E+03-6.94346E+03 1.30340E+01-3.83751E+03 1.89709E+02
 -1      2055-2.45338E+03-1.24128E+03-6.83662E+03 1.29373E+01-3.79722E+03 1.94050E+02
 -1      2056-2.44912E+03-1.21801E+03-6.76919E+03-9.63900E+00-3.77868E+03 1.30692E+02
 -1      2057-2.34499E+03-1.22334E+03-7.01209E+03-5.90046E+01-3.87598E+03 6.76225E+01
 -1      2058-2.13111E+03-1.33952E+03-7.66560E+03-3.08678E+01-4.13731E+03 3.66480E+02
 -1      2059-1.92041E+03-1.40909E+03-7.52253E+03 2.31634E+02-4.02460E+03 1.29034E+03
 -1      2060-1.43076E+03-8.40842E+02-4.66722E+03 4.68122E+02-2.56146E+03 2.03805E+03
 -1      2061-9.38974E+02-2.09400E+02-1.41357E+03 3.49035E+02-8.91373E+02 1.76953E+03
 -1      2062-5.03471E+02-3.34837E+01-6.05714E+01 1.11441E+02-1.84130E+02 1.01068E+03
 -1      2063-1.14550E+03-9.86658E+02-3.89643E+03-4.98529E+02-1.89899E+03-1.85567E+03
 -1      2064-2.38514E+03-2.08147E+03-7.16923E+03-5.18010E+02-3.41449E+03-1.65734E+03
 -1      2065-2.98611E+03-2.61376E+03-9.13447E+03-2.59704E+02-4.42175E+03-1.00429E+03
 -1      2066-3.40214E+03-2.83262E+03-9.83692E+03-6.82114E+01-4.81969E+03-4.40984E+02
 -1      2067-3.62859E+03-2.88334E+03-9.91194E+03 8.46343E+00-4.90079E+03-1.24042E+02
 -1      2068-3.72851E+03-2.88339E+03-9.83618E+03 2.19941E+01-4.88286E+03 9.85230E+00
 -1      2069-3.76321E+03-2.87740E+03-9.78117E+03 1.69012E+01-4.85757E+03 6.04562E+01
 -1      2070-3.77442E+03-2.87482E+03-9.76276E+03 1.10405E+01-4.84456E+03 8.33698E+01
 -1      2071-3.77995E+03-2.87510E+03-9.76278E+03 7.86579E+00-4.84076E+03 9.81148E+01
 -1      2072-3.78394E+03-2.87631E+03-9.76757E+03 6.60445E+00-4.84083E+03 1.09518E+02
 -1      2073-3.78597E+03-2.87729E+03-9.77195E+03 6.28832E+00-4.84176E+03 1.19126E+02
 -1      2074-3.78423E+03-2.87729E+03-9.77416E+03 6.76522E+00-4.84183E+03 1.29166E+02
 -1      2075-3.77611E+03-2.87495E+03-9.76978E+03 8.90286E+00-4.83827E+03 1.43687E+02
 -1      2076-3.75994E+03-2.86731E+03-9.74462E+03 1.43093E+01-4.82501E+03 1.67417E+02
 -1      2077-3.74150E+03-2.84984E+03-9.67135E+03 2.28565E+01-4.79317E+03 1.98048E+02
 -1      2078-3.73505E+03-2.81902E+03-9.53286E+03 2.40214E+01-4.74277E+03 2.07165E+02
 -1      2079-3.73372E+03-2.79016E+03-9.43183E+03-1.37217E+01-4.71768E+03 1.38805E+02
 -1      2080-3.66862E+03-2.82790E+03-9.72936E+03-1.05365E+02-4.83786E+03 3.50794E+01
 -1      2081-3.52754E+03-3.03128E+03-1.06837E+04-7.26043E+01-5.17640E+03 2.97786E+02
 -1      2082-3.31545E+03-3.09938E+03-1.07018E+04 3.93666E+02-5.07408E+03 1.34807E+03
 -1      2083-2.29524E+03-1.89353E+03-6.52474E+03 8.23279E+02-3.21018E+03 2.23218E+03
 -1      2084-1.22781E+03-5.67984E+02-1.81509E+03 6.02354E+02-1.08614E+03 1.86862E+03
 -1      2085-5.69956E+02-1.07208E+02-8.04305E+01 1.84392E+02-2.16748E+02 9.86203E+02
 -1      2086-1.53527E+03-1.14882E+03-5.22965E+03-5.45650E+02-1.70962E+03-2.15644E+03
 -1      2087-3.19549E+03-2.42754E+03-9.79160E+03-5.55331E+02-3.13282E+03-1.89481E+03
 -1      2088-4.03419E+03-3.04317E+03-1.24738E+04-2.81341E+02-4.05396E+03-1.09281E+03
 -1      2089-4.56031E+03-3.27930E+03-1.33777E+04-7.37456E+01-4.41025E+03-4.39306E+02
 -1      2090-4.82092E+03-3.33243E+03-1.34558E+04 9.08187E+00-4.47869E+03-9.98868E+01
 -1      2091-4.91920E+03-3.33013E+03-1.33446E+04 2.38973E+01-4.45947E+03 3.08303E+01
 -1      2092-4.94553E+03-3.32250E+03-1.32642E+04 1.85211E+01-4.43518E+03 7.52671E+01
 -1      2093-4.95098E+03-3.31930E+03-1.32334E+04 1.22844E+01-4.42268E+03 9.45116E+01
 -1      2094-4.95399E+03-3.31961E+03-1.32288E+04 8.90436E+00-4.41880E+03 1.07624E+02
 -1      2095-4.95718E+03-3.32100E+03-1.32322E+04 7.57098E+00-4.41862E+03 1.18341E+02
 -1      2096-4.95906E+03-3.32215E+03-1.32365E+04 7.24793E+00-4.41936E+03 1.27592E+02
 -1      2097-4.95713E+03-3.32221E+03-1.32388E+04 7.77448E+00-4.41942E+03 1.37458E+02
 -1      2098-4.94780E+03-3.31962E+03-1.32331E+04 1.00826E+01-4.41634E+03 1.52332E+02
 -1      2099-4.92763E+03-3.31090E+03-1.32015E+04 1.58921E+01-4.40467E+03 1.78007E+02
 -1      2100-4.90160E+03-3.29087E+03-1.31095E+04 2.50871E+01-4.37620E+03 2.13626E+02
 -1      2101-4.88990E+03-3.25571E+03-1.29313E+04 2.64250E+01-4.33003E+03 2.28056E+02
 -1      2102-4.89809E+03-3.21995E+03-1.27845E+04-1.44306E+01-4.30509E+03 1.44422E+02
 -1      2103-4.84914E+03-3.25287E+03-1.31407E+04-1.13640E+02-4.41291E+03-2.63220E+01
 -1      2104-4.73040E+03-3.50484E+03-1.44801E+04-7.71099E+01-4.73775E+03 2.12413E+02
 -1      2105-4.51971E+03-3.64810E+03-1.47217E+04 4.22458E+02-4.68558E+03 1.51727E+03
 -1      2106-3.05730E+03-2.19124E+03-8.87902E+03 8.83291E+02-2.94637E+03 2.65415E+03
 -1      2107-1.51659E+03-6.01425E+02-2.31426E+03 6.48856E+02-9.61885E+02 2.13950E+03
 -1      2108-6.85987E+02-1.11184E+02-1.07309E+02 2.03280E+02-1.82215E+02 1.01959E+03
 -1      2109-1.87991E+03-1.22166E+03-6.47266E+03-4.51138E+02-1.29329E+03-2.47310E+03
 -1      2110-3.90359E+03-2.59090E+03-1.22588E+04-4.55723E+02-2.40206E+03-2.15238E+03
 -1      2111-4.95009E+03-3.24217E+03-1.56252E+04-2.31500E+02-3.10857E+03-1.19899E+03
 -1      2112-5.57619E+03-3.47566E+03-1.67209E+04-6.11441E+01-3.37769E+03-4.47230E+02
 -1      2113-5.87276E+03-3.52481E+03-1.68033E+04 7.37199E+00-3.42760E+03-7.91797E+01
 -1      2114-5.97374E+03-3.52073E+03-1.66604E+04 1.97420E+01-3.41174E+03 5.08759E+01
 -1      2115-5.99402E+03-3.51239E+03-1.65573E+04 1.54515E+01-3.39268E+03 8.98447E+01
 -1      2116-5.99460E+03-3.50900E+03-1.65156E+04 1.03776E+01-3.38286E+03 1.05487E+02
 -1      2117-5.99527E+03-3.50931E+03-1.65070E+04 7.61785E+00-3.37973E+03 1.16959E+02
 -1      2118-5.99765E+03-3.51075E+03-1.65094E+04 6.52995E+00-3.37949E+03 1.27025E+02
 -1      2119-5.99933E+03-3.51193E+03-1.65137E+04 6.27195E+00-3.38001E+03 1.35995E+02
 -1      2120-5.99712E+03-3.51200E+03-1.65160E+04 6.71374E+00-3.38007E+03 1.45821E+02
 -1      2121-5.98654E+03-3.50939E+03-1.65091E+04 8.61635E+00-3.37780E+03 1.61299E+02
 -1      2122-5.96273E+03-3.50041E+03-1.64715E+04 1.33732E+01-3.36908E+03 1.89288E+02
 -1      2123-5.93058E+03-3.47976E+03-1.63619E+04 2.08816E+01-3.34761E+03 2.30092E+02
 -1      2124-5.91642E+03-3.44297E+03-1.61464E+04 2.19105E+01-3.31235E+03 2.49149E+02
 -1      2125-5.93420E+03-3.40031E+03-1.59544E+04-1.18087E+01-3.29239E+03 1.48019E+02
 -1      2126-5.89235E+03-3.42330E+03-1.63642E+04-9.29196E+01-3.37382E+03-8.95676E+01
 -1      2127-5.77964E+03-3.70862E+03-1.80747E+04-6.25617E+01-3.63072E+03 1.34368E+02
 -1      2128-5.57210E+03-3.92692E+03-1.85465E+04 3.45769E+02-3.61329E+03 1.70469E+03
 -1      2129-3.73101E+03-2.31996E+03-1.11244E+04 7.23606E+02-2.26517E+03 3.10222E+03
 -1      2130-1.78341E+03-5.77697E+02-2.78012E+03 5.33425E+02-7.21397E+02 2.43900E+03
 -1      2131-8.07786E+02-1.07207E+02-1.28568E+02 1.69240E+02-1.31540E+02 1.07284E+03
 -1      2132-2.11626E+03-1.25710E+03-7.33812E+03-2.53037E+02-6.95135E+02-2.70450E+03
 -1      2133-4.38816E+03-2.67147E+03-1.39889E+04-2.54932E+02-1.30132E+03-2.34244E+03
 -1      2134-5.57768E+03-3.33775E+03-1.78410E+04-1.29593E+02-1.68483E+03-1.27991E+03
 -1      2135-6.27409E+03-3.56672E+03-1.90735E+04-3.43934E+01-1.82961E+03-4.55632E+02
 -1      2136-6.59736E+03-3.61242E+03-1.91597E+04 4.07325E+00-1.85599E+03-6.52666E+01
 -1      2137-6.70155E+03-3.60729E+03-1.89953E+04 1.10828E+01-1.84712E+03 6.50758E+01
 -1      2138-6.71819E+03-3.59872E+03-1.88765E+04 8.72584E+00-1.83668E+03 1.00337E+02
 -1      2139-6.71552E+03-3.59528E+03-1.88274E+04 5.90696E+00-1.83129E+03 1.13427E+02
 -1      2140-6.71459E+03-3.59562E+03-1.88161E+04 4.36804E+00-1.82955E+03 1.23721E+02
 -1      2141-6.71640E+03-3.59706E+03-1.88179E+04 3.76131E+00-1.82940E+03 1.33331E+02
 -1      2142-6.71791E+03-3.59823E+03-1.88223E+04 3.61906E+00-1.82967E+03 1.42122E+02
 -1      2143-6.71548E+03-3.59831E+03-1.88248E+04 3.86942E+00-1.82971E+03 1.51957E+02
 -1      2144-6.70398E+03-3.59570E+03-1.88170E+04 4.93572E+00-1.82850E+03 1.67937E+02
 -1      2145-6.67764E+03-3.58666E+03-1.87752E+04 7.59012E+00-1.82384E+03 1.97680E+02
 -1      2146-6.64146E+03-3.56593E+03-1.86532E+04 1.17696E+01-1.81231E+03 2.42240E+02
 -1      2147-6.62624E+03-3.52844E+03-1.84115E+04 1.22994E+01-1.79328E+03 2.64350E+02
 -1      2148-6.65092E+03-3.48113E+03-1.81876E+04-6.59446E+00-1.78226E+03 1.49974E+02
 -1      2149-6.61225E+03-3.49655E+03-1.86355E+04-5.17935E+01-1.82608E+03-1.35243E+02
 -1      2150-6.50011E+03-3.80054E+03-2.06106E+04-3.48687E+01-1.96794E+03 8.06506E+01
 -1      2151-6.29456E+03-4.06848E+03-2.12508E+04 1.92860E+02-1.96547E+03 1.84329E+03
 -1      2152-4.19758E+03-2.37789E+03-1.27190E+04 4.04250E+02-1.23091E+03 3.42972E+03
 -1      2153-1.97204E+03-5.53007E+02-3.10929E+03 2.98633E+02-3.86612E+02 2.66169E+03
 -1      2154-8.97073E+02-1.04344E+02-1.41798E+02 9.52955E+01-6.88571E+01 1.11694E+03
 -1      2155-2.19913E+03-1.26671E+03-7.64466E+03 1.27136E-03-1.45044E-03-2.78852E+03
 -1      2156-4.55819E+03-2.69385E+03-1.46040E+04 3.70723E-04 1.36883E-04-2.41172E+03
 -1      2157-5.79821E+03-3.36356E+03-1.86303E+04-3.61483E-05 1.67314E-04-1.30979E+03
 -1      2158-6.51978E+03-3.59048E+03-1.99121E+04-5.04492E-05 9.48486E-05-4.59059E+02
 -1      2159-6.85282E+03-3.63489E+03-1.99998E+04-2.52921E-05 4.60959E-05-6.03810E+01
 -1      2160-6.95837E+03-3.62944E+03-1.98278E+04-1.25008E-05 1.96620E-05 7.01829E+01
 -1      2161-6.97381E+03-3.62084E+03-1.97036E+04-6.05979E-06 4.40182E-06 1.04140E+02
 -1      2162-6.97001E+03-3.61740E+03-1.96518E+04-3.13141E-06-4.61401E-06 1.16314E+02
 -1      2163-6.96851E+03-3.61775E+03-1.96396E+04-1.81318E-06-9.69685E-06 1.26184E+02
 -1      2164-6.97011E+03-3.61919E+03-1.96412E+04-1.20304E-06-1.27058E-05 1.35630E+02
 -1      2165-6.97157E+03-3.62036E+03-1.96456E+04-9.47494E-07-1.45126E-05 1.44360E+02
 -1      2166-6.96905E+03-3.62043E+03-1.96481E+04-7.06499E-07-1.58816E-05 1.54203E+02
 -1      2167-6.95722E+03-3.61783E+03-1.96401E+04-5.34656E-07-1.62932E-05 1.70375E+02
 -1      2168-6.92998E+03-3.60878E+03-1.95967E+04-5.44273E-07-1.67138E-05 2.00763E+02
 -1      2169-6.89240E+03-3.58808E+03-1.94703E+04-4.56393E-07-1.71326E-05 2.46681E+02
 -1      2170-6.87693E+03-3.55042E+03-1.92193E+04-3.10138E-07-1.71911E-05 2.69842E+02
 -1      2171-6.90415E+03-3.50154E+03-1.89840E+04-4.85944E-07-1.69598E-05 1.50576E+02
 -1      2172-6.86637E+03-3.51416E+03-1.94458E+04-1.04143E-06-1.75535E-05-1.51748E+02
 -1      2173-6.75382E+03-3.82382E+03-2.15160E+04-6.04225E-07-1.97864E-05 6.16427E+01
 -1      2174-6.54868E+03-4.10861E+03-2.22171E+04 2.87603E-06-2.08032E-05 1.89376E+03
 -1      2175-4.36270E+03-2.39252E+03-1.32907E+04 6.11732E-06-1.23167E-05 3.54855E+03
 -1      2176-2.03966E+03-5.42959E+02-3.22734E+03 4.68034E-06-2.41835E-06 2.74314E+03
 -1      2177-9.29522E+02-1.03337E+02-1.46174E+02 1.53167E-06-2.82787E-08 1.13375E+03
 -1      2178-2.11626E+03-1.25710E+03-7.33812E+03 2.53039E+02 6.95132E+02-2.70450E+03
 -1      2179-4.38816E+03-2.67147E+03-1.39889E+04 2.54933E+02 1.30132E+03-2.34244E+03
 -1      2180-5.57768E+03-3.33775E+03-1.78410E+04 1.29593E+02 1.68483E+03-1.27991E+03
 -1      2181-6.27409E+03-3.56672E+03-1.90735E+04 3.43933E+01 1.82961E+03-4.55632E+02
 -1      2182-6.59736E+03-3.61242E+03-1.91597E+04-4.07330E+00 1.85599E+03-6.52666E+01
 -1      2183-6.70155E+03-3.60729E+03-1.89953E+04-1.10828E+01 1.84712E+03 6.50758E+01
 -1      2184-6.71819E+03-3.59872E+03-1.88765E+04-8.72585E+00 1.83668E+03 1.00337E+02
 -1      2185-6.71552E+03-3.59528E+03-1.88274E+04-5.90697E+00 1.83129E+03 1.13427E+02
 -1      2186-6.71459E+03-3.59562E+03-1.88161E+04-4.36805E+00 1.82955E+03 1.23721E+02
 -1      2187-6.71640E+03-3.59706E+03-1.88179E+04-3.76131E+00 1.82940E+03 1.33331E+02
 -1      2188-6.71791E+03-3.59823E+03-1.88223E+04-3.61906E+00 1.82967E+03 1.42122E+02
 -1      2189-6.71548E+03-3.59831E+03-1.88248E+04-3.86942E+00 1.82971E+03 1.51957E+02
 -1      2190-6.70398E+03-3.59570E+03-1.88170E+04-4.93573E+00 1.82850E+03 1.67937E+02
 -1      2191-6.67764E+03-3.58666E+03-1.87752E+04-7.59013E+00 1.82384E+03 1.97680E+02
 -1      2192-6.64146E+03-3.56593E+03-1.86532E+04-1.17696E+01 1.81231E+03 2.42240E+02
 -1      2193-6.62624E+03-3.52844E+03-1.84115E+04-1.22994E+01 1.79328E+03 2.64350E+02
 -1      2194-6.65092E+03-3.48113E+03-1.81876E+04 6.59446E+00 1.78226E+03 1.49974E+02
 -1      2195-6.61225E+03-3.49655E+03-1.86355E+04 5.17935E+01 1.82608E+03-1.35243E+02
 -1      2196-6.50011E+03-3.80054E+03-2.06106E+04 3.48687E+01 1.96794E+03 8.06506E+01
 -1      2197-6.29456E+03-4.06848E+03-2.12508E+04-1.92860E+02 1.96547E+03 1.84329E+03
 -1      2198-4.19758E+03-2.37789E+03-1.27190E+04-4.04250E+02 1.23091E+03 3.42972E+03
 -1      2199-1.97204E+03-5.53007E+02-3.10929E+03-2.98633E+02 3.86612E+02 2.66169E+03
 -1      2200-8.97073E+02-1.04344E+02-1.41798E+02-9.52955E+01 6.88571E+01 1.11694E+03
 -1      2201-1.87991E+03-1.22166E+03-6.47267E+03 4.51139E+02 1.29329E+03-2.47310E+03
 -1      2202-3.90359E+03-2.59090E+03-1.22588E+04 4.55723E+02 2.40206E+03-2.15238E+03
 -1      2203-4.95009E+03-3.24217E+03-1.56252E+04 2.31500E+02 3.10857E+03-1.19899E+03
 -1      2204-5.57619E+03-3.47566E+03-1.67209E+04 6.11440E+01 3.37769E+03-4.47230E+02
 -1      2205-5.87276E+03-3.52481E+03-1.68033E+04-7.37203E+00 3.42760E+03-7.91798E+01
 -1      2206-5.97374E+03-3.52073E+03-1.66604E+04-1.97421E+01 3.41174E+03 5.08758E+01
 -1      2207-5.99402E+03-3.51239E+03-1.65573E+04-1.54515E+01 3.39268E+03 8.98447E+01
 -1      2208-5.99460E+03-3.50900E+03-1.65156E+04-1.03776E+01 3.38286E+03 1.05487E+02
 -1      2209-5.99527E+03-3.50931E+03-1.65070E+04-7.61785E+00 3.37973E+03 1.16959E+02
 -1      2210-5.99765E+03-3.51075E+03-1.65094E+04-6.52995E+00 3.37949E+03 1.27025E+02
 -1      2211-5.99933E+03-3.51193E+03-1.65137E+04-6.27195E+00 3.38001E+03 1.35995E+02
 -1      2212-5.99712E+03-3.51200E+03-1.65160E+04-6.71374E+00 3.38007E+03 1.45821E+02
 -1      2213-5.98654E+03-3.50939E+03-1.65091E+04-8.61635E+00 3.37780E+03 1.61299E+02
 -1      2214-5.96273E+03-3.50041E+03-1.64715E+04-1.33732E+01 3.36908E+03 1.89288E+02
 -1      2215-5.93058E+03-3.47976E+03-1.63619E+04-2.08816E+01 3.34761E+03 2.30092E+02
 -1      2216-5.91642E+03-3.44297E+03-1.61464E+04-2.19105E+01 3.31235E+03 2.49149E+02
 -1      2217-5.93420E+03-3.40031E+03-1.59544E+04 1.18087E+01 3.29239E+03 1.48019E+02
 -1      2218-5.89235E+03-3.42330E+03-1.63642E+04 9.29196E+01 3.37382E+03-8.95676E+01
 -1      2219-5.77964E+03-3.70862E+03-1.80747E+04 6.25617E+01 3.63072E+03 1.34368E+02
 -1      2220-5.57210E+03-3.92692E+03-1.85465E+04-3.45769E+02 3.61329E+03 1.70469E+03
 -1      2221-3.73101E+03-2.31996E+03-1.11244E+04-7.23606E+02 2.26517E+03 3.10222E+03
 -1      2222-1.78341E+03-5.77697E+02-2.78012E+03-5.33425E+02 7.21397E+02 2.43900E+03
 -1      2223-8.07786E+02-1.07207E+02-1.28568E+02-1.69240E+02 1.31540E+02 1.07284E+03
 -1      2224-1.53527E+03-1.14882E+03-5.22965E+03 5.45650E+02 1.70962E+03-2.15644E+03
 -1      2225-3.19549E+03-2.42754E+03-9.79160E+03 5.55331E+02 3.13282E+03-1.89481E+03
 -1      2226-4.03419E+03-3.04317E+03-1.24738E+04 2.81341E+02 4.05396E+03-1.09282E+03
 -1      2227-4.56031E+03-3.27930E+03-1.33777E+04 7.37456E+01 4.41025E+03-4.39306E+02
 -1      2228-4.82092E+03-3.33243E+03-1.34558E+04-9.08191E+00 4.47869E+03-9.98868E+01
 -1      2229-4.91920E+03-3.33013E+03-1.33446E+04-2.38973E+01 4.45947E+03 3.08302E+01
 -1      2230-4.94553E+03-3.32250E+03-1.32642E+04-1.85211E+01 4.43518E+03 7.52671E+01
 -1      2231-4.95098E+03-3.31930E+03-1.32334E+04-1.22844E+01 4.42268E+03 9.45116E+01
 -1      2232-4.95399E+03-3.31961E+03-1.32288E+04-8.90436E+00 4.41880E+03 1.07624E+02
 -1      2233-4.95718E+03-3.32100E+03-1.32322E+04-7.57098E+00 4.41862E+03 1.18341E+02
 -1      2234-4.95906E+03-3.32215E+03-1.32365E+04-7.24793E+00 4.41936E+03 1.27592E+02
 -1      2235-4.95713E+03-3.32221E+03-1.32388E+04-7.77449E+00 4.41942E+03 1.37458E+02
 -1      2236-4.94780E+03-3.31962E+03-1.32331E+04-1.00826E+01 4.41634E+03 1.52332E+02
 -1      2237-4.92763E+03-3.31090E+03-1.32015E+04-1.58921E+01 4.40467E+03 1.78007E+02
 -1      2238-4.90160E+03-3.29087E+03-1.31095E+04-2.50871E+01 4.37620E+03 2.13626E+02
 -1      2239-4.88990E+03-3.25571E+03-1.29313E+04-2.64250E+01 4.33003E+03 2.28056E+02
 -1      2240-4.89809E+03-3.21995E+03-1.27845E+04 1.44306E+01 4.30509E+03 1.44422E+02
 -1      2241-4.84914E+03-3.25287E+03-1.31407E+04 1.13640E+02 4.41291E+03-2.63220E+01
 -1      2242-4.73040E+03-3.50484E+03-1.44801E+04 7.71099E+01 4.73775E+03 2.12413E+02
 -1      2243-4.51971E+03-3.64810E+03-1.47217E+04-4.22458E+02 4.68558E+03 1.51727E+03
 -1      2244-3.05730E+03-2.19124E+03-8.87902E+03-8.83291E+02 2.94637E+03 2.65415E+03
 -1      2245-1.51659E+03-6.01425E+02-2.31426E+03-6.48856E+02 9.61885E+02 2.13950E+03
 -1      2246-6.85987E+02-1.11184E+02-1.07309E+02-2.03280E+02 1.82215E+02 1.01959E+03
 -1      2247-1.14550E+03-9.86657E+02-3.89644E+03 4.98529E+02 1.89899E+03-1.85567E+03
 -1      2248-2.38514E+03-2.08147E+03-7.16923E+03 5.18010E+02 3.41449E+03-1.65734E+03
 -1      2249-2.98611E+03-2.61376E+03-9.13447E+03 2.59704E+02 4.42175E+03-1.00429E+03
 -1      2250-3.40214E+03-2.83262E+03-9.83692E+03 6.82113E+01 4.81969E+03-4.40984E+02
 -1      2251-3.62859E+03-2.88334E+03-9.91194E+03-8.46346E+00 4.90079E+03-1.24042E+02
 -1      2252-3.72851E+03-2.88339E+03-9.83618E+03-2.19941E+01 4.88286E+03 9.85227E+00
 -1      2253-3.76321E+03-2.87740E+03-9.78117E+03-1.69012E+01 4.85757E+03 6.04562E+01
 -1      2254-3.77442E+03-2.87482E+03-9.76276E+03-1.10405E+01 4.84456E+03 8.33698E+01
 -1      2255-3.77995E+03-2.87510E+03-9.76278E+03-7.86579E+00 4.84076E+03 9.81148E+01
 -1      2256-3.78394E+03-2.87631E+03-9.76757E+03-6.60445E+00 4.84083E+03 1.09518E+02
 -1      2257-3.78597E+03-2.87729E+03-9.77195E+03-6.28832E+00 4.84176E+03 1.19126E+02
 -1      2258-3.78423E+03-2.87729E+03-9.77416E+03-6.76522E+00 4.84183E+03 1.29166E+02
 -1      2259-3.77611E+03-2.87495E+03-9.76978E+03-8.90287E+00 4.83827E+03 1.43687E+02
 -1      2260-3.75994E+03-2.86731E+03-9.74462E+03-1.43093E+01 4.82501E+03 1.67417E+02
 -1      2261-3.74150E+03-2.84984E+03-9.67135E+03-2.28565E+01 4.79317E+03 1.98048E+02
 -1      2262-3.73505E+03-2.81902E+03-9.53286E+03-2.40214E+01 4.74277E+03 2.07165E+02
 -1      2263-3.73372E+03-2.79016E+03-9.43183E+03 1.37217E+01 4.71768E+03 1.38805E+02
 -1      2264-3.66862E+03-2.82790E+03-9.72936E+03 1.05365E+02 4.83786E+03 3.50794E+01
 -1      2265-3.52754E+03-3.03128E+03-1.06837E+04 7.26043E+01 5.17640E+03 2.97786E+02
 -1      2266-3.31545E+03-3.09938E+03-1.07018E+04-3.93666E+02 5.07408E+03 1.34807E+03
 -1      2267-2.29524E+03-1.89353E+03-6.52474E+03-8.23279E+02 3.21018E+03 2.23218E+03
 -1      2268-1.22781E+03-5.67984E+02-1.81509E+03-6.02354E+02 1.08614E+03 1.86862E+03
 -1      2269-5.69957E+02-1.07208E+02-8.04305E+01-1.84392E+02 2.16748E+02 9.86203E+02
 -1      2270-7.10126E+02-3.83402E+02-2.82541E+03 2.85629E+02 1.53695E+03-1.70224E+03
 -1      2271-1.45397E+03-9.22722E+02-5.05878E+03 2.95602E+02 2.71956E+03-1.56032E+03
 -1      2272-1.78486E+03-1.16656E+03-6.46780E+03 1.53224E+02 3.52729E+03-9.92923E+02
 -1      2273-2.08151E+03-1.24584E+03-7.01033E+03 4.18773E+01 3.85024E+03-4.64955E+02
 -1      2274-2.28919E+03-1.26365E+03-7.08938E+03-3.93181E+00 3.91975E+03-1.48061E+02
 -1      2275-2.39968E+03-1.26442E+03-7.04631E+03-1.27559E+01 3.90776E+03-6.20992E+00
 -1      2276-2.44620E+03-1.26415E+03-7.01441E+03-1.01132E+01 3.88861E+03 4.98037E+01
 -1      2277-2.46349E+03-1.26424E+03-7.00741E+03-6.68371E+00 3.87886E+03 7.51241E+01
 -1      2278-2.47111E+03-1.26470E+03-7.01201E+03-4.72825E+00 3.87624E+03 9.08668E+01
 -1      2279-2.47549E+03-1.26520E+03-7.01835E+03-3.90807E+00 3.87656E+03 1.02786E+02
 -1      2280-2.47737E+03-1.26551E+03-7.02306E+03-3.68330E+00 3.87744E+03 1.12798E+02
 -1      2281-2.47552E+03-1.26540E+03-7.02530E+03-3.96461E+00 3.87751E+03 1.23263E+02
 -1      2282-2.46824E+03-1.26447E+03-7.02188E+03-5.23975E+00 3.87454E+03 1.38162E+02
 -1      2283-2.45614E+03-1.26196E+03-7.00172E+03-8.35914E+00 3.86358E+03 1.61609E+02
 -1      2284-2.44751E+03-1.25590E+03-6.94346E+03-1.30340E+01 3.83751E+03 1.89709E+02
 -1      2285-2.45338E+03-1.24128E+03-6.83662E+03-1.29373E+01 3.79722E+03 1.94050E+02
 -1      2286-2.44912E+03-1.21801E+03-6.76919E+03 9.63900E+00 3.77868E+03 1.30692E+02
 -1      2287-2.34499E+03-1.22334E+03-7.01209E+03 5.90046E+01 3.87598E+03 6.76225E+01
 -1      2288-2.13111E+03-1.33952E+03-7.66560E+03 3.08678E+01 4.13731E+03 3.66480E+02
 -1      2289-1.92041E+03-1.40909E+03-7.52253E+03-2.31634E+02 4.02460E+03 1.29034E+03
 -1      2290-1.43076E+03-8.40842E+02-4.66722E+03-4.68122E+02 2.56146E+03 2.03805E+03
 -1      2291-9.38974E+02-2.09400E+02-1.41357E+03-3.49035E+02 8.91373E+02 1.76953E+03
 -1      2292-5.03471E+02-3.34837E+01-6.05714E+01-1.11441E+02 1.84130E+02 1.01068E+03
 -1      2293-5.29190E+02-2.72442E+02-2.70842E+03-5.44989E+02-1.12691E+03-1.26658E+03
 -1      2294-9.06231E+02-6.96353E+02-4.45505E+03-5.45884E+02-2.09668E+03-1.14513E+03
 -1      2295-1.18627E+03-8.92228E+02-5.75204E+03-2.83950E+02-2.70258E+03-7.11875E+02
 -1      2296-1.48162E+03-9.24912E+02-6.16006E+03-7.85380E+01-2.90961E+03-3.22504E+02
 -1      2297-1.76562E+03-9.27965E+02-6.17191E+03 5.77481E+00-2.93973E+03-9.89133E+01
 -1      2298-1.94316E+03-9.31189E+02-6.10809E+03 2.31031E+01-2.92319E+03 1.73512E+00
 -1      2299-2.02802E+03-9.35178E+02-6.07356E+03 1.91158E+01-2.90774E+03 4.63033E+01
 -1      2300-2.06319E+03-9.37699E+02-6.06743E+03 1.32810E+01-2.90060E+03 7.04017E+01
 -1      2301-2.07860E+03-9.38942E+02-6.07224E+03 9.94971E+00-2.89873E+03 8.64651E+01
 -1      2302-2.08643E+03-9.39528E+02-6.07812E+03 8.61847E+00-2.89891E+03 9.81261E+01
 -1      2303-2.08944E+03-9.39715E+02-6.08241E+03 8.34290E+00-2.89949E+03 1.07145E+02
 -1      2304-2.08683E+03-9.39524E+02-6.08497E+03 8.98693E+00-2.89964E+03 1.15593E+02
 -1      2305-2.07740E+03-9.39008E+02-6.08372E+03 1.14590E+01-2.89794E+03 1.26668E+02
 -1      2306-2.06430E+03-9.38323E+02-6.06878E+03 1.72583E+01-2.89104E+03 1.44488E+02
 -1      2307-2.06182E+03-9.36307E+02-6.01777E+03 2.57156E+01-2.87310E+03 1.69637E+02
 -1      2308-2.08344E+03-9.24620E+02-5.91102E+03 2.60454E+01-2.83992E+03 1.85279E+02
 -1      2309-2.07214E+03-8.90527E+02-5.81927E+03-1.22919E+01-2.81041E+03 1.48772E+02
 -1      2310-1.85810E+03-8.65014E+02-6.04306E+03-1.03907E+02-2.86324E+03 7.43679E+01
 -1      2311-1.45639E+03-9.90942E+02-6.79118E+03-6.34768E+01-3.12584E+03 2.37603E+02
 -1      2312-1.25487E+03-1.18486E+03-6.83822E+03 4.29079E+02-3.21340E+03 9.38587E+02
 -1      2313-1.08266E+03-6.37534E+02-4.10083E+03 8.78959E+02-1.93556E+03 1.53115E+03
 -1      2314-9.49742E+02-4.03199E+01-9.71721E+02 6.46653E+02-5.17912E+02 1.28553E+03
 -1      2315-7.01380E+02-2.26111E+01 2.33505E+01 2.06734E+02-8.00557E+01 7.05885E+02
 -1      2316-8.51104E+02-3.85649E+02-4.03592E+03-8.63071E+02-1.61840E+03-1.48466E+03
 -1      2317-1.66136E+03-9.66039E+02-7.01538E+03-8.50669E+02-3.07370E+03-1.30619E+03
 -1      2318-2.19787E+03-1.20912E+03-8.97764E+03-4.22121E+02-3.95332E+03-7.51905E+02
 -1      2319-2.59385E+03-1.25189E+03-9.55147E+03-1.04429E+02-4.24521E+03-3.01941E+02
 -1      2320-2.89399E+03-1.26058E+03-9.55526E+03 1.82703E+01-4.28237E+03-7.22550E+01
 -1      2321-3.05770E+03-1.26450E+03-9.45379E+03 3.96458E+01-4.25532E+03 2.16719E+01
 -1      2322-3.12907E+03-1.26859E+03-9.39346E+03 3.12349E+01-4.23198E+03 6.05200E+01
 -1      2323-3.15720E+03-1.27109E+03-9.37453E+03 2.17941E+01-4.22130E+03 8.17323E+01
 -1      2324-3.17006E+03-1.27255E+03-9.37420E+03 1.67581E+01-4.21845E+03 9.64829E+01
 -1      2325-3.17724E+03-1.27338E+03-9.37833E+03 1.48211E+01-4.21863E+03 1.07482E+02
 -1      2326-3.18027E+03-1.27375E+03-9.38223E+03 1.43859E+01-4.21946E+03 1.16066E+02
 -1      2327-3.17784E+03-1.27358E+03-9.38473E+03 1.52097E+01-4.21974E+03 1.24165E+02
 -1      2328-3.16784E+03-1.27277E+03-9.38233E+03 1.87245E+01-4.21746E+03 1.35090E+02
 -1      2329-3.15116E+03-1.27113E+03-9.36171E+03 2.75615E+01-4.20779E+03 1.53673E+02
 -1      2330-3.13969E+03-1.26750E+03-9.29396E+03 4.15797E+01-4.18216E+03 1.82107E+02
 -1      2331-3.15186E+03-1.25410E+03-9.15090E+03 4.49163E+01-4.13319E+03 2.03885E+02
 -1      2332-3.15043E+03-1.21700E+03-9.01115E+03-1.25849E+01-4.08691E+03 1.63186E+02
 -1      2333-2.96750E+03-1.17388E+03-9.26583E+03-1.69491E+02-4.16254E+03 3.24415E+01
 -1      2334-2.61276E+03-1.31542E+03-1.03956E+04-1.41014E+02-4.56180E+03 1.39099E+02
 -1      2335-2.47126E+03-1.65354E+03-1.07902E+04 6.47917E+02-4.74294E+03 1.05099E+03
 -1      2336-1.80367E+03-8.56251E+02-6.32301E+03 1.38912E+03-2.83400E+03 1.87155E+03
 -1      2337-1.16333E+03-2.84236E+01-1.34399E+03 9.93494E+02-7.14124E+02 1.46729E+03
 -1      2338-7.72100E+02-3.95902E+01 1.58326E+01 2.85310E+02-9.35389E+01 6.93575E+02
 -1      2339-1.32662E+03-5.73422E+02-5.74583E+03-9.26676E+02-1.62028E+03-1.84583E+03
 -1      2340-2.63400E+03-1.32233E+03-1.03904E+04-8.98830E+02-3.14552E+03-1.60541E+03
 -1      2341-3.47751E+03-1.65046E+03-1.32451E+04-4.45383E+02-4.04216E+03-8.57879E+02
 -1      2342-4.01566E+03-1.70213E+03-1.40332E+04-1.07738E+02-4.32943E+03-2.97110E+02
 -1      2343-4.36780E+03-1.71628E+03-1.40303E+04 2.16819E+01-4.36050E+03-4.27864E+01
 -1      2344-4.53221E+03-1.72156E+03-1.38846E+04 4.36151E+01-4.33025E+03 4.73657E+01
 -1      2345-4.59317E+03-1.72599E+03-1.37944E+04 3.44553E+01-4.30572E+03 7.94404E+01
 -1      2346-4.61386E+03-1.72888E+03-1.37614E+04 2.44106E+01-4.29460E+03 9.66258E+01
 -1      2347-4.62348E+03-1.73085E+03-1.37559E+04 1.90984E+01-4.29157E+03 1.09598E+02
 -1      2348-4.62967E+03-1.73211E+03-1.37587E+04 1.70681E+01-4.29169E+03 1.19864E+02
 -1      2349-4.63258E+03-1.73273E+03-1.37626E+04 1.66099E+01-4.29253E+03 1.28096E+02
 -1      2350-4.62989E+03-1.73259E+03-1.37653E+04 1.74602E+01-4.29289E+03 1.36068E+02
 -1      2351-4.61821E+03-1.73143E+03-1.37614E+04 2.11382E+01-4.29078E+03 1.47465E+02
 -1      2352-4.59613E+03-1.72857E+03-1.37333E+04 3.04537E+01-4.28135E+03 1.68337E+02
 -1      2353-4.57466E+03-1.72254E+03-1.36432E+04 4.53603E+01-4.25581E+03 2.02562E+02
 -1      2354-4.58248E+03-1.70641E+03-1.34515E+04 4.93119E+01-4.20560E+03 2.32111E+02
 -1      2355-4.60139E+03-1.66115E+03-1.32419E+04-1.19257E+01-4.15546E+03 1.80297E+02
 -1      2356-4.42810E+03-1.59316E+03-1.35214E+04-1.81090E+02-4.23019E+03-3.71397E+01
 -1      2357-4.06496E+03-1.77921E+03-1.51744E+04-1.53387E+02-4.65634E+03 3.03608E+00
 -1      2358-3.97645E+03-2.26754E+03-1.61159E+04 6.81412E+02-4.90078E+03 1.26505E+03
 -1      2359-2.73551E+03-1.15631E+03-9.30266E+03 1.47012E+03-2.90979E+03 2.45473E+03
 -1      2360-1.51614E+03-2.08751E+01-1.78804E+03 1.05270E+03-6.84806E+02 1.81479E+03
 -1      2361-9.50112E+02-5.39325E+01 1.66825E+01 3.00910E+02-7.33478E+01 7.19756E+02
 -1      2362-1.72495E+03-5.88058E+02-7.31659E+03-7.62202E+02-1.26937E+03-2.21060E+03
 -1      2363-3.44594E+03-1.34864E+03-1.35627E+04-7.33460E+02-2.50541E+03-1.91458E+03
 -1      2364-4.54591E+03-1.66786E+03-1.72698E+04-3.63407E+02-3.22319E+03-9.73325E+02
 -1      2365-5.20837E+03-1.69209E+03-1.82553E+04-8.77365E+01-3.44715E+03-2.98148E+02
 -1      2366-5.61396E+03-1.70009E+03-1.82434E+04 1.83311E+01-3.46864E+03-1.59219E+01
 -1      2367-5.78509E+03-1.70709E+03-1.80568E+04 3.63157E+01-3.44331E+03 7.20290E+01
 -1      2368-5.83908E+03-1.71356E+03-1.79395E+04 2.89065E+01-3.42343E+03 9.78725E+01
 -1      2369-5.85366E+03-1.71776E+03-1.78940E+04 2.07369E+01-3.41444E+03 1.11192E+02
 -1      2370-5.86030E+03-1.72041E+03-1.78843E+04 1.64061E+01-3.41196E+03 1.22469E+02
 -1      2371-5.86549E+03-1.72196E+03-1.78861E+04 1.47505E+01-3.41202E+03 1.32087E+02
 -1      2372-5.86818E+03-1.72268E+03-1.78902E+04 1.43782E+01-3.41268E+03 1.40051E+02
 -1      2373-5.86511E+03-1.72255E+03-1.78931E+04 1.50745E+01-3.41301E+03 1.47997E+02
 -1      2374-5.85174E+03-1.72145E+03-1.78880E+04 1.80734E+01-3.41146E+03 1.60028E+02
 -1      2375-5.82490E+03-1.71880E+03-1.78531E+04 2.56437E+01-3.40420E+03 1.83420E+02
 -1      2376-5.79576E+03-1.71355E+03-1.77425E+04 3.77418E+01-3.38421E+03 2.23513E+02
 -1      2377-5.80364E+03-1.69897E+03-1.75051E+04 4.08892E+01-3.34431E+03 2.60368E+02
 -1      2378-5.84279E+03-1.64584E+03-1.72256E+04-9.43634E+00-3.30310E+03 1.96138E+02
 -1      2379-5.66582E+03-1.54656E+03-1.75249E+04-1.47475E+02-3.36196E+03-1.07467E+02
 -1      2380-5.27081E+03-1.74983E+03-1.96911E+04-1.25699E+02-3.71375E+03-1.29934E+02
 -1      2381-5.24129E+03-2.37978E+03-2.12105E+04 5.53013E+02-3.94092E+03 1.48362E+03
 -1      2382-3.52773E+03-1.14475E+03-1.21579E+04 1.19860E+03-2.33741E+03 3.04779E+03
 -1      2383-1.82855E+03 8.85045E+01-2.17090E+03 8.60771E+02-5.24516E+02 2.17771E+03
 -1      2384-1.13208E+03-4.42699E+01 3.43439E+01 2.47299E+02-4.66376E+01 7.55923E+02
 -1      2385-1.97459E+03-5.41553E+02-8.36631E+03-4.25982E+02-6.88550E+02-2.46977E+03
 -1      2386-3.95480E+03-1.25330E+03-1.57079E+04-4.08921E+02-1.37169E+03-2.13721E+03
 -1      2387-5.22087E+03-1.53347E+03-2.00083E+04-2.02710E+02-1.76799E+03-1.05884E+03
 -1      2388-5.96774E+03-1.52844E+03-2.11317E+04-4.90568E+01-1.89022E+03-3.00818E+02
 -1      2389-6.41268E+03-1.52968E+03-2.11147E+04 1.02966E+01-1.90143E+03 2.50157E+00
 -1      2390-6.59091E+03-1.53837E+03-2.09010E+04 2.04463E+01-1.88731E+03 8.94385E+01
 -1      2391-6.64120E+03-1.54702E+03-2.07657E+04 1.63704E+01-1.87634E+03 1.11043E+02
 -1      2392-6.65185E+03-1.55245E+03-2.07120E+04 1.18372E+01-1.87137E+03 1.21665E+02
 -1      2393-6.65647E+03-1.55566E+03-2.06995E+04 9.42456E+00-1.86999E+03 1.31756E+02
 -1      2394-6.66095E+03-1.55738E+03-2.07007E+04 8.50093E+00-1.87002E+03 1.40932E+02
 -1      2395-6.66344E+03-1.55811E+03-2.07050E+04 8.29405E+00-1.87039E+03 1.48728E+02
 -1      2396-6.66007E+03-1.55797E+03-2.07081E+04 8.68534E+00-1.87058E+03 1.56686E+02
 -1      2397-6.64547E+03-1.55701E+03-2.07023E+04 1.03590E+01-1.86976E+03 1.69221E+02
 -1      2398-6.61543E+03-1.55489E+03-2.06628E+04 1.45657E+01-1.86584E+03 1.94460E+02
 -1      2399-6.58165E+03-1.55118E+03-2.05382E+04 2.12699E+01-1.85497E+03 2.38722E+02
 -1      2400-6.59127E+03-1.53912E+03-2.02699E+04 2.29211E+01-1.83320E+03 2.80537E+02
 -1      2401-6.64552E+03-1.48139E+03-1.99427E+04-5.27226E+00-1.81045E+03 2.06630E+02
 -1      2402-6.46331E+03-1.35899E+03-2.02587E+04-8.19575E+01-1.84310E+03-1.58068E+02
 -1      2403-6.03676E+03-1.56111E+03-2.27845E+04-6.99007E+01-2.04015E+03-2.22236E+02
 -1      2404-6.04106E+03-2.27794E+03-2.47027E+04 3.06889E+02-2.17248E+03 1.63898E+03
 -1      2405-4.04192E+03-1.03016E+03-1.41414E+04 6.67128E+02-1.29161E+03 3.46960E+03
 -1      2406-2.04364E+03 1.91725E+02-2.43753E+03 4.80531E+02-2.84295E+02 2.44156E+03
 -1      2407-1.26399E+03-3.30987E+01 5.13650E+01 1.38789E+02-2.24324E+01 7.86020E+02
 -1      2408-2.05640E+03-5.15401E+02-8.72493E+03 2.20889E-03-1.18997E-03-2.56174E+03
 -1      2409-4.12153E+03-1.19979E+03-1.64447E+04 4.30591E-04 4.32133E-04-2.21685E+03
 -1      2410-5.44388E+03-1.46040E+03-2.09535E+04-1.25637E-04 1.81306E-04-1.08993E+03
 -1      2411-6.22040E+03-1.44342E+03-2.21261E+04-8.24404E-05 7.70049E-05-3.02100E+02
 -1      2412-6.67977E+03-1.44199E+03-2.21076E+04-4.39541E-05 3.77173E-05 8.98398E+00
 -1      2413-6.86099E+03-1.45139E+03-2.18848E+04-2.31541E-05 1.69692E-05 9.56521E+01
 -1      2414-6.91018E+03-1.46094E+03-2.17434E+04-1.11179E-05 2.84769E-06 1.15780E+02
 -1      2415-6.91950E+03-1.46688E+03-2.16869E+04-5.75714E-06-5.63097E-06 1.25447E+02
 -1      2416-6.92341E+03-1.47029E+03-2.16734E+04-3.17366E-06-1.06102E-05 1.35117E+02
 -1      2417-6.92763E+03-1.47207E+03-2.16745E+04-1.93733E-06-1.37477E-05 1.44138E+02
 -1      2418-6.93005E+03-1.47279E+03-2.16788E+04-1.44468E-06-1.56153E-05 1.51876E+02
 -1      2419-6.92656E+03-1.47265E+03-2.16820E+04-9.83151E-07-1.73451E-05 1.59842E+02
 -1      2420-6.91152E+03-1.47175E+03-2.16759E+04-6.63492E-07-1.75233E-05 1.72565E+02
 -1      2421-6.88036E+03-1.46988E+03-2.16348E+04-7.16713E-07-1.79560E-05 1.98470E+02
 -1      2422-6.84507E+03-1.46687E+03-2.15054E+04-5.83558E-07-1.85859E-05 2.44208E+02
 -1      2423-6.85565E+03-1.45594E+03-2.12265E+04-2.91604E-07-1.87173E-05 2.87754E+02
 -1      2424-6.91555E+03-1.39678E+03-2.08830E+04-5.00544E-07-1.82776E-05 2.10148E+02
 -1      2425-6.73131E+03-1.26613E+03-2.12060E+04-1.45090E-06-1.90591E-05-1.76264E+02
 -1      2426-6.29150E+03-1.46512E+03-2.38582E+04-1.10888E-06-2.24944E-05-2.54437E+02
 -1      2427-6.30502E+03-2.20999E+03-2.59128E+04 4.32984E-06-2.56056E-05 1.69409E+03
 -1      2428-4.21545E+03-9.70927E+02-1.48364E+04 9.63060E-06-1.43599E-05 3.61920E+03
 -1      2429-2.12001E+03 2.32238E+02-2.53352E+03 7.08676E-06-9.85819E-07 2.53654E+03
 -1      2430-1.31178E+03-2.86854E+01 5.79354E+01 2.12413E-06 8.09709E-07 7.97691E+02
 -1      2431-1.97459E+03-5.41551E+02-8.36632E+03 4.25985E+02 6.88548E+02-2.46977E+03
 -1      2432-3.95480E+03-1.25330E+03-1.57079E+04 4.08922E+02 1.37170E+03-2.13721E+03
 -1      2433-5.22087E+03-1.53347E+03-2.00083E+04 2.02710E+02 1.76799E+03-1.05885E+03
 -1      2434-5.96774E+03-1.52844E+03-2.11317E+04 4.90566E+01 1.89022E+03-3.00818E+02
 -1      2435-6.41268E+03-1.52968E+03-2.11147E+04-1.02967E+01 1.90143E+03 2.50155E+00
 -1      2436-6.59091E+03-1.53837E+03-2.09010E+04-2.04463E+01 1.88731E+03 8.94385E+01
 -1      2437-6.64120E+03-1.54702E+03-2.07657E+04-1.63705E+01 1.87634E+03 1.11043E+02
 -1      2438-6.65185E+03-1.55245E+03-2.07120E+04-1.18372E+01 1.87137E+03 1.21665E+02
 -1      2439-6.65647E+03-1.55566E+03-2.06995E+04-9.42456E+00 1.86999E+03 1.31756E+02
 -1      2440-6.66095E+03-1.55738E+03-2.07007E+04-8.50094E+00 1.87002E+03 1.40932E+02
 -1      2441-6.66344E+03-1.55811E+03-2.07050E+04-8.29405E+00 1.87039E+03 1.48728E+02
 -1      2442-6.66007E+03-1.55797E+03-2.07081E+04-8.68534E+00 1.87058E+03 1.56686E+02
 -1      2443-6.64547E+03-1.55701E+03-2.07023E+04-1.03590E+01 1.86976E+03 1.69221E+02
 -1      2444-6.61543E+03-1.55489E+03-2.06628E+04-1.45657E+01 1.86584E+03 1.94460E+02
 -1      2445-6.58165E+03-1.55118E+03-2.05382E+04-2.12699E+01 1.85497E+03 2.38722E+02
 -1      2446-6.59127E+03-1.53912E+03-2.02699E+04-2.29211E+01 1.83320E+03 2.80537E+02
 -1      2447-6.64552E+03-1.48139E+03-1.99427E+04 5.27226E+00 1.81045E+03 2.06630E+02
 -1      2448-6.46331E+03-1.35899E+03-2.02587E+04 8.19575E+01 1.84310E+03-1.58068E+02
 -1      2449-6.03676E+03-1.56111E+03-2.27845E+04 6.99007E+01 2.04015E+03-2.22236E+02
 -1      2450-6.04106E+03-2.27794E+03-2.47027E+04-3.06889E+02 2.17248E+03 1.63898E+03
 -1      2451-4.04192E+03-1.03016E+03-1.41414E+04-6.67128E+02 1.29161E+03 3.46960E+03
 -1      2452-2.04364E+03 1.91725E+02-2.43753E+03-4.80531E+02 2.84295E+02 2.44156E+03
 -1      2453-1.26399E+03-3.30987E+01 5.13650E+01-1.38789E+02 2.24324E+01 7.86020E+02
 -1      2454-1.72495E+03-5.88055E+02-7.31660E+03 7.62203E+02 1.26937E+03-2.21060E+03
 -1      2455-3.44594E+03-1.34864E+03-1.35627E+04 7.33460E+02 2.50541E+03-1.91458E+03
 -1      2456-4.54591E+03-1.66786E+03-1.72698E+04 3.63407E+02 3.22319E+03-9.73325E+02
 -1      2457-5.20837E+03-1.69209E+03-1.82553E+04 8.77364E+01 3.44715E+03-2.98149E+02
 -1      2458-5.61396E+03-1.70009E+03-1.82434E+04-1.83312E+01 3.46864E+03-1.59220E+01
 -1      2459-5.78509E+03-1.70709E+03-1.80568E+04-3.63158E+01 3.44331E+03 7.20289E+01
 -1      2460-5.83908E+03-1.71356E+03-1.79395E+04-2.89065E+01 3.42343E+03 9.78725E+01
 -1      2461-5.85366E+03-1.71776E+03-1.78940E+04-2.07370E+01 3.41444E+03 1.11192E+02
 -1      2462-5.86030E+03-1.72041E+03-1.78843E+04-1.64061E+01 3.41196E+03 1.22469E+02
 -1      2463-5.86549E+03-1.72196E+03-1.78861E+04-1.47505E+01 3.41202E+03 1.32087E+02
 -1      2464-5.86818E+03-1.72268E+03-1.78902E+04-1.43782E+01 3.41268E+03 1.40051E+02
 -1      2465-5.86511E+03-1.72255E+03-1.78931E+04-1.50745E+01 3.41301E+03 1.47997E+02
 -1      2466-5.85174E+03-1.72145E+03-1.78880E+04-1.80734E+01 3.41146E+03 1.60028E+02
 -1      2467-5.82490E+03-1.71880E+03-1.78531E+04-2.56437E+01 3.40420E+03 1.83420E+02
 -1      2468-5.79576E+03-1.71355E+03-1.77425E+04-3.77418E+01 3.38421E+03 2.23513E+02
 -1      2469-5.80364E+03-1.69897E+03-1.75051E+04-4.08892E+01 3.34431E+03 2.60368E+02
 -1      2470-5.84279E+03-1.64584E+03-1.72256E+04 9.43634E+00 3.30310E+03 1.96138E+02
 -1      2471-5.66582E+03-1.54656E+03-1.75249E+04 1.47475E+02 3.36196E+03-1.07468E+02
 -1      2472-5.27081E+03-1.74983E+03-1.96911E+04 1.25699E+02 3.71375E+03-1.29934E+02
 -1      2473-5.24129E+03-2.37978E+03-2.12105E+04-5.53013E+02 3.94092E+03 1.48362E+03
 -1      2474-3.52773E+03-1.14475E+03-1.21579E+04-1.19860E+03 2.33741E+03 3.04779E+03
 -1      2475-1.82855E+03 8.85045E+01-2.17090E+03-8.60771E+02 5.24516E+02 2.17771E+03
 -1      2476-1.13208E+03-4.42699E+01 3.43439E+01-2.47299E+02 4.66376E+01 7.55923E+02
 -1      2477-1.32662E+03-5.73420E+02-5.74584E+03 9.26675E+02 1.62028E+03-1.84582E+03
 -1      2478-2.63400E+03-1.32233E+03-1.03904E+04 8.98830E+02 3.14552E+03-1.60541E+03
 -1      2479-3.47751E+03-1.65046E+03-1.32451E+04 4.45383E+02 4.04216E+03-8.57880E+02
 -1      2480-4.01566E+03-1.70213E+03-1.40332E+04 1.07737E+02 4.32943E+03-2.97110E+02
 -1      2481-4.36780E+03-1.71628E+03-1.40303E+04-2.16820E+01 4.36050E+03-4.27864E+01
 -1      2482-4.53221E+03-1.72156E+03-1.38846E+04-4.36151E+01 4.33026E+03 4.73657E+01
 -1      2483-4.59317E+03-1.72599E+03-1.37944E+04-3.44553E+01 4.30572E+03 7.94404E+01
 -1      2484-4.61386E+03-1.72888E+03-1.37614E+04-2.44106E+01 4.29460E+03 9.66258E+01
 -1      2485-4.62348E+03-1.73085E+03-1.37559E+04-1.90984E+01 4.29157E+03 1.09598E+02
 -1      2486-4.62967E+03-1.73211E+03-1.37587E+04-1.70681E+01 4.29169E+03 1.19864E+02
 -1      2487-4.63258E+03-1.73273E+03-1.37626E+04-1.66099E+01 4.29253E+03 1.28096E+02
 -1      2488-4.62989E+03-1.73259E+03-1.37653E+04-1.74602E+01 4.29289E+03 1.36068E+02
 -1      2489-4.61821E+03-1.73143E+03-1.37614E+04-2.11382E+01 4.29078E+03 1.47465E+02
 -1      2490-4.59613E+03-1.72857E+03-1.37333E+04-3.04537E+01 4.28135E+03 1.68337E+02
 -1      2491-4.57466E+03-1.72254E+03-1.36432E+04-4.53603E+01 4.25581E+03 2.02562E+02
 -1      2492-4.58248E+03-1.70641E+03-1.34515E+04-4.93119E+01 4.20560E+03 2.32111E+02
 -1      2493-4.60139E+03-1.66115E+03-1.32419E+04 1.19257E+01 4.15546E+03 1.80297E+02
 -1      2494-4.42810E+03-1.59316E+03-1.35214E+04 1.81090E+02 4.23019E+03-3.71397E+01
 -1      2495-4.06496E+03-1.77921E+03-1.51744E+04 1.53387E+02 4.65634E+03 3.03608E+00
 -1      2496-3.97645E+03-2.26754E+03-1.61159E+04-6.81412E+02 4.90078E+03 1.26505E+03
 -1      2497-2.73551E+03-1.15631E+03-9.30266E+03-1.47012E+03 2.90979E+03 2.45473E+03
 -1      2498-1.51614E+03-2.08751E+01-1.78804E+03-1.05270E+03 6.84806E+02 1.81479E+03
 -1      2499-9.50112E+02-5.39325E+01 1.66825E+01-3.00910E+02 7.33478E+01 7.19756E+02
 -1      2500-8.51104E+02-3.85648E+02-4.03593E+03 8.63070E+02 1.61840E+03-1.48466E+03
 -1      2501-1.66137E+03-9.66039E+02-7.01538E+03 8.50669E+02 3.07370E+03-1.30619E+03
 -1      2502-2.19787E+03-1.20912E+03-8.97764E+03 4.22121E+02 3.95332E+03-7.51905E+02
 -1      2503-2.59385E+03-1.25189E+03-9.55147E+03 1.04429E+02 4.24521E+03-3.01942E+02
 -1      2504-2.89399E+03-1.26058E+03-9.55526E+03-1.82704E+01 4.28237E+03-7.22551E+01
 -1      2505-3.05770E+03-1.26450E+03-9.45379E+03-3.96459E+01 4.25532E+03 2.16719E+01
 -1      2506-3.12907E+03-1.26859E+03-9.39346E+03-3.12349E+01 4.23198E+03 6.05200E+01
 -1      2507-3.15720E+03-1.27109E+03-9.37453E+03-2.17941E+01 4.22130E+03 8.17323E+01
 -1      2508-3.17006E+03-1.27255E+03-9.37420E+03-1.67581E+01 4.21845E+03 9.64829E+01
 -1      2509-3.17724E+03-1.27338E+03-9.37833E+03-1.48211E+01 4.21863E+03 1.07482E+02
 -1      2510-3.18027E+03-1.27375E+03-9.38223E+03-1.43859E+01 4.21946E+03 1.16066E+02
 -1      2511-3.17784E+03-1.27358E+03-9.38473E+03-1.52097E+01 4.21974E+03 1.24165E+02
 -1      2512-3.16784E+03-1.27277E+03-9.38233E+03-1.87245E+01 4.21746E+03 1.35090E+02
 -1      2513-3.15116E+03-1.27113E+03-9.36171E+03-2.75615E+01 4.20779E+03 1.53673E+02
 -1      2514-3.13969E+03-1.26750E+03-9.29396E+03-4.15797E+01 4.18216E+03 1.82107E+02
 -1      2515-3.15186E+03-1.25410E+03-9.15090E+03-4.49163E+01 4.13319E+03 2.03885E+02
 -1      2516-3.15043E+03-1.21700E+03-9.01115E+03 1.25850E+01 4.08691E+03 1.63186E+02
 -1      2517-2.96750E+03-1.17388E+03-9.26583E+03 1.69491E+02 4.16254E+03 3.24415E+01
 -1      2518-2.61276E+03-1.31542E+03-1.03956E+04 1.41014E+02 4.56180E+03 1.39099E+02
 -1      2519-2.47126E+03-1.65354E+03-1.07902E+04-6.47917E+02 4.74294E+03 1.05099E+03
 -1      2520-1.80367E+03-8.56251E+02-6.32301E+03-1.38912E+03 2.83400E+03 1.87155E+03
 -1      2521-1.16333E+03-2.84236E+01-1.34399E+03-9.93494E+02 7.14124E+02 1.46729E+03
 -1      2522-7.72100E+02-3.95902E+01 1.58326E+01-2.85310E+02 9.35389E+01 6.93575E+02
 -1      2523-5.29190E+02-2.72442E+02-2.70843E+03 5.44988E+02 1.12691E+03-1.26658E+03
 -1      2524-9.06231E+02-6.96353E+02-4.45505E+03 5.45884E+02 2.09668E+03-1.14513E+03
 -1      2525-1.18627E+03-8.92228E+02-5.75204E+03 2.83950E+02 2.70258E+03-7.11876E+02
 -1      2526-1.48162E+03-9.24912E+02-6.16006E+03 7.85379E+01 2.90961E+03-3.22504E+02
 -1      2527-1.76562E+03-9.27965E+02-6.17191E+03-5.77483E+00 2.93973E+03-9.89134E+01
 -1      2528-1.94316E+03-9.31189E+02-6.10809E+03-2.31031E+01 2.92319E+03 1.73510E+00
 -1      2529-2.02802E+03-9.35178E+02-6.07356E+03-1.91158E+01 2.90774E+03 4.63033E+01
 -1      2530-2.06319E+03-9.37699E+02-6.06743E+03-1.32810E+01 2.90060E+03 7.04017E+01
 -1      2531-2.07860E+03-9.38942E+02-6.07224E+03-9.94971E+00 2.89873E+03 8.64651E+01
 -1      2532-2.08643E+03-9.39528E+02-6.07812E+03-8.61847E+00 2.89891E+03 9.81261E+01
 -1      2533-2.08944E+03-9.39715E+02-6.08241E+03-8.34290E+00 2.89949E+03 1.07145E+02
 -1      2534-2.08683E+03-9.39524E+02-6.08497E+03-8.98693E+00 2.89964E+03 1.15593E+02
 -1      2535-2.07740E+03-9.39008E+02-6.08372E+03-1.14590E+01 2.89794E+03 1.26668E+02
 -1      2536-2.06430E+03-9.38323E+02-6.06878E+03-1.72583E+01 2.89104E+03 1.44488E+02
 -1      2537-2.06182E+03-9.36307E+02-6.01777E+03-2.57156E+01 2.87310E+03 1.69637E+02
 -1      2538-2.08344E+03-9.24620E+02-5.91102E+03-2.60454E+01 2.83992E+03 1.85279E+02
 -1      2539-2.07214E+03-8.90527E+02-5.81927E+03 1.22919E+01 2.81041E+03 1.48772E+02
 -1      2540-1.85810E+03-8.65014E+02-6.04306E+03 1.03907E+02 2.86324E+03 7.43679E+01
 -1      2541-1.45639E+03-9.90942E+02-6.79118E+03 6.34768E+01 3.12584E+03 2.37603E+02
 -1      2542-1.25487E+03-1.18486E+03-6.83822E+03-4.29079E+02 3.21340E+03 9.38587E+02
 -1      2543-1.08266E+03-6.37534E+02-4.10083E+03-8.78959E+02 1.93556E+03 1.53115E+03
 -1      2544-9.49742E+02-4.03199E+01-9.71721E+02-6.46653E+02 5.17912E+02 1.28553E+03
 -1      2545-7.01380E+02-2.26111E+01 2.33505E+01-2.06734E+02 8.00557E+01 7.05885E+02
 -1      2546-2.22872E+02-1.95562E+02-1.89922E+03-6.86434E+02-7.69973E+02-7.16692E+02
 -1      2547-3.04585E+02-6.27969E+02-3.02069E+03-6.55225E+02-1.58104E+03-7.02270E+02
 -1      2548-4.67082E+02-7.71267E+02-3.86786E+03-3.19372E+02-2.00220E+03-4.04987E+02
 -1      2549-7.24716E+02-7.70430E+02-4.09274E+03-7.60675E+01-2.10026E+03-1.65719E+02
 -1      2550-1.00608E+03-7.55382E+02-4.04877E+03 1.66415E+01-2.09078E+03-4.31123E+01
 -1      2551-1.20142E+03-7.54102E+02-3.98468E+03 3.35314E+01-2.06839E+03 1.13064E+01
 -1      2552-1.30487E+03-7.57841E+02-3.95630E+03 2.77297E+01-2.05595E+03 4.12766E+01
 -1      2553-1.35396E+03-7.60777E+02-3.95264E+03 2.07939E+01-2.05131E+03 6.22568E+01
 -1      2554-1.37770E+03-7.62292E+02-3.95694E+03 1.70581E+01-2.05032E+03 7.75039E+01
 -1      2555-1.38980E+03-7.62933E+02-3.96143E+03 1.56450E+01-2.05049E+03 8.81840E+01
 -1      2556-1.39473E+03-7.63128E+02-3.96459E+03 1.53827E+01-2.05088E+03 9.56932E+01
 -1      2557-1.39298E+03-7.63080E+02-3.96691E+03 1.61008E+01-2.05116E+03 1.01682E+02
 -1      2558-1.38439E+03-7.63065E+02-3.96757E+03 1.88706E+01-2.05071E+03 1.08474E+02
 -1      2559-1.37238E+03-7.63408E+02-3.95964E+03 2.55922E+01-2.04745E+03 1.20154E+02
 -1      2560-1.36913E+03-7.62986E+02-3.92499E+03 3.60175E+01-2.03654E+03 1.41637E+02
 -1      2561-1.38553E+03-7.52189E+02-3.84361E+03 3.91176E+01-2.00871E+03 1.67396E+02
 -1      2562-1.36552E+03-7.13986E+02-3.75528E+03 4.63559E-01-1.96645E+03 1.56963E+02
 -1      2563-1.12960E+03-6.68335E+02-3.90910E+03-1.20746E+02-1.97508E+03 6.94491E+01
 -1      2564-6.90778E+02-8.06546E+02-4.56311E+03-1.23039E+02-2.25005E+03 8.73602E+01
 -1      2565-5.62986E+02-1.16739E+03-4.74065E+03 5.05632E+02-2.56997E+03 5.58989E+02
 -1      2566-6.14255E+02-5.34966E+02-2.71754E+03 1.10732E+03-1.39052E+03 9.93619E+02
 -1      2567-7.35563E+02 1.16313E+02-4.23642E+02 7.67251E+02-1.50135E+02 7.70165E+02
 -1      2568-6.56402E+02 2.45509E+00 1.22393E+02 2.09700E+02 2.69128E+01 3.51706E+02
 -1      2569-6.53751E+02-2.46549E+02-3.70016E+03-1.08824E+03-1.38730E+03-1.02985E+03
 -1      2570-1.27623E+03-8.24807E+02-6.49712E+03-1.02815E+03-2.89176E+03-9.78777E+02
 -1      2571-1.76139E+03-9.82023E+02-8.21693E+03-4.74515E+02-3.65563E+03-4.91497E+02
 -1      2572-2.15344E+03-9.68711E+02-8.66825E+03-9.65843E+01-3.83350E+03-1.53621E+02
 -1      2573-2.45914E+03-9.53596E+02-8.62914E+03 3.78988E+01-3.81799E+03-1.22927E+01
 -1      2574-2.63726E+03-9.52609E+02-8.52395E+03 5.77901E+01-3.77776E+03 3.81576E+01
 -1      2575-2.72414E+03-9.57243E+02-8.46565E+03 4.61380E+01-3.75497E+03 6.19357E+01
 -1      2576-2.76490E+03-9.60818E+02-8.44758E+03 3.48517E+01-3.74625E+03 7.92001E+01
 -1      2577-2.78580E+03-9.62783E+02-8.44662E+03 2.91714E+01-3.74435E+03 9.26250E+01
 -1      2578-2.79730E+03-9.63700E+02-8.44977E+03 2.71137E+01-3.74466E+03 1.02440E+02
 -1      2579-2.80237E+03-9.64041E+02-8.45290E+03 2.66945E+01-3.74543E+03 1.09502E+02
 -1      2580-2.80088E+03-9.64036E+02-8.45518E+03 2.76131E+01-3.74598E+03 1.15306E+02
 -1      2581-2.79155E+03-9.63951E+02-8.45386E+03 3.15621E+01-3.74516E+03 1.22418E+02
 -1      2582-2.77497E+03-9.64045E+02-8.43739E+03 4.18584E+01-3.73908E+03 1.35828E+02
 -1      2583-2.75960E+03-9.63078E+02-8.37886E+03 5.90568E+01-3.71924E+03 1.62165E+02
 -1      2584-2.76135E+03-9.51560E+02-8.24952E+03 6.68925E+01-3.66968E+03 1.95179E+02
 -1      2585-2.75704E+03-9.10792E+02-8.10137E+03 1.03451E+01-3.59547E+03 1.80297E+02
 -1      2586-2.56318E+03-8.31771E+02-8.26126E+03-1.94365E+02-3.61422E+03 1.57683E+01
 -1      2587-2.16171E+03-9.73749E+02-9.39426E+03-2.49558E+02-4.09940E+03-5.79781E+01
 -1      2588-2.15004E+03-1.59458E+03-1.01794E+04 7.66261E+02-4.71106E+03 7.64825E+02
 -1      2589-1.53444E+03-6.68992E+02-5.69631E+03 1.77245E+03-2.55500E+03 1.57979E+03
 -1      2590-1.00640E+03 2.23765E+02-8.74276E+02 1.18612E+03-2.71576E+02 1.08918E+03
 -1      2591-7.61564E+02-6.13925E+00 8.10267E+01 2.75956E+02 4.54030E+01 3.58428E+02
 -1      2592-1.21170E+03-3.45880E+02-5.81710E+03-1.17324E+03-1.59632E+03-1.48479E+03
 -1      2593-2.47315E+03-1.06389E+03-1.09182E+04-1.09218E+03-3.39289E+03-1.37843E+03
 -1      2594-3.31589E+03-1.25004E+03-1.37014E+04-4.98019E+02-4.29208E+03-6.15514E+02
 -1      2595-3.86802E+03-1.20829E+03-1.43561E+04-9.58939E+01-4.49817E+03-1.39819E+02
 -1      2596-4.22844E+03-1.18904E+03-1.42915E+04 4.47766E+01-4.47959E+03 2.79374E+01
 -1      2597-4.40131E+03-1.18825E+03-1.41275E+04 6.44778E+01-4.43250E+03 7.35242E+01
 -1      2598-4.47400E+03-1.19418E+03-1.40330E+04 5.16210E+01-4.40567E+03 8.90676E+01
 -1      2599-4.50573E+03-1.19891E+03-1.39989E+04 3.95341E+01-4.39527E+03 1.01689E+02
 -1      2600-4.52284E+03-1.20155E+03-1.39925E+04 3.35180E+01-4.39296E+03 1.13086E+02
 -1      2601-4.53327E+03-1.20280E+03-1.39944E+04 3.13523E+01-4.39333E+03 1.22102E+02
 -1      2602-4.53826E+03-1.20327E+03-1.39977E+04 3.08989E+01-4.39428E+03 1.28810E+02
 -1      2603-4.53662E+03-1.20328E+03-1.40003E+04 3.18294E+01-4.39501E+03 1.34533E+02
 -1      2604-4.52556E+03-1.20317E+03-1.39975E+04 3.59330E+01-4.39413E+03 1.42283E+02
 -1      2605-4.50311E+03-1.20326E+03-1.39727E+04 4.67792E+01-4.38709E+03 1.58435E+02
 -1      2606-4.47535E+03-1.20169E+03-1.38873E+04 6.50278E+01-4.36413E+03 1.92277E+02
 -1      2607-4.46723E+03-1.18937E+03-1.36965E+04 7.39416E+01-4.30723E+03 2.35655E+02
 -1      2608-4.49044E+03-1.14148E+03-1.34533E+04 1.47358E+01-4.22166E+03 2.16975E+02
 -1      2609-4.30639E+03-1.00953E+03-1.35586E+04-2.06976E+02-4.24533E+03-5.66390E+01
 -1      2610-3.87353E+03-1.17921E+03-1.53538E+04-2.79833E+02-4.81197E+03-2.88727E+02
 -1      2611-4.09583E+03-2.12125E+03-1.74167E+04 8.03679E+02-5.57273E+03 1.04405E+03
 -1      2612-2.64115E+03-8.20170E+02-9.43935E+03 1.89464E+03-3.03817E+03 2.43877E+03
 -1      2613-1.33619E+03 3.83044E+02-1.06683E+03 1.26266E+03-3.04422E+02 1.54543E+03
 -1      2614-9.73152E+02-7.68684E+00 1.03214E+02 2.81923E+02 5.69916E+01 3.60061E+02
 -1      2615-1.72218E+03-3.68268E+02-7.78516E+03-9.61591E+02-1.30682E+03-1.94044E+03
 -1      2616-3.56937E+03-1.12010E+03-1.51859E+04-8.91619E+02-2.82239E+03-1.78608E+03
 -1      2617-4.73582E+03-1.28188E+03-1.90190E+04-4.05561E+02-3.58709E+03-7.44563E+02
 -1      2618-5.43939E+03-1.20115E+03-1.98650E+04-7.71394E+01-3.76192E+03-1.29081E+02
 -1      2619-5.85971E+03-1.17461E+03-1.97735E+04 3.78673E+01-3.74705E+03 6.62569E+01
 -1      2620-6.03462E+03-1.17553E+03-1.95540E+04 5.40016E+01-3.70809E+03 1.07830E+02
 -1      2621-6.09676E+03-1.18393E+03-1.94259E+04 4.36041E+01-3.68571E+03 1.15556E+02
 -1      2622-6.12074E+03-1.19040E+03-1.93773E+04 3.37751E+01-3.67696E+03 1.23747E+02
 -1      2623-6.13436E+03-1.19389E+03-1.93663E+04 2.88630E+01-3.67501E+03 1.33269E+02
 -1      2624-6.14376E+03-1.19547E+03-1.93675E+04 2.70916E+01-3.67534E+03 1.41605E+02
 -1      2625-6.14864E+03-1.19603E+03-1.93713E+04 2.67190E+01-3.67619E+03 1.48052E+02
 -1      2626-6.14674E+03-1.19605E+03-1.93745E+04 2.74762E+01-3.67687E+03 1.53769E+02
 -1      2627-6.13384E+03-1.19605E+03-1.93705E+04 3.08193E+01-3.67618E+03 1.62261E+02
 -1      2628-6.10591E+03-1.19667E+03-1.93382E+04 3.96066E+01-3.67036E+03 1.81301E+02
 -1      2629-6.06764E+03-1.19579E+03-1.92273E+04 5.43121E+01-3.65128E+03 2.22648E+02
 -1      2630-6.05407E+03-1.18501E+03-1.89783E+04 6.13917E+01-3.60460E+03 2.76144E+02
 -1      2631-6.10480E+03-1.13126E+03-1.86400E+04 1.25948E+01-3.53400E+03 2.52937E+02
 -1      2632-5.92033E+03-9.50170E+02-1.86908E+04-1.68180E+02-3.55838E+03-1.29527E+02
 -1      2633-5.43291E+03-1.12058E+03-2.11428E+04-2.30101E+02-4.04015E+03-5.24036E+02
 -1      2634-5.89052E+03-2.32723E+03-2.45530E+04 6.48008E+02-4.68570E+03 1.31522E+03
 -1      2635-3.68243E+03-8.00046E+02-1.31777E+04 1.54457E+03-2.59003E+03 3.30609E+03
 -1      2636-1.65123E+03 5.63392E+02-1.19764E+03 1.03439E+03-2.59624E+02 2.01487E+03
 -1      2637-1.19735E+03-4.58018E+00 1.43626E+02 2.30048E+02 5.30544E+01 3.63651E+02
 -1      2638-1.98874E+03-2.97661E+02-8.92976E+03-5.31517E+02-6.94374E+02-2.24344E+03
 -1      2639-4.14542E+03-9.71957E+02-1.77258E+04-4.93546E+02-1.51495E+03-2.06545E+03
 -1      2640-5.50296E+03-1.06924E+03-2.22357E+04-2.25286E+02-1.93883E+03-8.36854E+02
 -1      2641-6.30688E+03-9.50377E+02-2.32098E+04-4.30495E+01-2.03675E+03-1.23386E+02
 -1      2642-6.77301E+03-9.17453E+02-2.31059E+04 2.11601E+01-2.02960E+03 9.20755E+01
 -1      2643-6.95400E+03-9.21127E+02-2.28548E+04 3.03507E+01-2.00884E+03 1.31317E+02
 -1      2644-7.01105E+03-9.32491E+02-2.27069E+04 2.47028E+01-1.99678E+03 1.33940E+02
 -1      2645-7.03038E+03-9.40705E+02-2.26496E+04 1.92864E+01-1.99202E+03 1.39165E+02
 -1      2646-7.04171E+03-9.44933E+02-2.26358E+04 1.65595E+01-1.99096E+03 1.47434E+02
 -1      2647-7.05037E+03-9.46715E+02-2.26365E+04 1.55724E+01-1.99115E+03 1.55328E+02
 -1      2648-7.05512E+03-9.47259E+02-2.26407E+04 1.53651E+01-1.99164E+03 1.61615E+02
 -1      2649-7.05296E+03-9.47241E+02-2.26443E+04 1.57884E+01-1.99203E+03 1.67351E+02
 -1      2650-7.03874E+03-9.47412E+02-2.26397E+04 1.76502E+01-1.99166E+03 1.76382E+02
 -1      2651-7.00729E+03-9.48818E+02-2.26026E+04 2.24954E+01-1.98850E+03 1.97456E+02
 -1      2652-6.96313E+03-9.49693E+02-2.24764E+04 3.05359E+01-1.97814E+03 2.43724E+02
 -1      2653-6.94981E+03-9.42376E+02-2.21937E+04 3.42448E+01-1.95324E+03 3.04172E+02
 -1      2654-7.02309E+03-8.86728E+02-2.17979E+04 6.58914E+00-1.91547E+03 2.75908E+02
 -1      2655-6.83915E+03-6.73930E+02-2.18275E+04-9.29906E+01-1.93235E+03-1.82560E+02
 -1      2656-6.29553E+03-8.23784E+02-2.47090E+04-1.25333E+02-2.20080E+03-6.78150E+02
 -1      2657-6.85326E+03-2.15571E+03-2.89020E+04 3.55549E+02-2.54077E+03 1.49470E+03
 -1      2658-4.28702E+03-6.21996E+02-1.55613E+04 8.50631E+02-1.43020E+03 3.88608E+03
 -1      2659-1.87522E+03 7.05524E+02-1.31383E+03 5.74688E+02-1.51541E+02 2.34382E+03
 -1      2660-1.35750E+03 2.38888E+00 1.80922E+02 1.29560E+02 3.20547E+01 3.72292E+02
 -1      2661-2.05633E+03-2.53993E+02-9.26185E+03 3.64403E-03 1.95935E-04-2.34369E+03
 -1      2662-4.29150E+03-8.77744E+02-1.84735E+04 3.37942E-05 6.75228E-04-2.16050E+03
 -1      2663-5.70674E+03-9.42580E+02-2.32016E+04-2.61411E-04 1.79392E-04-8.69469E+02
 -1      2664-6.54500E+03-8.08462E+02-2.42198E+04-9.00062E-05 5.22923E-05-1.21774E+02
 -1      2665-7.02830E+03-7.73131E+02-2.41137E+04-5.98825E-05 2.94006E-05 1.00964E+02
 -1      2666-7.21261E+03-7.78180E+02-2.38538E+04-3.13674E-05 1.24282E-05 1.39495E+02
 -1      2667-7.26840E+03-7.90854E+02-2.37001E+04-1.49254E-05-2.12740E-07 1.40427E+02
 -1      2668-7.28626E+03-7.99791E+02-2.36401E+04-8.11001E-06-7.31494E-06 1.44647E+02
 -1      2669-7.29682E+03-8.04305E+02-2.36254E+04-4.04129E-06-1.22996E-05 1.52489E+02
 -1      2670-7.30522E+03-8.06150E+02-2.36260E+04-2.30040E-06-1.55330E-05 1.60233E+02
 -1      2671-7.30990E+03-8.06673E+02-2.36303E+04-1.58160E-06-1.74884E-05 1.66467E+02
 -1      2672-7.30763E+03-8.06629E+02-2.36339E+04-8.90551E-07-1.99588E-05 1.72212E+02
 -1      2673-7.29294E+03-8.06872E+02-2.36291E+04-3.76558E-07-1.96367E-05 1.81434E+02
 -1      2674-7.26032E+03-8.08632E+02-2.35906E+04-5.81938E-07-2.00493E-05 2.03213E+02
 -1      2675-7.21441E+03-8.10356E+02-2.34595E+04-4.59607E-07-2.11307E-05 2.51105E+02
 -1      2676-7.20237E+03-8.04857E+02-2.31674E+04 2.90024E-08-2.15547E-05 3.13933E+02
 -1      2677-7.28441E+03-7.48789E+02-2.27540E+04-9.41439E-08-2.08726E-05 2.83396E+02
 -1      2678-7.10187E+03-5.26090E+02-2.27829E+04-1.37138E-06-2.22139E-05-2.01951E+02
 -1      2679-6.53419E+03-6.64958E+02-2.58053E+04-1.85109E-06-2.70593E-05-7.27965E+02
 -1      2680-7.10308E+03-2.02204E+03-3.02097E+04 4.56039E-06-3.29247E-05 1.55500E+03
 -1      2681-4.46254E+03-5.23431E+02-1.63152E+04 1.15335E-05-1.81935E-05 4.07869E+03
 -1      2682-1.95794E+03 7.55809E+02-1.36922E+03 7.79087E-06 3.35865E-07 2.45801E+03
 -1      2683-1.41416E+03 6.17466E+00 1.96308E+02 1.65529E-06 1.63809E-06 3.77473E+02
 -1      2684-1.98874E+03-2.97657E+02-8.92975E+03 5.31522E+02 6.94374E+02-2.24343E+03
 -1      2685-4.14542E+03-9.71957E+02-1.77258E+04 4.93546E+02 1.51495E+03-2.06546E+03
 -1      2686-5.50296E+03-1.06924E+03-2.22357E+04 2.25286E+02 1.93883E+03-8.36854E+02
 -1      2687-6.30688E+03-9.50377E+02-2.32098E+04 4.30494E+01 2.03675E+03-1.23386E+02
 -1      2688-6.77301E+03-9.17453E+02-2.31059E+04-2.11602E+01 2.02960E+03 9.20754E+01
 -1      2689-6.95400E+03-9.21127E+02-2.28548E+04-3.03508E+01 2.00884E+03 1.31317E+02
 -1      2690-7.01105E+03-9.32491E+02-2.27069E+04-2.47028E+01 1.99678E+03 1.33940E+02
 -1      2691-7.03038E+03-9.40705E+02-2.26496E+04-1.92864E+01 1.99202E+03 1.39165E+02
 -1      2692-7.04171E+03-9.44933E+02-2.26358E+04-1.65595E+01 1.99096E+03 1.47434E+02
 -1      2693-7.05037E+03-9.46715E+02-2.26365E+04-1.55724E+01 1.99115E+03 1.55328E+02
 -1      2694-7.05512E+03-9.47259E+02-2.26407E+04-1.53651E+01 1.99164E+03 1.61615E+02
 -1      2695-7.05296E+03-9.47241E+02-2.26443E+04-1.57884E+01 1.99203E+03 1.67351E+02
 -1      2696-7.03874E+03-9.47412E+02-2.26397E+04-1.76502E+01 1.99166E+03 1.76382E+02
 -1      2697-7.00729E+03-9.48818E+02-2.26026E+04-2.24954E+01 1.98850E+03 1.97456E+02
 -1      2698-6.96313E+03-9.49693E+02-2.24764E+04-3.05359E+01 1.97814E+03 2.43724E+02
 -1      2699-6.94981E+03-9.42376E+02-2.21937E+04-3.42448E+01 1.95324E+03 3.04172E+02
 -1      2700-7.02309E+03-8.86728E+02-2.17979E+04-6.58914E+00 1.91547E+03 2.75908E+02
 -1      2701-6.83915E+03-6.73930E+02-2.18275E+04 9.29906E+01 1.93235E+03-1.82560E+02
 -1      2702-6.29553E+03-8.23784E+02-2.47090E+04 1.25333E+02 2.20080E+03-6.78150E+02
 -1      2703-6.85326E+03-2.15571E+03-2.89020E+04-3.55549E+02 2.54077E+03 1.49470E+03
 -1      2704-4.28702E+03-6.21996E+02-1.55613E+04-8.50631E+02 1.43020E+03 3.88608E+03
 -1      2705-1.87522E+03 7.05524E+02-1.31383E+03-5.74688E+02 1.51541E+02 2.34382E+03
 -1      2706-1.35750E+03 2.38888E+00 1.80922E+02-1.29560E+02-3.20547E+01 3.72292E+02
 -1      2707-1.72217E+03-3.68264E+02-7.78516E+03 9.61591E+02 1.30682E+03-1.94043E+03
 -1      2708-3.56937E+03-1.12010E+03-1.51859E+04 8.91619E+02 2.82239E+03-1.78608E+03
 -1      2709-4.73582E+03-1.28188E+03-1.90190E+04 4.05560E+02 3.58709E+03-7.44564E+02
 -1      2710-5.43939E+03-1.20115E+03-1.98650E+04 7.71392E+01 3.76192E+03-1.29081E+02
 -1      2711-5.85971E+03-1.17461E+03-1.97735E+04-3.78674E+01 3.74705E+03 6.62568E+01
 -1      2712-6.03462E+03-1.17553E+03-1.95540E+04-5.40017E+01 3.70809E+03 1.07830E+02
 -1      2713-6.09676E+03-1.18393E+03-1.94259E+04-4.36041E+01 3.68571E+03 1.15556E+02
 -1      2714-6.12074E+03-1.19040E+03-1.93773E+04-3.37751E+01 3.67696E+03 1.23747E+02
 -1      2715-6.13436E+03-1.19389E+03-1.93663E+04-2.88630E+01 3.67501E+03 1.33269E+02
 -1      2716-6.14376E+03-1.19547E+03-1.93675E+04-2.70916E+01 3.67534E+03 1.41605E+02
 -1      2717-6.14864E+03-1.19603E+03-1.93713E+04-2.67190E+01 3.67619E+03 1.48052E+02
 -1      2718-6.14674E+03-1.19605E+03-1.93745E+04-2.74762E+01 3.67687E+03 1.53769E+02
 -1      2719-6.13384E+03-1.19605E+03-1.93705E+04-3.08193E+01 3.67618E+03 1.62261E+02
 -1      2720-6.10591E+03-1.19667E+03-1.93382E+04-3.96066E+01 3.67035E+03 1.81301E+02
 -1      2721-6.06764E+03-1.19579E+03-1.92273E+04-5.43121E+01 3.65127E+03 2.22648E+02
 -1      2722-6.05407E+03-1.18501E+03-1.89783E+04-6.13917E+01 3.60460E+03 2.76144E+02
 -1      2723-6.10480E+03-1.13126E+03-1.86400E+04-1.25948E+01 3.53400E+03 2.52937E+02
 -1      2724-5.92033E+03-9.50170E+02-1.86908E+04 1.68180E+02 3.55838E+03-1.29527E+02
 -1      2725-5.43291E+03-1.12058E+03-2.11428E+04 2.30101E+02 4.04015E+03-5.24036E+02
 -1      2726-5.89052E+03-2.32723E+03-2.45530E+04-6.48008E+02 4.68570E+03 1.31522E+03
 -1      2727-3.68243E+03-8.00046E+02-1.31777E+04-1.54457E+03 2.59003E+03 3.30609E+03
 -1      2728-1.65123E+03 5.63392E+02-1.19764E+03-1.03439E+03 2.59624E+02 2.01487E+03
 -1      2729-1.19735E+03-4.58018E+00 1.43626E+02-2.30048E+02-5.30544E+01 3.63651E+02
 -1      2730-1.21170E+03-3.45877E+02-5.81710E+03 1.17324E+03 1.59631E+03-1.48479E+03
 -1      2731-2.47315E+03-1.06389E+03-1.09181E+04 1.09218E+03 3.39289E+03-1.37843E+03
 -1      2732-3.31589E+03-1.25004E+03-1.37014E+04 4.98018E+02 4.29208E+03-6.15515E+02
 -1      2733-3.86802E+03-1.20829E+03-1.43561E+04 9.58937E+01 4.49818E+03-1.39820E+02
 -1      2734-4.22844E+03-1.18904E+03-1.42915E+04-4.47766E+01 4.47959E+03 2.79374E+01
 -1      2735-4.40131E+03-1.18825E+03-1.41275E+04-6.44778E+01 4.43250E+03 7.35242E+01
 -1      2736-4.47400E+03-1.19418E+03-1.40330E+04-5.16210E+01 4.40567E+03 8.90676E+01
 -1      2737-4.50573E+03-1.19891E+03-1.39989E+04-3.95341E+01 4.39527E+03 1.01689E+02
 -1      2738-4.52284E+03-1.20155E+03-1.39925E+04-3.35180E+01 4.39296E+03 1.13086E+02
 -1      2739-4.53327E+03-1.20280E+03-1.39944E+04-3.13523E+01 4.39333E+03 1.22102E+02
 -1      2740-4.53826E+03-1.20327E+03-1.39977E+04-3.08989E+01 4.39428E+03 1.28810E+02
 -1      2741-4.53662E+03-1.20328E+03-1.40003E+04-3.18294E+01 4.39501E+03 1.34533E+02
 -1      2742-4.52556E+03-1.20317E+03-1.39975E+04-3.59330E+01 4.39413E+03 1.42283E+02
 -1      2743-4.50311E+03-1.20326E+03-1.39727E+04-4.67792E+01 4.38709E+03 1.58435E+02
 -1      2744-4.47535E+03-1.20169E+03-1.38873E+04-6.50278E+01 4.36413E+03 1.92277E+02
 -1      2745-4.46723E+03-1.18937E+03-1.36965E+04-7.39416E+01 4.30723E+03 2.35655E+02
 -1      2746-4.49044E+03-1.14148E+03-1.34533E+04-1.47358E+01 4.22166E+03 2.16975E+02
 -1      2747-4.30639E+03-1.00953E+03-1.35586E+04 2.06976E+02 4.24533E+03-5.66390E+01
 -1      2748-3.87353E+03-1.17921E+03-1.53538E+04 2.79833E+02 4.81197E+03-2.88727E+02
 -1      2749-4.09583E+03-2.12125E+03-1.74167E+04-8.03679E+02 5.57273E+03 1.04405E+03
 -1      2750-2.64115E+03-8.20170E+02-9.43935E+03-1.89464E+03 3.03817E+03 2.43877E+03
 -1      2751-1.33619E+03 3.83044E+02-1.06683E+03-1.26266E+03 3.04422E+02 1.54543E+03
 -1      2752-9.73152E+02-7.68684E+00 1.03214E+02-2.81923E+02-5.69916E+01 3.60061E+02
 -1      2753-6.53751E+02-2.46547E+02-3.70017E+03 1.08824E+03 1.38730E+03-1.02985E+03
 -1      2754-1.27623E+03-8.24807E+02-6.49712E+03 1.02815E+03 2.89176E+03-9.78777E+02
 -1      2755-1.76139E+03-9.82024E+02-8.21693E+03 4.74515E+02 3.65563E+03-4.91498E+02
 -1      2756-2.15344E+03-9.68711E+02-8.66825E+03 9.65841E+01 3.83350E+03-1.53621E+02
 -1      2757-2.45914E+03-9.53596E+02-8.62914E+03-3.78988E+01 3.81799E+03-1.22927E+01
 -1      2758-2.63726E+03-9.52609E+02-8.52395E+03-5.77902E+01 3.77776E+03 3.81576E+01
 -1      2759-2.72414E+03-9.57243E+02-8.46565E+03-4.61380E+01 3.75497E+03 6.19357E+01
 -1      2760-2.76490E+03-9.60818E+02-8.44758E+03-3.48518E+01 3.74625E+03 7.92001E+01
 -1      2761-2.78580E+03-9.62783E+02-8.44662E+03-2.91714E+01 3.74435E+03 9.26250E+01
 -1      2762-2.79730E+03-9.63700E+02-8.44977E+03-2.71137E+01 3.74466E+03 1.02440E+02
 -1      2763-2.80237E+03-9.64041E+02-8.45290E+03-2.66945E+01 3.74543E+03 1.09502E+02
 -1      2764-2.80088E+03-9.64036E+02-8.45518E+03-2.76131E+01 3.74598E+03 1.15306E+02
 -1      2765-2.79155E+03-9.63951E+02-8.45386E+03-3.15621E+01 3.74516E+03 1.22418E+02
 -1      2766-2.77497E+03-9.64045E+02-8.43739E+03-4.18584E+01 3.73908E+03 1.35828E+02
 -1      2767-2.75960E+03-9.63078E+02-8.37886E+03-5.90568E+01 3.71924E+03 1.62165E+02
 -1      2768-2.76135E+03-9.51560E+02-8.24952E+03-6.68925E+01 3.66968E+03 1.95179E+02
 -1      2769-2.75704E+03-9.10792E+02-8.10137E+03-1.03451E+01 3.59547E+03 1.80297E+02
 -1      2770-2.56318E+03-8.31771E+02-8.26126E+03 1.94365E+02 3.61422E+03 1.57683E+01
 -1      2771-2.16171E+03-9.73749E+02-9.39426E+03 2.49558E+02 4.09940E+03-5.79781E+01
 -1      2772-2.15004E+03-1.59458E+03-1.01794E+04-7.66261E+02 4.71106E+03 7.64825E+02
 -1      2773-1.53444E+03-6.68992E+02-5.69631E+03-1.77245E+03 2.55500E+03 1.57979E+03
 -1      2774-1.00640E+03 2.23765E+02-8.74276E+02-1.18612E+03 2.71576E+02 1.08918E+03
 -1      2775-7.61564E+02-6.13925E+00 8.10267E+01-2.75956E+02-4.54030E+01 3.58428E+02
 -1      2776-2.22872E+02-1.95562E+02-1.89923E+03 6.86432E+02 7.69974E+02-7.16692E+02
 -1      2777-3.04585E+02-6.27969E+02-3.02069E+03 6.55224E+02 1.58104E+03-7.02271E+02
 -1      2778-4.67082E+02-7.71267E+02-3.86786E+03 3.19372E+02 2.00220E+03-4.04988E+02
 -1      2779-7.24716E+02-7.70430E+02-4.09274E+03 7.60674E+01 2.10026E+03-1.65719E+02
 -1      2780-1.00608E+03-7.55382E+02-4.04877E+03-1.66415E+01 2.09078E+03-4.31123E+01
 -1      2781-1.20142E+03-7.54102E+02-3.98468E+03-3.35314E+01 2.06839E+03 1.13064E+01
 -1      2782-1.30487E+03-7.57841E+02-3.95630E+03-2.77297E+01 2.05595E+03 4.12766E+01
 -1      2783-1.35396E+03-7.60777E+02-3.95264E+03-2.07939E+01 2.05131E+03 6.22568E+01
 -1      2784-1.37770E+03-7.62292E+02-3.95694E+03-1.70581E+01 2.05032E+03 7.75039E+01
 -1      2785-1.38980E+03-7.62933E+02-3.96143E+03-1.56450E+01 2.05049E+03 8.81840E+01
 -1      2786-1.39473E+03-7.63128E+02-3.96459E+03-1.53827E+01 2.05088E+03 9.56932E+01
 -1      2787-1.39298E+03-7.63080E+02-3.96691E+03-1.61008E+01 2.05116E+03 1.01682E+02
 -1      2788-1.38439E+03-7.63065E+02-3.96757E+03-1.88706E+01 2.05071E+03 1.08474E+02
 -1      2789-1.37238E+03-7.63408E+02-3.95964E+03-2.55922E+01 2.04745E+03 1.20154E+02
 -1      2790-1.36913E+03-7.62986E+02-3.92499E+03-3.60175E+01 2.03654E+03 1.41637E+02
 -1      2791-1.38553E+03-7.52189E+02-3.84361E+03-3.91176E+01 2.00871E+03 1.67396E+02
 -1      2792-1.36552E+03-7.13986E+02-3.75528E+03-4.63559E-01 1.96645E+03 1.56963E+02
 -1      2793-1.12960E+03-6.68334E+02-3.90910E+03 1.20746E+02 1.97508E+03 6.94491E+01
 -1      2794-6.90778E+02-8.06546E+02-4.56311E+03 1.23039E+02 2.25005E+03 8.73602E+01
 -1      2795-5.62986E+02-1.16739E+03-4.74065E+03-5.05632E+02 2.56998E+03 5.58989E+02
 -1      2796-6.14255E+02-5.34966E+02-2.71754E+03-1.10732E+03 1.39052E+03 9.93619E+02
 -1      2797-7.35563E+02 1.16313E+02-4.23642E+02-7.67251E+02 1.50135E+02 7.70165E+02
 -1      2798-6.56402E+02 2.45509E+00 1.22393E+02-2.09700E+02-2.69128E+01 3.51706E+02
 -1      2799-2.00855E+01-3.50151E+02-1.05670E+03-6.42827E+02-4.29933E+02-2.19292E+02
 -1      2800-2.69527E+01-1.05502E+03-1.61989E+03-5.80889E+02-9.82657E+02-2.72782E+02
 -1      2801-1.30888E+02-1.25019E+03-2.05375E+03-2.46447E+02-1.21521E+03-1.43802E+02
 -1      2802-3.33444E+02-1.24894E+03-2.14650E+03-3.55784E+01-1.22570E+03-4.43767E+01
 -1      2803-5.56834E+02-1.22160E+03-2.09623E+03 3.50360E+01-1.19391E+03-4.96886E+00
 -1      2804-7.25569E+02-1.20776E+03-2.04944E+03 4.43314E+01-1.17277E+03 1.42672E+01
 -1      2805-8.30086E+02-1.20560E+03-2.03099E+03 3.71090E+01-1.16486E+03 3.18550E+01
 -1      2806-8.89164E+02-1.20648E+03-2.02960E+03 3.07552E+01-1.16291E+03 4.82168E+01
 -1      2807-9.21455E+02-1.20775E+03-2.03300E+03 2.77033E+01-1.16285E+03 6.08014E+01
 -1      2808-9.38454E+02-1.20855E+03-2.03611E+03 2.66892E+01-1.16310E+03 6.93010E+01
 -1      2809-9.45938E+02-1.20899E+03-2.03822E+03 2.65360E+01-1.16336E+03 7.47695E+01
 -1      2810-9.46342E+02-1.20927E+03-2.03998E+03 2.70703E+01-1.16368E+03 7.83681E+01
 -1      2811-9.40839E+02-1.20954E+03-2.04121E+03 2.92621E+01-1.16403E+03 8.14738E+01
 -1      2812-9.30943E+02-1.20902E+03-2.03775E+03 3.49802E+01-1.16355E+03 8.73318E+01
 -1      2813-9.19268E+02-1.20522E+03-2.01746E+03 4.48578E+01-1.15877E+03 1.02234E+02
 -1      2814-9.05899E+02-1.18724E+03-1.96870E+03 5.03393E+01-1.13984E+03 1.28236E+02
 -1      2815-8.64367E+02-1.14551E+03-1.91029E+03 2.52714E+01-1.09649E+03 1.36372E+02
 -1      2816-6.90696E+02-1.09685E+03-1.99765E+03-9.36951E+01-1.06729E+03 6.96568E+01
 -1      2817-3.91170E+02-1.26376E+03-2.44433E+03-1.75460E+02-1.30722E+03 1.23300E+01
 -1      2818-4.01037E+02-1.91076E+03-2.55798E+03 4.37375E+02-1.73478E+03 2.13644E+02
 -1      2819-3.84270E+02-8.30474E+02-1.43412E+03 1.06442E+03-8.02667E+02 4.22231E+02
 -1      2820-4.22551E+02 2.04261E+02-1.24348E+02 6.61568E+02 1.18303E+02 2.84968E+02
 -1      2821-4.19751E+02 1.61950E+01 1.43201E+02 1.23550E+02 8.99639E+01 8.32076E+01
 -1      2822-4.18388E+02-3.87162E+02-2.72303E+03-1.08386E+03-1.16068E+03-5.54832E+02
 -1      2823-9.12917E+02-1.25122E+03-4.86691E+03-9.65755E+02-2.66080E+03-5.86967E+02
 -1      2824-1.32616E+03-1.46170E+03-6.09173E+03-3.77141E+02-3.28115E+03-2.45521E+02
 -1      2825-1.66484E+03-1.44069E+03-6.37182E+03-3.55961E+01-3.34724E+03-3.48594E+01
 -1      2826-1.90946E+03-1.40981E+03-6.32759E+03 6.90475E+01-3.29041E+03 3.03357E+01
 -1      2827-2.05642E+03-1.39378E+03-6.24263E+03 7.84456E+01-3.24226E+03 4.84828E+01
 -1      2828-2.14343E+03-1.39224E+03-6.19748E+03 6.42446E+01-3.22129E+03 6.03996E+01
 -1      2829-2.19412E+03-1.39385E+03-6.18342E+03 5.35263E+01-3.21469E+03 7.29632E+01
 -1      2830-2.22372E+03-1.39560E+03-6.18231E+03 4.86767E+01-3.21371E+03 8.35732E+01
 -1      2831-2.24021E+03-1.39665E+03-6.18434E+03 4.71487E+01-3.21412E+03 9.11574E+01
 -1      2832-2.24788E+03-1.39721E+03-6.18644E+03 4.68851E+01-3.21478E+03 9.62184E+01
 -1      2833-2.24865E+03-1.39758E+03-6.18812E+03 4.75713E+01-3.21549E+03 9.97732E+01
 -1      2834-2.24266E+03-1.39798E+03-6.18739E+03 5.08201E+01-3.21578E+03 1.03501E+02
 -1      2835-2.22859E+03-1.39767E+03-6.17606E+03 5.98624E+01-3.21281E+03 1.11504E+02
 -1      2836-2.20497E+03-1.39356E+03-6.13369E+03 7.69874E+01-3.19843E+03 1.31718E+02
 -1      2837-2.17274E+03-1.37282E+03-6.03939E+03 8.81094E+01-3.15245E+03 1.64389E+02
 -1      2838-2.14973E+03-1.32946E+03-5.93084E+03 5.40312E+01-3.06012E+03 1.67401E+02
 -1      2839-2.03549E+03-1.24785E+03-5.98035E+03-1.47313E+02-3.00892E+03 2.36620E+01
 -1      2840-1.75835E+03-1.42272E+03-6.88423E+03-3.68469E+02-3.51889E+03-1.35989E+02
 -1      2841-1.88638E+03-2.37766E+03-7.72694E+03 6.91820E+02-4.60737E+03 4.66829E+02
 -1      2842-1.24158E+03-9.79410E+02-4.15168E+03 1.83872E+03-2.19910E+03 1.10368E+03
 -1      2843-6.84348E+02 3.45740E+02-4.34812E+02 1.07466E+03 1.72856E+02 6.53225E+02
 -1      2844-5.16553E+02 1.68211E+01 1.04916E+02 1.38768E+02 1.39728E+02 1.05783E+02
 -1      2845-1.22697E+03-5.78069E+02-5.56262E+03-1.22131E+03-1.61260E+03-1.09800E+03
 -1      2846-2.75604E+03-1.77629E+03-1.12678E+04-1.07512E+03-3.75904E+03-1.06556E+03
 -1      2847-3.62887E+03-2.03695E+03-1.38065E+04-4.07019E+02-4.64396E+03-3.64065E+02
 -1      2848-4.15525E+03-1.98554E+03-1.42875E+04-3.12059E+01-4.76052E+03-6.18076E+00
 -1      2849-4.44091E+03-1.94433E+03-1.41937E+04 8.06446E+01-4.69649E+03 8.76743E+01
 -1      2850-4.56332E+03-1.92033E+03-1.40184E+04 8.99247E+01-4.63441E+03 9.98742E+01
 -1      2851-4.62926E+03-1.91799E+03-1.39257E+04 7.39409E+01-4.60545E+03 1.02386E+02
 -1      2852-4.66831E+03-1.91996E+03-1.38912E+04 6.21166E+01-4.59565E+03 1.09981E+02
 -1      2853-4.69371E+03-1.92214E+03-1.38839E+04 5.67821E+01-4.59396E+03 1.18405E+02
 -1      2854-4.70919E+03-1.92338E+03-1.38847E+04 5.51031E+01-4.59453E+03 1.25199E+02
 -1      2855-4.71694E+03-1.92395E+03-1.38872E+04 5.48011E+01-4.59560E+03 1.29942E+02
 -1      2856-4.71780E+03-1.92433E+03-1.38893E+04 5.55208E+01-4.59667E+03 1.33461E+02
 -1      2857-4.71033E+03-1.92481E+03-1.38869E+04 5.90318E+01-4.59685E+03 1.38019E+02
 -1      2858-4.68938E+03-1.92448E+03-1.38646E+04 6.88214E+01-4.59198E+03 1.49034E+02
 -1      2859-4.65047E+03-1.91917E+03-1.37883E+04 8.76110E+01-4.57108E+03 1.78135E+02
 -1      2860-4.58821E+03-1.88879E+03-1.35989E+04 9.98986E+01-4.51014E+03 2.23613E+02
 -1      2861-4.58414E+03-1.83934E+03-1.33692E+04 6.54385E+01-4.39281E+03 2.24812E+02
 -1      2862-4.50076E+03-1.69264E+03-1.32419E+04-1.55934E+02-4.34058E+03-1.82535E+01
 -1      2863-4.18736E+03-1.88138E+03-1.48848E+04-4.39520E+02-4.98568E+03-4.68025E+02
 -1      2864-5.02320E+03-3.47916E+03-1.86280E+04 7.46402E+02-6.50961E+03 7.99774E+02
 -1      2865-2.79209E+03-1.29302E+03-9.17323E+03 2.07821E+03-3.19904E+03 2.24812E+03
 -1      2866-9.18535E+02 6.14249E+02-1.21562E+02 1.19691E+03 1.69960E+02 1.17001E+03
 -1      2867-7.42795E+02 3.41347E-01 5.96094E+01 1.30344E+02 1.44459E+02 6.97952E+01
 -1      2868-1.98427E+03-7.26015E+02-8.19944E+03-9.89919E+02-1.26506E+03-1.65362E+03
 -1      2869-4.53206E+03-2.17579E+03-1.75720E+04-8.76739E+02-3.01491E+03-1.56333E+03
 -1      2870-5.84115E+03-2.44581E+03-2.14404E+04-3.32816E+02-3.77685E+03-4.87282E+02
 -1      2871-6.54591E+03-2.35565E+03-2.21006E+04-2.51671E+01-3.88695E+03 2.17997E+01
 -1      2872-6.87996E+03-2.30459E+03-2.19575E+04 6.69241E+01-3.84099E+03 1.43738E+02
 -1      2873-6.98627E+03-2.27507E+03-2.16977E+04 7.51837E+01-3.79305E+03 1.50401E+02
 -1      2874-7.03513E+03-2.27298E+03-2.15604E+04 6.25869E+01-3.76993E+03 1.43738E+02
 -1      2875-7.06408E+03-2.27599E+03-2.15077E+04 5.30294E+01-3.76195E+03 1.46522E+02
 -1      2876-7.08573E+03-2.27889E+03-2.14953E+04 4.86589E+01-3.76060E+03 1.52921E+02
 -1      2877-7.10046E+03-2.28048E+03-2.14960E+04 4.72663E+01-3.76119E+03 1.59036E+02
 -1      2878-7.10849E+03-2.28121E+03-2.14997E+04 4.70136E+01-3.76220E+03 1.63538E+02
 -1      2879-7.10956E+03-2.28175E+03-2.15032E+04 4.76117E+01-3.76321E+03 1.67079E+02
 -1      2880-7.10068E+03-2.28255E+03-2.15001E+04 5.04899E+01-3.76334E+03 1.72504E+02
 -1      2881-7.07350E+03-2.28271E+03-2.14685E+04 5.84331E+01-3.75925E+03 1.86701E+02
 -1      2882-7.02134E+03-2.27711E+03-2.13601E+04 7.31445E+01-3.74188E+03 2.24513E+02
 -1      2883-6.93493E+03-2.23979E+03-2.10827E+04 8.27067E+01-3.69431E+03 2.83168E+02
 -1      2884-6.95005E+03-2.18661E+03-2.07324E+04 5.27459E+01-3.60177E+03 2.81117E+02
 -1      2885-6.89382E+03-1.98372E+03-2.04417E+04-1.26215E+02-3.57453E+03-6.05020E+01
 -1      2886-6.50221E+03-2.13949E+03-2.27739E+04-3.51815E+02-4.12261E+03-8.15675E+02
 -1      2887-8.07104E+03-4.31625E+03-2.95990E+04 5.92302E+02-5.29289E+03 1.10961E+03
 -1      2888-4.36890E+03-1.50828E+03-1.44439E+04 1.68040E+03-2.73605E+03 3.42636E+03
 -1      2889-1.12342E+03 8.95069E+02 3.25811E+02 9.86169E+02 8.14043E+01 1.71731E+03
 -1      2890-9.90834E+02-2.37076E+01 2.64084E+01 1.09541E+02 1.25044E+02 2.53414E+01
 -1      2891-2.18811E+03-6.63936E+02-9.09485E+03-5.19503E+02-5.69458E+02-1.95309E+03
 -1      2892-5.04867E+03-2.05258E+03-1.99321E+04-4.67579E+02-1.39588E+03-1.85665E+03
 -1      2893-6.55035E+03-2.26051E+03-2.44484E+04-1.81997E+02-1.79025E+03-5.70009E+02
 -1      2894-7.36457E+03-2.13658E+03-2.52119E+04-1.48963E+01-1.85224E+03 3.69962E+01
 -1      2895-7.74261E+03-2.08117E+03-2.50626E+04 3.62930E+01-1.83223E+03 1.77528E+02
 -1      2896-7.85036E+03-2.05276E+03-2.47749E+04 4.14589E+01-1.81014E+03 1.81481E+02
 -1      2897-7.89312E+03-2.05317E+03-2.46208E+04 3.50273E+01-1.79927E+03 1.69740E+02
 -1      2898-7.91714E+03-2.05775E+03-2.45605E+04 2.99280E+01-1.79546E+03 1.69728E+02
 -1      2899-7.93661E+03-2.06131E+03-2.45457E+04 2.75558E+01-1.79483E+03 1.74940E+02
 -1      2900-7.95073E+03-2.06302E+03-2.45461E+04 2.67900E+01-1.79515E+03 1.80661E+02
 -1      2901-7.95875E+03-2.06368E+03-2.45503E+04 2.66520E+01-1.79568E+03 1.85023E+02
 -1      2902-7.95972E+03-2.06414E+03-2.45543E+04 2.69884E+01-1.79619E+03 1.88602E+02
 -1      2903-7.94974E+03-2.06509E+03-2.45506E+04 2.85618E+01-1.79622E+03 1.94534E+02
 -1      2904-7.91935E+03-2.06604E+03-2.45150E+04 3.28615E+01-1.79419E+03 2.10732E+02
 -1      2905-7.86109E+03-2.06161E+03-2.43924E+04 4.03570E+01-1.78566E+03 2.53273E+02
 -1      2906-7.77156E+03-2.02554E+03-2.40871E+04 4.51455E+01-1.76360E+03 3.19345E+02
 -1      2907-7.81156E+03-1.97384E+03-2.36894E+04 2.67528E+01-1.71910E+03 3.14153E+02
 -1      2908-7.78461E+03-1.74448E+03-2.33561E+04-6.99148E+01-1.71532E+03-1.02110E+02
 -1      2909-7.32715E+03-1.87532E+03-2.60928E+04-1.73859E+02-2.01214E+03-9.96003E+02
 -1      2910-9.01409E+03-4.17568E+03-3.39508E+04 3.11018E+02-2.51312E+03 1.28400E+03
 -1      2911-5.00307E+03-1.35793E+03-1.68884E+04 8.75243E+02-1.37886E+03 4.07407E+03
 -1      2912-1.33509E+03 1.03308E+03 3.90273E+02 5.34156E+02 1.65447E+00 2.06590E+03
 -1      2913-1.14445E+03-2.12093E+01 6.03259E+01 6.76828E+01 7.59304E+01 1.51086E+01
 -1      2914-2.19759E+03-6.45045E+02-9.19462E+03 6.29536E-03 6.76518E-03-2.04007E+03
 -1      2915-5.09387E+03-2.01269E+03-2.02910E+04-1.31945E-03-1.35548E-04-1.94892E+03
 -1      2916-6.64067E+03-2.19736E+03-2.49669E+04-2.84423E-04 3.07838E-04-5.98875E+02
 -1      2917-7.48998E+03-2.06198E+03-2.57634E+04-7.68676E-05-2.40850E-05 3.99858E+01
 -1      2918-7.88488E+03-2.00397E+03-2.56180E+04-8.57588E-05 4.21466E-05 1.86957E+02
 -1      2919-7.99521E+03-1.97539E+03-2.53270E+04-2.94299E-05-2.89317E-08 1.90165E+02
 -1      2920-8.03683E+03-1.97650E+03-2.51701E+04-2.03229E-05 6.55590E-07 1.76909E+02
 -1      2921-8.05948E+03-1.98155E+03-2.51081E+04-8.80787E-06-8.37602E-06 1.76044E+02
 -1      2922-8.07824E+03-1.98529E+03-2.50927E+04-4.51890E-06-1.13569E-05 1.80888E+02
 -1      2923-8.09211E+03-1.98701E+03-2.50929E+04-1.99765E-06-1.43869E-05 1.86483E+02
 -1      2924-8.10006E+03-1.98760E+03-2.50970E+04-1.22482E-06-1.57821E-05 1.90804E+02
 -1      2925-8.10091E+03-1.98797E+03-2.51010E+04-2.91039E-07-1.88330E-05 1.94392E+02
 -1      2926-8.09052E+03-1.98898E+03-2.50971E+04 5.10472E-07-1.75535E-05 2.00489E+02
 -1      2927-8.05914E+03-1.99010E+03-2.50604E+04-1.08561E-08-1.68808E-05 2.17315E+02
 -1      2928-7.99943E+03-1.98608E+03-2.49349E+04-2.97903E-08-1.86920E-05 2.61214E+02
 -1      2929-7.91109E+03-1.95003E+03-2.46265E+04 6.83649E-07-1.93776E-05 3.29744E+02
 -1      2930-7.96181E+03-1.89740E+03-2.42203E+04 7.14435E-07-1.85791E-05 3.22476E+02
 -1      2931-7.94520E+03-1.65886E+03-2.38882E+04-4.50052E-07-2.05013E-05-1.18379E+02
 -1      2932-7.46611E+03-1.78754E+03-2.67500E+04-2.02649E-06-2.46925E-05-1.05063E+03
 -1      2933-9.13038E+03-4.12383E+03-3.47272E+04 3.01783E-06-3.25031E-05 1.33395E+03
 -1      2934-5.12520E+03-1.28932E+03-1.74283E+04 9.99674E-06-1.87852E-05 4.26774E+03
 -1      2935-1.41955E+03 1.07707E+03 3.51013E+02 5.91687E-06 1.69300E-06 2.17782E+03
 -1      2936-1.19322E+03-1.66947E+01 8.47482E+01 2.09814E-07 2.12602E-06 1.51855E+01
 -1      2937-2.18809E+03-6.63925E+02-9.09481E+03 5.19508E+02 5.69461E+02-1.95308E+03
 -1      2938-5.04868E+03-2.05258E+03-1.99321E+04 4.67578E+02 1.39588E+03-1.85665E+03
 -1      2939-6.55034E+03-2.26051E+03-2.44484E+04 1.81996E+02 1.79025E+03-5.70008E+02
 -1      2940-7.36456E+03-2.13658E+03-2.52119E+04 1.48961E+01 1.85224E+03 3.69960E+01
 -1      2941-7.74261E+03-2.08117E+03-2.50626E+04-3.62931E+01 1.83223E+03 1.77528E+02
 -1      2942-7.85036E+03-2.05276E+03-2.47749E+04-4.14590E+01 1.81014E+03 1.81481E+02
 -1      2943-7.89312E+03-2.05317E+03-2.46208E+04-3.50273E+01 1.79927E+03 1.69740E+02
 -1      2944-7.91714E+03-2.05775E+03-2.45605E+04-2.99280E+01 1.79546E+03 1.69728E+02
 -1      2945-7.93661E+03-2.06130E+03-2.45457E+04-2.75558E+01 1.79483E+03 1.74940E+02
 -1      2946-7.95073E+03-2.06302E+03-2.45461E+04-2.67900E+01 1.79515E+03 1.80661E+02
 -1      2947-7.95875E+03-2.06368E+03-2.45503E+04-2.66520E+01 1.79568E+03 1.85023E+02
 -1      2948-7.95972E+03-2.06414E+03-2.45543E+04-2.69884E+01 1.79619E+03 1.88602E+02
 -1      2949-7.94974E+03-2.06509E+03-2.45506E+04-2.85618E+01 1.79622E+03 1.94534E+02
 -1      2950-7.91935E+03-2.06604E+03-2.45150E+04-3.28615E+01 1.79419E+03 2.10732E+02
 -1      2951-7.86109E+03-2.06161E+03-2.43924E+04-4.03570E+01 1.78566E+03 2.53273E+02
 -1      2952-7.77156E+03-2.02554E+03-2.40871E+04-4.51455E+01 1.76360E+03 3.19345E+02
 -1      2953-7.81156E+03-1.97384E+03-2.36894E+04-2.67528E+01 1.71910E+03 3.14153E+02
 -1      2954-7.78461E+03-1.74448E+03-2.33561E+04 6.99148E+01 1.71532E+03-1.02110E+02
 -1      2955-7.32715E+03-1.87532E+03-2.60928E+04 1.73859E+02 2.01214E+03-9.96003E+02
 -1      2956-9.01409E+03-4.17568E+03-3.39508E+04-3.11018E+02 2.51312E+03 1.28400E+03
 -1      2957-5.00307E+03-1.35793E+03-1.68884E+04-8.75243E+02 1.37886E+03 4.07407E+03
 -1      2958-1.33509E+03 1.03308E+03 3.90273E+02-5.34156E+02-1.65447E+00 2.06590E+03
 -1      2959-1.14445E+03-2.12093E+01 6.03259E+01-6.76828E+01-7.59304E+01 1.51086E+01
 -1      2960-1.98426E+03-7.26015E+02-8.19944E+03 9.89915E+02 1.26505E+03-1.65361E+03
 -1      2961-4.53206E+03-2.17579E+03-1.75720E+04 8.76739E+02 3.01491E+03-1.56333E+03
 -1      2962-5.84115E+03-2.44581E+03-2.14404E+04 3.32816E+02 3.77685E+03-4.87282E+02
 -1      2963-6.54591E+03-2.35565E+03-2.21006E+04 2.51668E+01 3.88695E+03 2.17997E+01
 -1      2964-6.87996E+03-2.30459E+03-2.19575E+04-6.69242E+01 3.84099E+03 1.43738E+02
 -1      2965-6.98627E+03-2.27507E+03-2.16977E+04-7.51838E+01 3.79305E+03 1.50401E+02
 -1      2966-7.03513E+03-2.27298E+03-2.15604E+04-6.25869E+01 3.76993E+03 1.43738E+02
 -1      2967-7.06408E+03-2.27599E+03-2.15077E+04-5.30294E+01 3.76195E+03 1.46522E+02
 -1      2968-7.08573E+03-2.27889E+03-2.14953E+04-4.86589E+01 3.76060E+03 1.52921E+02
 -1      2969-7.10046E+03-2.28048E+03-2.14960E+04-4.72663E+01 3.76119E+03 1.59036E+02
 -1      2970-7.10849E+03-2.28121E+03-2.14997E+04-4.70136E+01 3.76220E+03 1.63538E+02
 -1      2971-7.10956E+03-2.28175E+03-2.15032E+04-4.76117E+01 3.76321E+03 1.67079E+02
 -1      2972-7.10068E+03-2.28255E+03-2.15001E+04-5.04899E+01 3.76334E+03 1.72504E+02
 -1      2973-7.07350E+03-2.28271E+03-2.14685E+04-5.84331E+01 3.75925E+03 1.86701E+02
 -1      2974-7.02134E+03-2.27711E+03-2.13601E+04-7.31445E+01 3.74188E+03 2.24513E+02
 -1      2975-6.93493E+03-2.23979E+03-2.10827E+04-8.27067E+01 3.69431E+03 2.83168E+02
 -1      2976-6.95005E+03-2.18661E+03-2.07324E+04-5.27459E+01 3.60177E+03 2.81117E+02
 -1      2977-6.89382E+03-1.98372E+03-2.04417E+04 1.26215E+02 3.57453E+03-6.05020E+01
 -1      2978-6.50221E+03-2.13949E+03-2.27739E+04 3.51815E+02 4.12261E+03-8.15675E+02
 -1      2979-8.07104E+03-4.31625E+03-2.95990E+04-5.92302E+02 5.29289E+03 1.10961E+03
 -1      2980-4.36890E+03-1.50828E+03-1.44439E+04-1.68040E+03 2.73605E+03 3.42636E+03
 -1      2981-1.12342E+03 8.95069E+02 3.25811E+02-9.86169E+02-8.14043E+01 1.71731E+03
 -1      2982-9.90834E+02-2.37076E+01 2.64084E+01-1.09541E+02-1.25044E+02 2.53414E+01
 -1      2983-1.22696E+03-5.78069E+02-5.56263E+03 1.22130E+03 1.61260E+03-1.09800E+03
 -1      2984-2.75604E+03-1.77629E+03-1.12678E+04 1.07512E+03 3.75904E+03-1.06556E+03
 -1      2985-3.62887E+03-2.03695E+03-1.38065E+04 4.07019E+02 4.64396E+03-3.64065E+02
 -1      2986-4.15525E+03-1.98554E+03-1.42875E+04 3.12057E+01 4.76052E+03-6.18088E+00
 -1      2987-4.44091E+03-1.94433E+03-1.41937E+04-8.06447E+01 4.69649E+03 8.76743E+01
 -1      2988-4.56332E+03-1.92033E+03-1.40184E+04-8.99248E+01 4.63441E+03 9.98741E+01
 -1      2989-4.62926E+03-1.91799E+03-1.39257E+04-7.39409E+01 4.60545E+03 1.02386E+02
 -1      2990-4.66831E+03-1.91996E+03-1.38912E+04-6.21166E+01 4.59565E+03 1.09981E+02
 -1      2991-4.69371E+03-1.92214E+03-1.38839E+04-5.67821E+01 4.59396E+03 1.18405E+02
 -1      2992-4.70919E+03-1.92338E+03-1.38847E+04-5.51031E+01 4.59453E+03 1.25199E+02
 -1      2993-4.71694E+03-1.92395E+03-1.38872E+04-5.48011E+01 4.59560E+03 1.29942E+02
 -1      2994-4.71780E+03-1.92433E+03-1.38893E+04-5.55208E+01 4.59667E+03 1.33461E+02
 -1      2995-4.71033E+03-1.92481E+03-1.38869E+04-5.90318E+01 4.59685E+03 1.38019E+02
 -1      2996-4.68938E+03-1.92448E+03-1.38646E+04-6.88214E+01 4.59198E+03 1.49034E+02
 -1      2997-4.65047E+03-1.91917E+03-1.37883E+04-8.76110E+01 4.57108E+03 1.78135E+02
 -1      2998-4.58821E+03-1.88879E+03-1.35989E+04-9.98986E+01 4.51014E+03 2.23613E+02
 -1      2999-4.58414E+03-1.83934E+03-1.33692E+04-6.54385E+01 4.39281E+03 2.24812E+02
 -1      3000-4.50076E+03-1.69264E+03-1.32419E+04 1.55934E+02 4.34058E+03-1.82535E+01
 -1      3001-4.18736E+03-1.88138E+03-1.48848E+04 4.39520E+02 4.98568E+03-4.68025E+02
 -1      3002-5.02320E+03-3.47916E+03-1.86280E+04-7.46402E+02 6.50961E+03 7.99774E+02
 -1      3003-2.79209E+03-1.29302E+03-9.17323E+03-2.07821E+03 3.19904E+03 2.24812E+03
 -1      3004-9.18535E+02 6.14249E+02-1.21562E+02-1.19691E+03-1.69960E+02 1.17001E+03
 -1      3005-7.42795E+02 3.41344E-01 5.96094E+01-1.30344E+02-1.44459E+02 6.97952E+01
 -1      3006-4.18386E+02-3.87159E+02-2.72303E+03 1.08385E+03 1.16068E+03-5.54832E+02
 -1      3007-9.12916E+02-1.25122E+03-4.86691E+03 9.65755E+02 2.66080E+03-5.86967E+02
 -1      3008-1.32616E+03-1.46170E+03-6.09173E+03 3.77141E+02 3.28115E+03-2.45521E+02
 -1      3009-1.66484E+03-1.44069E+03-6.37182E+03 3.55959E+01 3.34724E+03-3.48595E+01
 -1      3010-1.90946E+03-1.40981E+03-6.32759E+03-6.90475E+01 3.29041E+03 3.03357E+01
 -1      3011-2.05642E+03-1.39378E+03-6.24263E+03-7.84456E+01 3.24226E+03 4.84828E+01
 -1      3012-2.14343E+03-1.39224E+03-6.19748E+03-6.42446E+01 3.22129E+03 6.03996E+01
 -1      3013-2.19412E+03-1.39385E+03-6.18342E+03-5.35263E+01 3.21469E+03 7.29632E+01
 -1      3014-2.22372E+03-1.39560E+03-6.18231E+03-4.86767E+01 3.21371E+03 8.35732E+01
 -1      3015-2.24021E+03-1.39665E+03-6.18434E+03-4.71487E+01 3.21412E+03 9.11574E+01
 -1      3016-2.24788E+03-1.39721E+03-6.18644E+03-4.68851E+01 3.21478E+03 9.62184E+01
 -1      3017-2.24865E+03-1.39758E+03-6.18812E+03-4.75713E+01 3.21549E+03 9.97732E+01
 -1      3018-2.24266E+03-1.39798E+03-6.18739E+03-5.08201E+01 3.21578E+03 1.03501E+02
 -1      3019-2.22859E+03-1.39767E+03-6.17606E+03-5.98624E+01 3.21281E+03 1.11504E+02
 -1      3020-2.20497E+03-1.39356E+03-6.13369E+03-7.69874E+01 3.19843E+03 1.31718E+02
 -1      3021-2.17274E+03-1.37282E+03-6.03939E+03-8.81094E+01 3.15245E+03 1.64389E+02
 -1      3022-2.14973E+03-1.32946E+03-5.93084E+03-5.40312E+01 3.06012E+03 1.67401E+02
 -1      3023-2.03549E+03-1.24785E+03-5.98035E+03 1.47313E+02 3.00892E+03 2.36620E+01
 -1      3024-1.75835E+03-1.42272E+03-6.88423E+03 3.68469E+02 3.51889E+03-1.35989E+02
 -1      3025-1.88638E+03-2.37766E+03-7.72694E+03-6.91820E+02 4.60737E+03 4.66829E+02
 -1      3026-1.24158E+03-9.79410E+02-4.15168E+03-1.83872E+03 2.19910E+03 1.10368E+03
 -1      3027-6.84348E+02 3.45740E+02-4.34812E+02-1.07466E+03-1.72856E+02 6.53225E+02
 -1      3028-5.16553E+02 1.68211E+01 1.04916E+02-1.38768E+02-1.39728E+02 1.05783E+02
 -1      3029-2.00843E+01-3.50151E+02-1.05670E+03 6.42826E+02 4.29933E+02-2.19292E+02
 -1      3030-2.69518E+01-1.05502E+03-1.61989E+03 5.80889E+02 9.82657E+02-2.72783E+02
 -1      3031-1.30887E+02-1.25019E+03-2.05375E+03 2.46447E+02 1.21521E+03-1.43803E+02
 -1      3032-3.33444E+02-1.24894E+03-2.14650E+03 3.55783E+01 1.22570E+03-4.43769E+01
 -1      3033-5.56834E+02-1.22160E+03-2.09623E+03-3.50360E+01 1.19391E+03-4.96890E+00
 -1      3034-7.25569E+02-1.20776E+03-2.04944E+03-4.43315E+01 1.17277E+03 1.42672E+01
 -1      3035-8.30086E+02-1.20560E+03-2.03099E+03-3.71091E+01 1.16486E+03 3.18550E+01
 -1      3036-8.89164E+02-1.20648E+03-2.02960E+03-3.07552E+01 1.16291E+03 4.82168E+01
 -1      3037-9.21455E+02-1.20775E+03-2.03300E+03-2.77033E+01 1.16285E+03 6.08014E+01
 -1      3038-9.38454E+02-1.20855E+03-2.03611E+03-2.66892E+01 1.16310E+03 6.93010E+01
 -1      3039-9.45938E+02-1.20899E+03-2.03822E+03-2.65360E+01 1.16336E+03 7.47695E+01
 -1      3040-9.46342E+02-1.20927E+03-2.03998E+03-2.70703E+01 1.16368E+03 7.83681E+01
 -1      3041-9.40839E+02-1.20954E+03-2.04121E+03-2.92621E+01 1.16403E+03 8.14738E+01
 -1      3042-9.30943E+02-1.20902E+03-2.03775E+03-3.49802E+01 1.16355E+03 8.73318E+01
 -1      3043-9.19268E+02-1.20522E+03-2.01746E+03-4.48578E+01 1.15877E+03 1.02234E+02
 -1      3044-9.05899E+02-1.18724E+03-1.96870E+03-5.03393E+01 1.13984E+03 1.28236E+02
 -1      3045-8.64367E+02-1.14551E+03-1.91029E+03-2.52714E+01 1.09649E+03 1.36372E+02
 -1      3046-6.90696E+02-1.09685E+03-1.99765E+03 9.36951E+01 1.06729E+03 6.96568E+01
 -1      3047-3.91170E+02-1.26376E+03-2.44433E+03 1.75460E+02 1.30722E+03 1.23300E+01
 -1      3048-4.01037E+02-1.91076E+03-2.55798E+03-4.37375E+02 1.73478E+03 2.13644E+02
 -1      3049-3.84270E+02-8.30474E+02-1.43412E+03-1.06442E+03 8.02667E+02 4.22231E+02
 -1      3050-4.22551E+02 2.04261E+02-1.24348E+02-6.61568E+02-1.18303E+02 2.84968E+02
 -1      3051-4.19751E+02 1.61950E+01 1.43201E+02-1.23550E+02-8.99639E+01 8.32076E+01
 -1      3052 5.69831E+01-5.02953E+02-5.73209E+02-2.52790E+02-9.29191E+01 7.96317E+01
 -1      3053-9.54836E+01-1.42027E+03-9.87239E+02-1.90971E+02-2.55523E+02 2.15966E+01
 -1      3054-2.04241E+02-1.62703E+03-1.18746E+03-3.52472E+01-3.07218E+02-9.29187E-01
 -1      3055-3.20799E+02-1.62522E+03-1.22568E+03 3.58781E+01-2.65989E+02-1.16204E+00
 -1      3056-4.32444E+02-1.58503E+03-1.19119E+03 5.29269E+01-2.37379E+02 1.33080E+00
 -1      3057-5.43248E+02-1.55689E+03-1.15863E+03 5.10342E+01-2.26238E+02 7.74675E+00
 -1      3058-6.38928E+02-1.54798E+03-1.14541E+03 4.57335E+01-2.24120E+02 1.75815E+01
 -1      3059-7.06207E+02-1.54664E+03-1.14396E+03 4.28664E+01-2.24523E+02 2.71616E+01
 -1      3060-7.46889E+02-1.54767E+03-1.14603E+03 4.20043E+01-2.25030E+02 3.43844E+01
 -1      3061-7.68573E+02-1.54857E+03-1.14800E+03 4.19916E+01-2.25274E+02 3.90949E+01
 -1      3062-7.78467E+02-1.54917E+03-1.14937E+03 4.20973E+01-2.25372E+02 4.19861E+01
 -1      3063-7.81499E+02-1.54970E+03-1.15059E+03 4.22217E+01-2.25576E+02 4.36798E+01
 -1      3064-7.80801E+02-1.55027E+03-1.15153E+03 4.28653E+01-2.26149E+02 4.47296E+01
 -1      3065-7.75402E+02-1.54881E+03-1.14922E+03 4.49703E+01-2.27284E+02 4.65369E+01
 -1      3066-7.53655E+02-1.54090E+03-1.13604E+03 4.92325E+01-2.27438E+02 5.21064E+01
 -1      3067-6.90880E+02-1.51465E+03-1.10711E+03 5.18942E+01-2.21257E+02 6.34996E+01
 -1      3068-5.90591E+02-1.47113E+03-1.08111E+03 4.74038E+01-1.96296E+02 7.06175E+01
 -1      3069-5.17624E+02-1.43955E+03-1.12966E+03 2.77068E+00-1.50350E+02 6.50386E+01
 -1      3070-5.32185E+02-1.57045E+03-1.34666E+03-9.61570E+01-2.93342E+02 6.77336E+01
 -1      3071-8.82869E+02-2.55049E+03-1.58129E+03 1.48391E+02-5.74448E+02-1.81308E+00
 -1      3072-3.75915E+02-9.91662E+02-7.84395E+02 4.28894E+02-1.70232E+02-7.92318E+01
 -1      3073 5.71250E+01 3.04453E+02 1.17981E+01 1.94389E+02 2.02008E+02-3.25586E+01
 -1      3074-2.00797E+01 1.84725E+01 8.67021E+01-1.88984E+01 9.02062E+01 2.72731E+00
 -1      3075-1.46432E+02-6.69557E+02-1.41460E+03-5.96867E+02-7.75628E+02-9.78929E+01
 -1      3076-6.14061E+02-1.95473E+03-2.49886E+03-4.50695E+02-1.89715E+03-1.49788E+02
 -1      3077-9.58090E+02-2.24280E+03-3.11568E+03-7.03115E+01-2.28655E+03-7.25650E+01
 -1      3078-1.15823E+03-2.22905E+03-3.25773E+03 7.41348E+01-2.26907E+03 1.51704E-01
 -1      3079-1.26038E+03-2.17241E+03-3.23732E+03 1.07249E+02-2.21051E+03 2.42164E+01
 -1      3080-1.34335E+03-2.13454E+03-3.18884E+03 1.01110E+02-2.17127E+03 3.20602E+01
 -1      3081-1.42270E+03-2.12354E+03-3.16229E+03 8.92515E+01-2.15698E+03 3.92367E+01
 -1      3082-1.48367E+03-2.12240E+03-3.15448E+03 8.32928E+01-2.15320E+03 4.65414E+01
 -1      3083-1.52290E+03-2.12398E+03-3.15422E+03 8.13542E+01-2.15291E+03 5.24945E+01
 -1      3084-1.54466E+03-2.12531E+03-3.15579E+03 8.12040E+01-2.15327E+03 5.65896E+01
 -1      3085-1.55507E+03-2.12626E+03-3.15731E+03 8.13095E+01-2.15368E+03 5.92269E+01
 -1      3086-1.55893E+03-2.12720E+03-3.15863E+03 8.14482E+01-2.15424E+03 6.09479E+01
 -1      3087-1.55887E+03-2.12834E+03-3.15849E+03 8.26840E+01-2.15489E+03 6.24795E+01
 -1      3088-1.55177E+03-2.12749E+03-3.15215E+03 8.67312E+01-2.15408E+03 6.57571E+01
 -1      3089-1.52195E+03-2.11799E+03-3.12742E+03 9.63939E+01-2.14629E+03 7.42808E+01
 -1      3090-1.44112E+03-2.08254E+03-3.07686E+03 1.04318E+02-2.11344E+03 8.92603E+01
 -1      3091-1.33964E+03-2.01960E+03-3.03717E+03 9.68683E+01-2.04388E+03 8.76690E+01
 -1      3092-1.33656E+03-1.97922E+03-3.07069E+03 2.55650E+01-1.94036E+03 3.24191E+01
 -1      3093-1.44069E+03-2.14475E+03-3.55937E+03-3.10094E+02-2.32822E+03 3.99920E+01
 -1      3094-1.85714E+03-3.57342E+03-3.86942E+03 3.14747E+02-3.47485E+03 1.71708E+02
 -1      3095-9.77204E+02-1.45106E+03-2.16156E+03 1.10833E+03-1.45509E+03 2.60337E+02
 -1      3096-5.95987E+01 4.81323E+02-2.59944E+02 4.25830E+02 3.99324E+02 1.94225E+02
 -1      3097 3.06247E+00 3.92194E+01 8.43182E+01-8.14538E+01 1.35112E+02 5.18520E+01
 -1      3098-1.29861E+03-1.13436E+03-5.09560E+03-8.36377E+02-1.30012E+03-5.54514E+02
 -1      3099-3.47439E+03-3.22154E+03-1.14566E+04-6.38020E+02-3.22408E+03-5.19723E+02
 -1      3100-4.40779E+03-3.67903E+03-1.35599E+04-1.02590E+02-3.90511E+03-1.45979E+02
 -1      3101-4.81854E+03-3.68736E+03-1.39668E+04 8.45224E+01-3.93073E+03 6.18346E+01
 -1      3102-4.90139E+03-3.60310E+03-1.38515E+04 1.29278E+02-3.86165E+03 1.14237E+02
 -1      3103-4.92750E+03-3.54068E+03-1.36671E+04 1.23208E+02-3.80505E+03 1.18232E+02
 -1      3104-4.97543E+03-3.52271E+03-1.35775E+04 1.08705E+02-3.78170E+03 1.17683E+02
 -1      3105-5.02136E+03-3.51892E+03-1.35414E+04 1.01110E+02-3.77442E+03 1.20624E+02
 -1      3106-5.05630E+03-3.52015E+03-1.35331E+04 9.83657E+01-3.77343E+03 1.24695E+02
 -1      3107-5.07704E+03-3.52120E+03-1.35325E+04 9.79598E+01-3.77403E+03 1.28117E+02
 -1      3108-5.08763E+03-3.52193E+03-1.35338E+04 9.80055E+01-3.77494E+03 1.30524E+02
 -1      3109-5.09173E+03-3.52270E+03-1.35349E+04 9.82218E+01-3.77597E+03 1.32301E+02
 -1      3110-5.09098E+03-3.52387E+03-1.35325E+04 9.99254E+01-3.77663E+03 1.34659E+02
 -1      3111-5.07623E+03-3.52156E+03-1.35100E+04 1.05150E+02-3.77382E+03 1.40783E+02
 -1      3112-5.02754E+03-3.50726E+03-1.34426E+04 1.17161E+02-3.75919E+03 1.56871E+02
 -1      3113-4.89350E+03-3.44533E+03-1.32521E+04 1.28158E+02-3.70764E+03 1.81894E+02
 -1      3114-4.73810E+03-3.34760E+03-1.30252E+04 1.16547E+02-3.61126E+03 1.76855E+02
 -1      3115-4.83645E+03-3.29438E+03-1.28770E+04 4.66043E+01-3.48641E+03 1.83445E+01
 -1      3116-4.95633E+03-3.49241E+03-1.38735E+04-4.58057E+02-4.01082E+03-1.47362E+02
 -1      3117-6.96409E+03-5.99345E+03-1.96510E+04 4.01734E+02-5.81481E+03 5.50144E+02
 -1      3118-3.15733E+03-2.30353E+03-8.48977E+03 1.59139E+03-2.61989E+03 1.19892E+03
 -1      3119-3.62106E+01 7.74549E+02 7.23701E+02 6.06646E+02 4.85307E+02 6.46257E+02
 -1      3120-1.42854E+02 1.21382E+01-1.78549E+02-1.17668E+02 1.32273E+02 5.83380E+01
 -1      3121-2.47239E+03-1.68868E+03-8.67719E+03-6.07586E+02-9.02182E+02-1.03690E+03
 -1      3122-6.47341E+03-4.64706E+03-2.07457E+04-4.80733E+02-2.35260E+03-9.20170E+02
 -1      3123-8.02008E+03-5.30130E+03-2.44464E+04-8.28415E+01-2.91616E+03-2.27199E+02
 -1      3124-8.63077E+03-5.32376E+03-2.50681E+04 6.54976E+01-2.94873E+03 1.25517E+02
 -1      3125-8.70683E+03-5.21421E+03-2.48673E+04 1.02490E+02-2.90236E+03 2.06455E+02
 -1      3126-8.68672E+03-5.12854E+03-2.45598E+04 1.00229E+02-2.86299E+03 2.06851E+02
 -1      3127-8.70760E+03-5.10338E+03-2.44114E+04 9.00925E+01-2.84615E+03 1.98715E+02
 -1      3128-8.74104E+03-5.09794E+03-2.43521E+04 8.43279E+01-2.84090E+03 1.97330E+02
 -1      3129-8.77280E+03-5.09949E+03-2.43390E+04 8.21493E+01-2.84032E+03 1.99596E+02
 -1      3130-8.79373E+03-5.10116E+03-2.43396E+04 8.17796E+01-2.84099E+03 2.02412E+02
 -1      3131-8.80560E+03-5.10251E+03-2.43440E+04 8.18017E+01-2.84190E+03 2.04647E+02
 -1      3132-8.81102E+03-5.10397E+03-2.43482E+04 8.20329E+01-2.84288E+03 2.06537E+02
 -1      3133-8.81034E+03-5.10596E+03-2.43467E+04 8.33728E+01-2.84343E+03 2.09790E+02
 -1      3134-8.78961E+03-5.10302E+03-2.43127E+04 8.75355E+01-2.84137E+03 2.18942E+02
 -1      3135-8.72355E+03-5.08380E+03-2.42045E+04 9.54511E+01-2.82992E+03 2.42567E+02
 -1      3136-8.54560E+03-4.99691E+03-2.38899E+04 1.01919E+02-2.79432E+03 2.77824E+02
 -1      3137-8.33300E+03-4.86219E+03-2.34714E+04 9.02741E+01-2.72234E+03 2.68390E+02
 -1      3138-8.54486E+03-4.81285E+03-2.31972E+04 3.23563E+01-2.64634E+03 4.53560E+00
 -1      3139-8.58017E+03-4.98322E+03-2.44677E+04-3.01122E+02-3.07683E+03-3.55709E+02
 -1      3140-1.22781E+04-8.57259E+03-3.61395E+04 2.82334E+02-4.34845E+03 9.16888E+02
 -1      3141-5.67933E+03-3.36910E+03-1.58617E+04 1.14549E+03-2.13483E+03 2.20081E+03
 -1      3142 5.41412E+01 1.09574E+03 2.02733E+03 4.87439E+02 3.14075E+02 1.14708E+03
 -1      3143-3.45966E+02-3.55997E+01-4.96664E+02-7.50920E+01 1.19904E+02 6.12904E+01
 -1      3144-2.47354E+03-1.86050E+03-8.63243E+03-2.35455E+02-2.57664E+02-1.20796E+03
 -1      3145-6.72789E+03-5.12894E+03-2.14617E+04-2.00339E+02-7.74609E+02-1.10231E+03
 -1      3146-8.43671E+03-5.86075E+03-2.55102E+04-3.94609E+01-1.02122E+03-2.92435E+02
 -1      3147-9.14057E+03-5.89389E+03-2.62225E+04 3.09067E+01-1.03864E+03 1.32343E+02
 -1      3148-9.23384E+03-5.76913E+03-2.60389E+04 5.03116E+01-1.02175E+03 2.29607E+02
 -1      3149-9.20815E+03-5.67225E+03-2.57270E+04 5.05832E+01-1.00824E+03 2.29468E+02
 -1      3150-9.22292E+03-5.64409E+03-2.55741E+04 4.64652E+01-1.00249E+03 2.18632E+02
 -1      3151-9.25213E+03-5.63783E+03-2.55108E+04 4.38653E+01-1.00077E+03 2.15512E+02
 -1      3152-9.28238E+03-5.63939E+03-2.54962E+04 4.28461E+01-1.00068E+03 2.17002E+02
 -1      3153-9.30286E+03-5.64090E+03-2.54962E+04 4.26777E+01-1.00101E+03 2.19541E+02
 -1      3154-9.31475E+03-5.64207E+03-2.55005E+04 4.26982E+01-1.00140E+03 2.21687E+02
 -1      3155-9.32021E+03-5.64339E+03-2.55046E+04 4.28346E+01-1.00180E+03 2.23630E+02
 -1      3156-9.31885E+03-5.64532E+03-2.55019E+04 4.34733E+01-1.00204E+03 2.27267E+02
 -1      3157-9.29660E+03-5.64226E+03-2.54663E+04 4.54561E+01-1.00138E+03 2.37775E+02
 -1      3158-9.22561E+03-5.61969E+03-2.53493E+04 4.82552E+01-9.96985E+02 2.64121E+02
 -1      3159-9.04500E+03-5.52259E+03-2.50347E+04 4.96523E+01-9.85778E+02 3.03900E+02
 -1      3160-8.83560E+03-5.36757E+03-2.46010E+04 4.24913E+01-9.56128E+02 2.87583E+02
 -1      3161-9.10366E+03-5.31839E+03-2.43462E+04 7.95836E+00-9.36622E+02-3.28449E+01
 -1      3162-9.18075E+03-5.57090E+03-2.58872E+04-9.27122E+01-1.15618E+03-4.35838E+02
 -1      3163-1.29485E+04-9.46235E+03-3.79693E+04 1.13489E+02-1.55567E+03 1.03391E+03
 -1      3164-6.23733E+03-3.76217E+03-1.73582E+04 4.30250E+02-8.73319E+02 2.57053E+03
 -1      3165-5.89599E+01 1.20246E+03 2.08164E+03 2.19145E+02 9.01083E+01 1.39129E+03
 -1      3166-3.96540E+02-1.54444E+01-4.78351E+02-1.83923E+01 7.97492E+01 8.20475E+01
 -1      3167-2.57446E+03-2.21215E+03-8.65157E+03 1.17260E-02 1.41755E-02-1.22663E+03
 -1      3168-7.06117E+03-5.97958E+03-2.18263E+04-5.20713E-03-1.32799E-03-1.13725E+03
 -1      3169-8.85608E+03-6.83495E+03-2.60055E+04 6.91183E-04 1.78857E-04-3.10053E+02
 -1      3170-9.59290E+03-6.88097E+03-2.67523E+04-3.68887E-04 4.58548E-05 1.32251E+02
 -1      3171-9.68808E+03-6.74091E+03-2.65724E+04-1.18519E-05-8.60689E-06 2.34415E+02
 -1      3172-9.65692E+03-6.63026E+03-2.62561E+04-5.04602E-05 4.53709E-06 2.34444E+02
 -1      3173-9.66813E+03-6.59660E+03-2.61010E+04-1.80468E-05-6.63050E-06 2.23188E+02
 -1      3174-9.69548E+03-6.58863E+03-2.60361E+04-1.00255E-05-8.97430E-06 2.19754E+02
 -1      3175-9.72514E+03-6.58998E+03-2.60210E+04-3.53172E-06-1.09051E-05 2.21083E+02
 -1      3176-9.74556E+03-6.59164E+03-2.60209E+04-7.80255E-07-1.20635E-05 2.23558E+02
 -1      3177-9.75758E+03-6.59304E+03-2.60252E+04 9.65046E-08-1.21686E-05 2.25685E+02
 -1      3178-9.76312E+03-6.59458E+03-2.60293E+04 8.74660E-07-1.42344E-05 2.27635E+02
 -1      3179-9.76173E+03-6.59681E+03-2.60266E+04 2.12618E-06-1.18461E-05 2.31359E+02
 -1      3180-9.73853E+03-6.59281E+03-2.59896E+04 1.27888E-06-9.25656E-06 2.42124E+02
 -1      3181-9.66545E+03-6.56679E+03-2.58707E+04 7.56382E-07-1.06625E-05 2.68865E+02
 -1      3182-9.48025E+03-6.45610E+03-2.55522E+04 1.61230E-06-1.07211E-05 3.09552E+02
 -1      3183-9.26476E+03-6.27684E+03-2.51081E+04 1.73597E-06-9.47994E-06 2.89659E+02
 -1      3184-9.54792E+03-6.22034E+03-2.48665E+04 2.49352E-06-1.09441E-05-4.57251E+01
 -1      3185-9.63640E+03-6.50062E+03-2.64735E+04 1.06232E-07-1.03882E-05-4.44741E+02
 -1      3186-1.36216E+04-1.09267E+04-3.88792E+04-1.33159E-06-1.36202E-05 1.05310E+03
 -1      3187-6.55798E+03-4.33174E+03-1.78702E+04 1.36492E-06-1.07404E-05 2.62669E+03
 -1      3188-5.71248E+01 1.32597E+03 2.11283E+03-5.12012E-07 1.82700E-06 1.44672E+03
 -1      3189-4.20081E+02-2.83524E+01-4.78433E+02-1.83923E-06 1.90213E-06 9.36082E+01
 -1      3190-2.47348E+03-1.86048E+03-8.63230E+03 2.35455E+02 2.57670E+02-1.20793E+03
 -1      3191-6.72791E+03-5.12895E+03-2.14617E+04 2.00336E+02 7.74611E+02-1.10231E+03
 -1      3192-8.43671E+03-5.86075E+03-2.55102E+04 3.94603E+01 1.02122E+03-2.92435E+02
 -1      3193-9.14057E+03-5.89389E+03-2.62225E+04-3.09069E+01 1.03864E+03 1.32343E+02
 -1      3194-9.23384E+03-5.76913E+03-2.60389E+04-5.03117E+01 1.02175E+03 2.29607E+02
 -1      3195-9.20815E+03-5.67225E+03-2.57270E+04-5.05833E+01 1.00824E+03 2.29468E+02
 -1      3196-9.22292E+03-5.64409E+03-2.55741E+04-4.64652E+01 1.00249E+03 2.18632E+02
 -1      3197-9.25213E+03-5.63783E+03-2.55108E+04-4.38654E+01 1.00077E+03 2.15512E+02
 -1      3198-9.28238E+03-5.63939E+03-2.54962E+04-4.28461E+01 1.00068E+03 2.17002E+02
 -1      3199-9.30286E+03-5.64090E+03-2.54962E+04-4.26777E+01 1.00101E+03 2.19541E+02
 -1      3200-9.31475E+03-5.64207E+03-2.55005E+04-4.26982E+01 1.00140E+03 2.21687E+02
 -1      3201-9.32021E+03-5.64339E+03-2.55046E+04-4.28346E+01 1.00180E+03 2.23630E+02
 -1      3202-9.31885E+03-5.64532E+03-2.55019E+04-4.34733E+01 1.00204E+03 2.27267E+02
 -1      3203-9.29660E+03-5.64226E+03-2.54663E+04-4.54561E+01 1.00138E+03 2.37775E+02
 -1      3204-9.22561E+03-5.61969E+03-2.53493E+04-4.82552E+01 9.96985E+02 2.64121E+02
 -1      3205-9.04500E+03-5.52259E+03-2.50347E+04-4.96522E+01 9.85778E+02 3.03900E+02
 -1      3206-8.83560E+03-5.36757E+03-2.46010E+04-4.24913E+01 9.56128E+02 2.87583E+02
 -1      3207-9.10366E+03-5.31839E+03-2.43462E+04-7.95836E+00 9.36622E+02-3.28450E+01
 -1      3208-9.18075E+03-5.57090E+03-2.58872E+04 9.27122E+01 1.15618E+03-4.35838E+02
 -1      3209-1.29485E+04-9.46235E+03-3.79693E+04-1.13489E+02 1.55567E+03 1.03391E+03
 -1      3210-6.23733E+03-3.76217E+03-1.73582E+04-4.30250E+02 8.73319E+02 2.57053E+03
 -1      3211-5.89599E+01 1.20246E+03 2.08164E+03-2.19145E+02-9.01083E+01 1.39129E+03
 -1      3212-3.96540E+02-1.54444E+01-4.78351E+02 1.83923E+01-7.97492E+01 8.20475E+01
 -1      3213-2.47238E+03-1.68870E+03-8.67720E+03 6.07572E+02 9.02168E+02-1.03689E+03
 -1      3214-6.47340E+03-4.64706E+03-2.07457E+04 4.80735E+02 2.35260E+03-9.20169E+02
 -1      3215-8.02008E+03-5.30130E+03-2.44464E+04 8.28399E+01 2.91616E+03-2.27200E+02
 -1      3216-8.63077E+03-5.32376E+03-2.50681E+04-6.54976E+01 2.94873E+03 1.25517E+02
 -1      3217-8.70683E+03-5.21421E+03-2.48673E+04-1.02490E+02 2.90236E+03 2.06455E+02
 -1      3218-8.68672E+03-5.12854E+03-2.45598E+04-1.00229E+02 2.86299E+03 2.06851E+02
 -1      3219-8.70760E+03-5.10338E+03-2.44114E+04-9.00925E+01 2.84615E+03 1.98715E+02
 -1      3220-8.74104E+03-5.09794E+03-2.43521E+04-8.43279E+01 2.84090E+03 1.97330E+02
 -1      3221-8.77280E+03-5.09949E+03-2.43390E+04-8.21493E+01 2.84032E+03 1.99596E+02
 -1      3222-8.79373E+03-5.10116E+03-2.43396E+04-8.17796E+01 2.84099E+03 2.02412E+02
 -1      3223-8.80560E+03-5.10251E+03-2.43440E+04-8.18017E+01 2.84190E+03 2.04647E+02
 -1      3224-8.81102E+03-5.10397E+03-2.43482E+04-8.20329E+01 2.84288E+03 2.06537E+02
 -1      3225-8.81034E+03-5.10596E+03-2.43467E+04-8.33728E+01 2.84343E+03 2.09790E+02
 -1      3226-8.78961E+03-5.10302E+03-2.43127E+04-8.75355E+01 2.84137E+03 2.18942E+02
 -1      3227-8.72355E+03-5.08380E+03-2.42045E+04-9.54511E+01 2.82992E+03 2.42567E+02
 -1      3228-8.54560E+03-4.99691E+03-2.38899E+04-1.01919E+02 2.79432E+03 2.77824E+02
 -1      3229-8.33300E+03-4.86219E+03-2.34714E+04-9.02741E+01 2.72234E+03 2.68390E+02
 -1      3230-8.54486E+03-4.81285E+03-2.31972E+04-3.23563E+01 2.64634E+03 4.53560E+00
 -1      3231-8.58017E+03-4.98322E+03-2.44677E+04 3.01122E+02 3.07683E+03-3.55709E+02
 -1      3232-1.22781E+04-8.57259E+03-3.61395E+04-2.82334E+02 4.34845E+03 9.16888E+02
 -1      3233-5.67933E+03-3.36910E+03-1.58617E+04-1.14549E+03 2.13483E+03 2.20081E+03
 -1      3234 5.41411E+01 1.09574E+03 2.02733E+03-4.87439E+02-3.14075E+02 1.14708E+03
 -1      3235-3.45966E+02-3.55997E+01-4.96664E+02 7.50920E+01-1.19904E+02 6.12904E+01
 -1      3236-1.29860E+03-1.13435E+03-5.09560E+03 8.36374E+02 1.30011E+03-5.54515E+02
 -1      3237-3.47438E+03-3.22155E+03-1.14566E+04 6.38020E+02 3.22408E+03-5.19722E+02
 -1      3238-4.40779E+03-3.67903E+03-1.35599E+04 1.02590E+02 3.90511E+03-1.45979E+02
 -1      3239-4.81854E+03-3.68736E+03-1.39668E+04-8.45226E+01 3.93073E+03 6.18345E+01
 -1      3240-4.90139E+03-3.60310E+03-1.38515E+04-1.29278E+02 3.86165E+03 1.14237E+02
 -1      3241-4.92750E+03-3.54068E+03-1.36671E+04-1.23208E+02 3.80505E+03 1.18232E+02
 -1      3242-4.97543E+03-3.52271E+03-1.35775E+04-1.08705E+02 3.78170E+03 1.17683E+02
 -1      3243-5.02136E+03-3.51892E+03-1.35414E+04-1.01110E+02 3.77442E+03 1.20624E+02
 -1      3244-5.05630E+03-3.52015E+03-1.35331E+04-9.83657E+01 3.77343E+03 1.24695E+02
 -1      3245-5.07704E+03-3.52120E+03-1.35325E+04-9.79598E+01 3.77403E+03 1.28117E+02
 -1      3246-5.08763E+03-3.52193E+03-1.35338E+04-9.80055E+01 3.77494E+03 1.30524E+02
 -1      3247-5.09173E+03-3.52270E+03-1.35349E+04-9.82218E+01 3.77597E+03 1.32301E+02
 -1      3248-5.09098E+03-3.52387E+03-1.35325E+04-9.99254E+01 3.77663E+03 1.34659E+02
 -1      3249-5.07623E+03-3.52156E+03-1.35100E+04-1.05150E+02 3.77382E+03 1.40783E+02
 -1      3250-5.02754E+03-3.50726E+03-1.34426E+04-1.17161E+02 3.75919E+03 1.56871E+02
 -1      3251-4.89350E+03-3.44533E+03-1.32521E+04-1.28158E+02 3.70764E+03 1.81894E+02
 -1      3252-4.73810E+03-3.34760E+03-1.30252E+04-1.16547E+02 3.61126E+03 1.76855E+02
 -1      3253-4.83645E+03-3.29438E+03-1.28770E+04-4.66043E+01 3.48641E+03 1.83445E+01
 -1      3254-4.95633E+03-3.49241E+03-1.38735E+04 4.58057E+02 4.01082E+03-1.47362E+02
 -1      3255-6.96409E+03-5.99345E+03-1.96510E+04-4.01734E+02 5.81481E+03 5.50144E+02
 -1      3256-3.15733E+03-2.30354E+03-8.48977E+03-1.59139E+03 2.61989E+03 1.19892E+03
 -1      3257-3.62106E+01 7.74549E+02 7.23701E+02-6.06646E+02-4.85307E+02 6.46257E+02
 -1      3258-1.42855E+02 1.21382E+01-1.78549E+02 1.17668E+02-1.32273E+02 5.83380E+01
 -1      3259-1.46427E+02-6.69555E+02-1.41460E+03 5.96867E+02 7.75627E+02-9.78941E+01
 -1      3260-6.14058E+02-1.95473E+03-2.49886E+03 4.50695E+02 1.89715E+03-1.49788E+02
 -1      3261-9.58089E+02-2.24280E+03-3.11568E+03 7.03111E+01 2.28655E+03-7.25651E+01
 -1      3262-1.15823E+03-2.22905E+03-3.25773E+03-7.41349E+01 2.26907E+03 1.51596E-01
 -1      3263-1.26038E+03-2.17241E+03-3.23732E+03-1.07250E+02 2.21051E+03 2.42164E+01
 -1      3264-1.34335E+03-2.13454E+03-3.18884E+03-1.01110E+02 2.17127E+03 3.20602E+01
 -1      3265-1.42270E+03-2.12354E+03-3.16229E+03-8.92515E+01 2.15698E+03 3.92367E+01
 -1      3266-1.48367E+03-2.12240E+03-3.15448E+03-8.32929E+01 2.15320E+03 4.65413E+01
 -1      3267-1.52290E+03-2.12398E+03-3.15422E+03-8.13542E+01 2.15291E+03 5.24945E+01
 -1      3268-1.54466E+03-2.12531E+03-3.15579E+03-8.12040E+01 2.15327E+03 5.65896E+01
 -1      3269-1.55507E+03-2.12626E+03-3.15731E+03-8.13095E+01 2.15368E+03 5.92269E+01
 -1      3270-1.55893E+03-2.12720E+03-3.15863E+03-8.14482E+01 2.15424E+03 6.09479E+01
 -1      3271-1.55887E+03-2.12834E+03-3.15849E+03-8.26840E+01 2.15489E+03 6.24795E+01
 -1      3272-1.55177E+03-2.12749E+03-3.15215E+03-8.67312E+01 2.15408E+03 6.57571E+01
 -1      3273-1.52195E+03-2.11799E+03-3.12742E+03-9.63939E+01 2.14629E+03 7.42808E+01
 -1      3274-1.44112E+03-2.08254E+03-3.07686E+03-1.04318E+02 2.11344E+03 8.92603E+01
 -1      3275-1.33964E+03-2.01960E+03-3.03717E+03-9.68683E+01 2.04388E+03 8.76690E+01
 -1      3276-1.33656E+03-1.97922E+03-3.07069E+03-2.55650E+01 1.94036E+03 3.24191E+01
 -1      3277-1.44069E+03-2.14475E+03-3.55937E+03 3.10094E+02 2.32822E+03 3.99920E+01
 -1      3278-1.85714E+03-3.57342E+03-3.86942E+03-3.14747E+02 3.47485E+03 1.71708E+02
 -1      3279-9.77204E+02-1.45106E+03-2.16156E+03-1.10833E+03 1.45509E+03 2.60337E+02
 -1      3280-5.95987E+01 4.81323E+02-2.59944E+02-4.25830E+02-3.99324E+02 1.94225E+02
 -1      3281 3.06247E+00 3.92194E+01 8.43182E+01 8.14538E+01-1.35112E+02 5.18520E+01
 -1      3282 5.69856E+01-5.02952E+02-5.73209E+02 2.52790E+02 9.29188E+01 7.96306E+01
 -1      3283-9.54812E+01-1.42027E+03-9.87239E+02 1.90971E+02 2.55523E+02 2.15961E+01
 -1      3284-2.04239E+02-1.62703E+03-1.18746E+03 3.52471E+01 3.07218E+02-9.29428E-01
 -1      3285-3.20798E+02-1.62522E+03-1.22568E+03-3.58782E+01 2.65989E+02-1.16214E+00
 -1      3286-4.32444E+02-1.58503E+03-1.19119E+03-5.29269E+01 2.37379E+02 1.33079E+00
 -1      3287-5.43248E+02-1.55689E+03-1.15863E+03-5.10342E+01 2.26238E+02 7.74675E+00
 -1      3288-6.38928E+02-1.54798E+03-1.14541E+03-4.57335E+01 2.24120E+02 1.75815E+01
 -1      3289-7.06207E+02-1.54664E+03-1.14396E+03-4.28664E+01 2.24523E+02 2.71616E+01
 -1      3290-7.46889E+02-1.54767E+03-1.14603E+03-4.20043E+01 2.25030E+02 3.43844E+01
 -1      3291-7.68573E+02-1.54857E+03-1.14800E+03-4.19916E+01 2.25274E+02 3.90949E+01
 -1      3292-7.78467E+02-1.54917E+03-1.14937E+03-4.20973E+01 2.25372E+02 4.19861E+01
 -1      3293-7.81499E+02-1.54970E+03-1.15059E+03-4.22217E+01 2.25576E+02 4.36798E+01
 -1      3294-7.80801E+02-1.55027E+03-1.15153E+03-4.28653E+01 2.26149E+02 4.47296E+01
 -1      3295-7.75402E+02-1.54881E+03-1.14922E+03-4.49703E+01 2.27284E+02 4.65369E+01
 -1      3296-7.53655E+02-1.54090E+03-1.13604E+03-4.92325E+01 2.27438E+02 5.21064E+01
 -1      3297-6.90880E+02-1.51465E+03-1.10711E+03-5.18942E+01 2.21257E+02 6.34996E+01
 -1      3298-5.90591E+02-1.47113E+03-1.08111E+03-4.74038E+01 1.96296E+02 7.06175E+01
 -1      3299-5.17624E+02-1.43955E+03-1.12966E+03-2.77068E+00 1.50350E+02 6.50386E+01
 -1      3300-5.32185E+02-1.57045E+03-1.34666E+03 9.61570E+01 2.93342E+02 6.77336E+01
 -1      3301-8.82869E+02-2.55049E+03-1.58129E+03-1.48391E+02 5.74448E+02-1.81308E+00
 -1      3302-3.75915E+02-9.91662E+02-7.84395E+02-4.28894E+02 1.70232E+02-7.92318E+01
 -1      3303 5.71250E+01 3.04453E+02 1.17981E+01-1.94389E+02-2.02008E+02-3.25586E+01
 -1      3304-2.00797E+01 1.84725E+01 8.67021E+01 1.88984E+01-9.02062E+01 2.72731E+00
 -3
    1PSTEP                        18           6           1          
  100CL  106 1.000000000        3304                     0    6           1
 -4  ERROR       1    1
 -5  STR(%)      1    1    0    0
 -1         1 1.53508E+01
 -1         2 2.20684E+01
 -1         3 1.53508E+01
 -1         4 2.20684E+01
 -1         5 1.35817E+01
 -1         6 1.33294E+01
 -1         7 1.28843E+01
 -1         8 1.28131E+01
 -1         9 1.35817E+01
 -1        10 1.33294E+01
 -1        11 1.53508E+01
 -1        12 2.20684E+01
 -1        13 1.53508E+01
 -1        14 2.20684E+01
 -1        15 1.68146E+01
 -1        16 2.20684E+01
 -1        17 1.68146E+01
 -1        18 2.20684E+01
 -1        19 1.49761E+01
 -1        20 1.69409E+01
 -1        21 1.43287E+01
 -1        22 1.69409E+01
 -1        23 1.49761E+01
 -1        24 1.69409E+01
 -1        25 1.68146E+01
 -1        26 2.20684E+01
 -1        27 1.68146E+01
 -1        28 2.20684E+01
 -1        29 1.88489E+01
 -1        30 1.42262E+01
 -1        31 1.88489E+01
 -1        32 2.27353E+01
 -1        33 1.72361E+01
 -1        34 2.31377E+01
 -1        35 1.63279E+01
 -1        36 2.31377E+01
 -1        37 1.72361E+01
 -1        38 2.31377E+01
 -1        39 1.88489E+01
 -1        40 2.27353E+01
 -1        41 1.88489E+01
 -1        42 1.42262E+01
 -1        43 2.19891E+01
 -1        44 1.80618E+01
 -1        45 2.19891E+01
 -1        46 3.05573E+01
 -1        47 2.03589E+01
 -1        48 3.05573E+01
 -1        49 1.89588E+01
 -1        50 2.90517E+01
 -1        51 2.03589E+01
 -1        52 3.05573E+01
 -1        53 2.19891E+01
 -1        54 3.05573E+01
 -1        55 2.19891E+01
 -1        56 1.80618E+01
 -1        57 2.85174E+01
 -1        58 3.92449E+01
 -1        59 2.85174E+01
 -1        60 3.92449E+01
 -1        61 2.41740E+01
 -1        62 3.70739E+01
 -1        63 2.28060E+01
 -1        64 2.90517E+01
 -1        65 2.41740E+01
 -1        66 3.70739E+01
 -1        67 2.85174E+01
 -1        68 3.92449E+01
 -1        69 2.85174E+01
 -1        70 3.92449E+01
 -1        71 3.89137E+01
 -1        72 3.92449E+01
 -1        73 3.89137E+01
 -1        74 3.92449E+01
 -1        75 2.96024E+01
 -1        76 3.70739E+01
 -1        77 2.79017E+01
 -1        78 2.78224E+01
 -1        79 2.96024E+01
 -1        80 3.70739E+01
 -1        81 3.89137E+01
 -1        82 3.92449E+01
 -1        83 3.89137E+01
 -1        84 3.92449E+01
 -1        85 3.89137E+01
 -1        86 3.82896E+01
 -1        87 3.89137E+01
 -1        88 3.82896E+01
 -1        89 2.96024E+01
 -1        90 3.04138E+01
 -1        91 2.79017E+01
 -1        92 2.78224E+01
 -1        93 2.96024E+01
 -1        94 3.04138E+01
 -1        95 3.89137E+01
 -1        96 3.82896E+01
 -1        97 3.89137E+01
 -1        98 3.82896E+01
 -1        99 1.53508E+01
 -1       100 1.53508E+01
 -1       101 3.22095E+00
 -1       102 3.22095E+00
 -1       103 9.21814E-01
 -1       104 9.21814E-01
 -1       105 3.03961E-01
 -1       106 3.03961E-01
 -1       107 2.42264E-01
 -1       108 2.42264E-01
 -1       109 1.08370E-01
 -1       110 1.08370E-01
 -1       111 4.10837E-02
 -1       112 4.10837E-02
 -1       113 4.89066E-02
 -1       114 4.89066E-02
 -1       115 4.98824E-02
 -1       116 4.98825E-02
 -1       117 4.98824E-02
 -1       118 4.98825E-02
 -1       119 4.97348E-02
 -1       120 4.97348E-02
 -1       121 4.95801E-02
 -1       122 4.95801E-02
 -1       123 4.69810E-02
 -1       124 4.69810E-02
 -1       125 7.69191E-02
 -1       126 7.69191E-02
 -1       127 2.12940E-01
 -1       128 2.12940E-01
 -1       129 4.35692E-01
 -1       130 4.35692E-01
 -1       131 4.35692E-01
 -1       132 4.35692E-01
 -1       133 3.38094E+00
 -1       134 3.38094E+00
 -1       135 2.20684E+01
 -1       136 2.20684E+01
 -1       137 1.68146E+01
 -1       138 1.68146E+01
 -1       139 3.50248E+00
 -1       140 3.50248E+00
 -1       141 9.21814E-01
 -1       142 9.21814E-01
 -1       143 3.83828E-01
 -1       144 3.83828E-01
 -1       145 2.81662E-01
 -1       146 2.81662E-01
 -1       147 1.28958E-01
 -1       148 1.28958E-01
 -1       149 1.09059E-01
 -1       150 1.09059E-01
 -1       151 1.15302E-01
 -1       152 1.15302E-01
 -1       153 1.15302E-01
 -1       154 1.15302E-01
 -1       155 1.14448E-01
 -1       156 1.14448E-01
 -1       157 1.12753E-01
 -1       158 1.12753E-01
 -1       159 1.10663E-01
 -1       160 1.10663E-01
 -1       161 1.06438E-01
 -1       162 1.06438E-01
 -1       163 1.36293E-01
 -1       164 1.36293E-01
 -1       165 3.01948E-01
 -1       166 3.01948E-01
 -1       167 7.01054E-01
 -1       168 7.01054E-01
 -1       169 9.65298E-01
 -1       170 9.65298E-01
 -1       171 3.38094E+00
 -1       172 3.38094E+00
 -1       173 2.20684E+01
 -1       174 2.20684E+01
 -1       175 1.88489E+01
 -1       176 1.88489E+01
 -1       177 3.74577E+00
 -1       178 3.74577E+00
 -1       179 7.67608E-01
 -1       180 7.67608E-01
 -1       181 7.60522E-01
 -1       182 7.60522E-01
 -1       183 4.99549E-01
 -1       184 4.99549E-01
 -1       185 3.91427E-01
 -1       186 3.91427E-01
 -1       187 4.16059E-01
 -1       188 4.16059E-01
 -1       189 4.18160E-01
 -1       190 4.18160E-01
 -1       191 4.18160E-01
 -1       192 4.18160E-01
 -1       193 4.15326E-01
 -1       194 4.15325E-01
 -1       195 4.11906E-01
 -1       196 4.11906E-01
 -1       197 4.07924E-01
 -1       198 4.07924E-01
 -1       199 4.02232E-01
 -1       200 4.02232E-01
 -1       201 4.20771E-01
 -1       202 4.20771E-01
 -1       203 5.56773E-01
 -1       204 5.56773E-01
 -1       205 1.04184E+00
 -1       206 1.04184E+00
 -1       207 1.55343E+00
 -1       208 1.55343E+00
 -1       209 2.21028E+00
 -1       210 2.21028E+00
 -1       211 1.42262E+01
 -1       212 1.42262E+01
 -1       213 2.19891E+01
 -1       214 2.19891E+01
 -1       215 3.87775E+00
 -1       216 3.87775E+00
 -1       217 1.43179E+00
 -1       218 1.43179E+00
 -1       219 1.43179E+00
 -1       220 1.43179E+00
 -1       221 1.08065E+00
 -1       222 1.08065E+00
 -1       223 1.14352E+00
 -1       224 1.14352E+00
 -1       225 1.15028E+00
 -1       226 1.15028E+00
 -1       227 1.15028E+00
 -1       228 1.15028E+00
 -1       229 1.14678E+00
 -1       230 1.14678E+00
 -1       231 1.14057E+00
 -1       232 1.14057E+00
 -1       233 1.13471E+00
 -1       234 1.13471E+00
 -1       235 1.12807E+00
 -1       236 1.12807E+00
 -1       237 1.11913E+00
 -1       238 1.11913E+00
 -1       239 1.11798E+00
 -1       240 1.11798E+00
 -1       241 1.19747E+00
 -1       242 1.19747E+00
 -1       243 1.52736E+00
 -1       244 1.52736E+00
 -1       245 2.76183E+00
 -1       246 2.76183E+00
 -1       247 2.76183E+00
 -1       248 2.76183E+00
 -1       249 1.80618E+01
 -1       250 1.80618E+01
 -1       251 2.85174E+01
 -1       252 2.85174E+01
 -1       253 4.26899E+00
 -1       254 4.26899E+00
 -1       255 4.26899E+00
 -1       256 4.26899E+00
 -1       257 3.26836E+00
 -1       258 3.26836E+00
 -1       259 2.89698E+00
 -1       260 2.89698E+00
 -1       261 2.86776E+00
 -1       262 2.86776E+00
 -1       263 2.86012E+00
 -1       264 2.86012E+00
 -1       265 2.84771E+00
 -1       266 2.84771E+00
 -1       267 2.83397E+00
 -1       268 2.83397E+00
 -1       269 2.82277E+00
 -1       270 2.82277E+00
 -1       271 2.81246E+00
 -1       272 2.81246E+00
 -1       273 2.80100E+00
 -1       274 2.80100E+00
 -1       275 2.78714E+00
 -1       276 2.78714E+00
 -1       277 2.77209E+00
 -1       278 2.77209E+00
 -1       279 2.83103E+00
 -1       280 2.83103E+00
 -1       281 3.05014E+00
 -1       282 3.05014E+00
 -1       283 3.98704E+00
 -1       284 3.98704E+00
 -1       285 8.67220E+00
 -1       286 8.67220E+00
 -1       287 3.92449E+01
 -1       288 3.92449E+01
 -1       289 3.89137E+01
 -1       290 3.89137E+01
 -1       291 3.67926E+01
 -1       292 3.67926E+01
 -1       293 1.31434E+01
 -1       294 1.31434E+01
 -1       295 1.19004E+01
 -1       296 1.19004E+01
 -1       297 1.19004E+01
 -1       298 1.19004E+01
 -1       299 1.15171E+01
 -1       300 1.15171E+01
 -1       301 1.13286E+01
 -1       302 1.13286E+01
 -1       303 1.12152E+01
 -1       304 1.12152E+01
 -1       305 1.11474E+01
 -1       306 1.11474E+01
 -1       307 1.10916E+01
 -1       308 1.10916E+01
 -1       309 1.10379E+01
 -1       310 1.10379E+01
 -1       311 1.09819E+01
 -1       312 1.09819E+01
 -1       313 1.09190E+01
 -1       314 1.09190E+01
 -1       315 1.08487E+01
 -1       316 1.08487E+01
 -1       317 1.07565E+01
 -1       318 1.07565E+01
 -1       319 1.07335E+01
 -1       320 1.07335E+01
 -1       321 1.22029E+01
 -1       322 1.22029E+01
 -1       323 1.89602E+01
 -1       324 1.89602E+01
 -1       325 3.92449E+01
 -1       326 3.92449E+01
 -1       327 3.89137E+01
 -1       328 3.89137E+01
 -1       329 3.67926E+01
 -1       330 3.67926E+01
 -1       331 1.31434E+01
 -1       332 1.31434E+01
 -1       333 1.19004E+01
 -1       334 1.19004E+01
 -1       335 1.19004E+01
 -1       336 1.19004E+01
 -1       337 1.15171E+01
 -1       338 1.15171E+01
 -1       339 1.13286E+01
 -1       340 1.13286E+01
 -1       341 1.12152E+01
 -1       342 1.12152E+01
 -1       343 1.11474E+01
 -1       344 1.11474E+01
 -1       345 1.10916E+01
 -1       346 1.10916E+01
 -1       347 1.10379E+01
 -1       348 1.10379E+01
 -1       349 1.09819E+01
 -1       350 1.09819E+01
 -1       351 1.09190E+01
 -1       352 1.09190E+01
 -1       353 1.08487E+01
 -1       354 1.08487E+01
 -1       355 1.07565E+01
 -1       356 1.07565E+01
 -1       357 1.07335E+01
 -1       358 1.07335E+01
 -1       359 1.22029E+01
 -1       360 1.22029E+01
 -1       361 1.89602E+01
 -1       362 1.89602E+01
 -1       363 3.82896E+01
 -1       364 3.82896E+01
 -1       365 1.53508E+01
 -1       366 3.89137E+01
 -1       367 3.22095E+00
 -1       368 3.67926E+01
 -1       369 9.21814E-01
 -1       370 1.31434E+01
 -1       371 3.03961E-01
 -1       372 1.19004E+01
 -1       373 3.00719E-01
 -1       374 1.19004E+01
 -1       375 1.98566E-01
 -1       376 1.15171E+01
 -1       377 1.35317E-01
 -1       378 1.13286E+01
 -1       379 1.33683E-01
 -1       380 1.12152E+01
 -1       381 1.34773E-01
 -1       382 1.11474E+01
 -1       383 1.35071E-01
 -1       384 1.10916E+01
 -1       385 1.35409E-01
 -1       386 1.10379E+01
 -1       387 1.35409E-01
 -1       388 1.09819E+01
 -1       389 1.33150E-01
 -1       390 1.09190E+01
 -1       391 1.47191E-01
 -1       392 1.08487E+01
 -1       393 2.27091E-01
 -1       394 1.07565E+01
 -1       395 4.73763E-01
 -1       396 1.07335E+01
 -1       397 4.73763E-01
 -1       398 1.22029E+01
 -1       399 3.38094E+00
 -1       400 1.89602E+01
 -1       401 2.20684E+01
 -1       402 3.82896E+01
 -1       403 1.35817E+01
 -1       404 2.96024E+01
 -1       405 2.78315E+00
 -1       406 7.95153E+00
 -1       407 7.64749E-01
 -1       408 2.50919E+00
 -1       409 3.00719E-01
 -1       410 2.54683E+00
 -1       411 3.00719E-01
 -1       412 2.54683E+00
 -1       413 1.98566E-01
 -1       414 2.49846E+00
 -1       415 1.35317E-01
 -1       416 2.46512E+00
 -1       417 1.33683E-01
 -1       418 2.44597E+00
 -1       419 1.34773E-01
 -1       420 2.43491E+00
 -1       421 1.35071E-01
 -1       422 2.42730E+00
 -1       423 1.35409E-01
 -1       424 2.42015E+00
 -1       425 1.35409E-01
 -1       426 2.41169E+00
 -1       427 1.33150E-01
 -1       428 2.40003E+00
 -1       429 1.47191E-01
 -1       430 2.38724E+00
 -1       431 2.27091E-01
 -1       432 2.44878E+00
 -1       433 4.73763E-01
 -1       434 2.55365E+00
 -1       435 4.73763E-01
 -1       436 2.98904E+00
 -1       437 2.44599E+00
 -1       438 1.11590E+01
 -1       439 1.33294E+01
 -1       440 3.04138E+01
 -1       441 1.28843E+01
 -1       442 2.79017E+01
 -1       443 2.73413E+00
 -1       444 7.95153E+00
 -1       445 6.23621E-01
 -1       446 1.41689E+00
 -1       447 2.74978E-01
 -1       448 1.63107E+00
 -1       449 2.74978E-01
 -1       450 1.63107E+00
 -1       451 1.91944E-01
 -1       452 1.58181E+00
 -1       453 1.25708E-01
 -1       454 1.55241E+00
 -1       455 1.25524E-01
 -1       456 1.53172E+00
 -1       457 1.26799E-01
 -1       458 1.52177E+00
 -1       459 1.27178E-01
 -1       460 1.51599E+00
 -1       461 1.27589E-01
 -1       462 1.51105E+00
 -1       463 1.27589E-01
 -1       464 1.50447E+00
 -1       465 1.25385E-01
 -1       466 1.49419E+00
 -1       467 1.41248E-01
 -1       468 1.47898E+00
 -1       469 2.01556E-01
 -1       470 1.52294E+00
 -1       471 3.43033E-01
 -1       472 1.80658E+00
 -1       473 3.43033E-01
 -1       474 2.38521E+00
 -1       475 1.92002E+00
 -1       476 8.32199E+00
 -1       477 1.28131E+01
 -1       478 2.78224E+01
 -1       479 1.35817E+01
 -1       480 2.96024E+01
 -1       481 2.78315E+00
 -1       482 7.95153E+00
 -1       483 7.64749E-01
 -1       484 2.50919E+00
 -1       485 3.00719E-01
 -1       486 2.54683E+00
 -1       487 3.00719E-01
 -1       488 2.54683E+00
 -1       489 1.98566E-01
 -1       490 2.49846E+00
 -1       491 1.35317E-01
 -1       492 2.46512E+00
 -1       493 1.33683E-01
 -1       494 2.44597E+00
 -1       495 1.34773E-01
 -1       496 2.43491E+00
 -1       497 1.35071E-01
 -1       498 2.42730E+00
 -1       499 1.35409E-01
 -1       500 2.42015E+00
 -1       501 1.35409E-01
 -1       502 2.41169E+00
 -1       503 1.33150E-01
 -1       504 2.40003E+00
 -1       505 1.47191E-01
 -1       506 2.38724E+00
 -1       507 2.27091E-01
 -1       508 2.44878E+00
 -1       509 4.73763E-01
 -1       510 2.55365E+00
 -1       511 4.73763E-01
 -1       512 2.98904E+00
 -1       513 2.44599E+00
 -1       514 1.11590E+01
 -1       515 1.33294E+01
 -1       516 3.04138E+01
 -1       517 1.53508E+01
 -1       518 3.89137E+01
 -1       519 3.22095E+00
 -1       520 3.67926E+01
 -1       521 9.21814E-01
 -1       522 1.31434E+01
 -1       523 3.03961E-01
 -1       524 1.19004E+01
 -1       525 3.00719E-01
 -1       526 1.19004E+01
 -1       527 1.98566E-01
 -1       528 1.15171E+01
 -1       529 1.35317E-01
 -1       530 1.13286E+01
 -1       531 1.33683E-01
 -1       532 1.12152E+01
 -1       533 1.34773E-01
 -1       534 1.11474E+01
 -1       535 1.35071E-01
 -1       536 1.10916E+01
 -1       537 1.35409E-01
 -1       538 1.10379E+01
 -1       539 1.35409E-01
 -1       540 1.09819E+01
 -1       541 1.33150E-01
 -1       542 1.09190E+01
 -1       543 1.47191E-01
 -1       544 1.08487E+01
 -1       545 2.27091E-01
 -1       546 1.07565E+01
 -1       547 4.73763E-01
 -1       548 1.07335E+01
 -1       549 4.73763E-01
 -1       550 1.22029E+01
 -1       551 3.38094E+00
 -1       552 1.89602E+01
 -1       553 2.20684E+01
 -1       554 3.82896E+01
 -1       555 1.68146E+01
 -1       556 3.50248E+00
 -1       557 9.21814E-01
 -1       558 5.31881E-01
 -1       559 5.31881E-01
 -1       560 3.80241E-01
 -1       561 3.04347E-01
 -1       562 2.99173E-01
 -1       563 3.00286E-01
 -1       564 3.00932E-01
 -1       565 3.01872E-01
 -1       566 3.01872E-01
 -1       567 3.00478E-01
 -1       568 2.90301E-01
 -1       569 3.08451E-01
 -1       570 7.10915E-01
 -1       571 9.65298E-01
 -1       572 3.38094E+00
 -1       573 2.20684E+01
 -1       574 1.49761E+01
 -1       575 2.98426E+00
 -1       576 8.68708E-01
 -1       577 5.83568E-01
 -1       578 5.31881E-01
 -1       579 3.80241E-01
 -1       580 3.04347E-01
 -1       581 2.99173E-01
 -1       582 3.00286E-01
 -1       583 3.00932E-01
 -1       584 3.01872E-01
 -1       585 3.01872E-01
 -1       586 3.00478E-01
 -1       587 2.90301E-01
 -1       588 3.08451E-01
 -1       589 7.10915E-01
 -1       590 7.91817E-01
 -1       591 2.44599E+00
 -1       592 1.69409E+01
 -1       593 1.43287E+01
 -1       594 2.81600E+00
 -1       595 7.27614E-01
 -1       596 5.83568E-01
 -1       597 4.93285E-01
 -1       598 3.62790E-01
 -1       599 2.84734E-01
 -1       600 2.81445E-01
 -1       601 2.82780E-01
 -1       602 2.83517E-01
 -1       603 2.84533E-01
 -1       604 2.84533E-01
 -1       605 2.83209E-01
 -1       606 2.77211E-01
 -1       607 2.77211E-01
 -1       608 4.34933E-01
 -1       609 5.28353E-01
 -1       610 1.92002E+00
 -1       611 1.69409E+01
 -1       612 1.49761E+01
 -1       613 2.98426E+00
 -1       614 8.68708E-01
 -1       615 5.83568E-01
 -1       616 5.31881E-01
 -1       617 3.80241E-01
 -1       618 3.04347E-01
 -1       619 2.99173E-01
 -1       620 3.00286E-01
 -1       621 3.00932E-01
 -1       622 3.01872E-01
 -1       623 3.01872E-01
 -1       624 3.00478E-01
 -1       625 2.90301E-01
 -1       626 3.08451E-01
 -1       627 7.10915E-01
 -1       628 7.91817E-01
 -1       629 2.44599E+00
 -1       630 1.69409E+01
 -1       631 1.68146E+01
 -1       632 3.50248E+00
 -1       633 9.21814E-01
 -1       634 5.31881E-01
 -1       635 5.31881E-01
 -1       636 3.80241E-01
 -1       637 3.04347E-01
 -1       638 2.99173E-01
 -1       639 3.00286E-01
 -1       640 3.00932E-01
 -1       641 3.01872E-01
 -1       642 3.01872E-01
 -1       643 3.00478E-01
 -1       644 2.90301E-01
 -1       645 3.08451E-01
 -1       646 7.10915E-01
 -1       647 9.65298E-01
 -1       648 3.38094E+00
 -1       649 2.20684E+01
 -1       650 1.88489E+01
 -1       651 3.74577E+00
 -1       652 1.13363E+00
 -1       653 9.92078E-01
 -1       654 8.34600E-01
 -1       655 6.71978E-01
 -1       656 5.98064E-01
 -1       657 5.94682E-01
 -1       658 5.95251E-01
 -1       659 5.95639E-01
 -1       660 5.96398E-01
 -1       661 5.96398E-01
 -1       662 5.96124E-01
 -1       663 5.83680E-01
 -1       664 5.58632E-01
 -1       665 1.04184E+00
 -1       666 1.55343E+00
 -1       667 2.21028E+00
 -1       668 2.27353E+01
 -1       669 1.72361E+01
 -1       670 3.07267E+00
 -1       671 1.13363E+00
 -1       672 9.92078E-01
 -1       673 8.34600E-01
 -1       674 6.71978E-01
 -1       675 5.98064E-01
 -1       676 5.94682E-01
 -1       677 5.95251E-01
 -1       678 5.95639E-01
 -1       679 5.96398E-01
 -1       680 5.96398E-01
 -1       681 5.96124E-01
 -1       682 5.83680E-01
 -1       683 5.58632E-01
 -1       684 9.23088E-01
 -1       685 1.35079E+00
 -1       686 2.10103E+00
 -1       687 2.31377E+01
 -1       688 1.63279E+01
 -1       689 2.81600E+00
 -1       690 9.07851E-01
 -1       691 9.07851E-01
 -1       692 6.59729E-01
 -1       693 5.20286E-01
 -1       694 4.46061E-01
 -1       695 4.45495E-01
 -1       696 4.46713E-01
 -1       697 4.47573E-01
 -1       698 4.48771E-01
 -1       699 4.49045E-01
 -1       700 4.49045E-01
 -1       701 4.37184E-01
 -1       702 4.17954E-01
 -1       703 4.67556E-01
 -1       704 9.27250E-01
 -1       705 1.59682E+00
 -1       706 2.31377E+01
 -1       707 1.72361E+01
 -1       708 3.07267E+00
 -1       709 1.13363E+00
 -1       710 9.92078E-01
 -1       711 8.34600E-01
 -1       712 6.71978E-01
 -1       713 5.98064E-01
 -1       714 5.94682E-01
 -1       715 5.95251E-01
 -1       716 5.95639E-01
 -1       717 5.96398E-01
 -1       718 5.96398E-01
 -1       719 5.96124E-01
 -1       720 5.83680E-01
 -1       721 5.58632E-01
 -1       722 9.23088E-01
 -1       723 1.35079E+00
 -1       724 2.10103E+00
 -1       725 2.31377E+01
 -1       726 1.88489E+01
 -1       727 3.74577E+00
 -1       728 1.13363E+00
 -1       729 9.92078E-01
 -1       730 8.34600E-01
 -1       731 6.71978E-01
 -1       732 5.98064E-01
 -1       733 5.94682E-01
 -1       734 5.95251E-01
 -1       735 5.95639E-01
 -1       736 5.96398E-01
 -1       737 5.96398E-01
 -1       738 5.96124E-01
 -1       739 5.83680E-01
 -1       740 5.58632E-01
 -1       741 1.04184E+00
 -1       742 1.55343E+00
 -1       743 2.21028E+00
 -1       744 2.27353E+01
 -1       745 2.19891E+01
 -1       746 3.87775E+00
 -1       747 1.98137E+00
 -1       748 1.52538E+00
 -1       749 1.18822E+00
 -1       750 1.14352E+00
 -1       751 1.15028E+00
 -1       752 1.15028E+00
 -1       753 1.14678E+00
 -1       754 1.14057E+00
 -1       755 1.13471E+00
 -1       756 1.12807E+00
 -1       757 1.11913E+00
 -1       758 1.11798E+00
 -1       759 1.19747E+00
 -1       760 1.52736E+00
 -1       761 2.76183E+00
 -1       762 2.76183E+00
 -1       763 3.05573E+01
 -1       764 2.03589E+01
 -1       765 3.07267E+00
 -1       766 1.98137E+00
 -1       767 1.52538E+00
 -1       768 1.18822E+00
 -1       769 1.04557E+00
 -1       770 9.90470E-01
 -1       771 9.78455E-01
 -1       772 9.77404E-01
 -1       773 9.77251E-01
 -1       774 9.76824E-01
 -1       775 9.76824E-01
 -1       776 9.76802E-01
 -1       777 9.71581E-01
 -1       778 9.27634E-01
 -1       779 1.04713E+00
 -1       780 2.09329E+00
 -1       781 2.09329E+00
 -1       782 3.05573E+01
 -1       783 1.89588E+01
 -1       784 2.72037E+00
 -1       785 1.33385E+00
 -1       786 9.35665E-01
 -1       787 6.59729E-01
 -1       788 5.20286E-01
 -1       789 4.46061E-01
 -1       790 4.45495E-01
 -1       791 4.46713E-01
 -1       792 4.47573E-01
 -1       793 4.48771E-01
 -1       794 4.49045E-01
 -1       795 4.49045E-01
 -1       796 4.37184E-01
 -1       797 4.17954E-01
 -1       798 5.78080E-01
 -1       799 1.51461E+00
 -1       800 1.89085E+00
 -1       801 2.90517E+01
 -1       802 2.03589E+01
 -1       803 3.07267E+00
 -1       804 1.98137E+00
 -1       805 1.52538E+00
 -1       806 1.18822E+00
 -1       807 1.04557E+00
 -1       808 9.90470E-01
 -1       809 9.78455E-01
 -1       810 9.77404E-01
 -1       811 9.77251E-01
 -1       812 9.76824E-01
 -1       813 9.76824E-01
 -1       814 9.76802E-01
 -1       815 9.71581E-01
 -1       816 9.27634E-01
 -1       817 1.04713E+00
 -1       818 2.09329E+00
 -1       819 2.09329E+00
 -1       820 3.05573E+01
 -1       821 2.19891E+01
 -1       822 3.87775E+00
 -1       823 1.98137E+00
 -1       824 1.52538E+00
 -1       825 1.18822E+00
 -1       826 1.14352E+00
 -1       827 1.15028E+00
 -1       828 1.15028E+00
 -1       829 1.14678E+00
 -1       830 1.14057E+00
 -1       831 1.13471E+00
 -1       832 1.12807E+00
 -1       833 1.11913E+00
 -1       834 1.11798E+00
 -1       835 1.19747E+00
 -1       836 1.52736E+00
 -1       837 2.76183E+00
 -1       838 2.76183E+00
 -1       839 3.05573E+01
 -1       840 2.85174E+01
 -1       841 4.26899E+00
 -1       842 4.26899E+00
 -1       843 3.26836E+00
 -1       844 2.89698E+00
 -1       845 2.86776E+00
 -1       846 2.86012E+00
 -1       847 2.84771E+00
 -1       848 2.83397E+00
 -1       849 2.82277E+00
 -1       850 2.81246E+00
 -1       851 2.80100E+00
 -1       852 2.78714E+00
 -1       853 2.77209E+00
 -1       854 2.83103E+00
 -1       855 3.05014E+00
 -1       856 3.98704E+00
 -1       857 8.67220E+00
 -1       858 3.92449E+01
 -1       859 2.41740E+01
 -1       860 2.75620E+00
 -1       861 2.75620E+00
 -1       862 1.52538E+00
 -1       863 1.18822E+00
 -1       864 1.04557E+00
 -1       865 9.90470E-01
 -1       866 9.78455E-01
 -1       867 9.77404E-01
 -1       868 9.77251E-01
 -1       869 9.76824E-01
 -1       870 9.76824E-01
 -1       871 9.76802E-01
 -1       872 9.71581E-01
 -1       873 9.27634E-01
 -1       874 1.11776E+00
 -1       875 2.09329E+00
 -1       876 5.36537E+00
 -1       877 3.70739E+01
 -1       878 2.28060E+01
 -1       879 2.21089E+00
 -1       880 1.33385E+00
 -1       881 9.35665E-01
 -1       882 6.96545E-01
 -1       883 7.09123E-01
 -1       884 7.09123E-01
 -1       885 7.08358E-01
 -1       886 7.03114E-01
 -1       887 6.98917E-01
 -1       888 6.95052E-01
 -1       889 6.89906E-01
 -1       890 6.82158E-01
 -1       891 6.85535E-01
 -1       892 7.88561E-01
 -1       893 1.02778E+00
 -1       894 1.69312E+00
 -1       895 5.36537E+00
 -1       896 2.90517E+01
 -1       897 2.41740E+01
 -1       898 2.75620E+00
 -1       899 2.75620E+00
 -1       900 1.52538E+00
 -1       901 1.18822E+00
 -1       902 1.04557E+00
 -1       903 9.90470E-01
 -1       904 9.78455E-01
 -1       905 9.77404E-01
 -1       906 9.77251E-01
 -1       907 9.76824E-01
 -1       908 9.76824E-01
 -1       909 9.76802E-01
 -1       910 9.71581E-01
 -1       911 9.27634E-01
 -1       912 1.11776E+00
 -1       913 2.09329E+00
 -1       914 5.36537E+00
 -1       915 3.70739E+01
 -1       916 2.85174E+01
 -1       917 4.26899E+00
 -1       918 4.26899E+00
 -1       919 3.26836E+00
 -1       920 2.89698E+00
 -1       921 2.86776E+00
 -1       922 2.86012E+00
 -1       923 2.84771E+00
 -1       924 2.83397E+00
 -1       925 2.82277E+00
 -1       926 2.81246E+00
 -1       927 2.80100E+00
 -1       928 2.78714E+00
 -1       929 2.77209E+00
 -1       930 2.83103E+00
 -1       931 3.05014E+00
 -1       932 3.98704E+00
 -1       933 8.67220E+00
 -1       934 3.92449E+01
 -1       935 3.89137E+01
 -1       936 3.67926E+01
 -1       937 1.31434E+01
 -1       938 1.19004E+01
 -1       939 1.19004E+01
 -1       940 1.15171E+01
 -1       941 1.13286E+01
 -1       942 1.12152E+01
 -1       943 1.11474E+01
 -1       944 1.10916E+01
 -1       945 1.10379E+01
 -1       946 1.09819E+01
 -1       947 1.09190E+01
 -1       948 1.08487E+01
 -1       949 1.07565E+01
 -1       950 1.07335E+01
 -1       951 1.22029E+01
 -1       952 1.89602E+01
 -1       953 3.92449E+01
 -1       954 2.96024E+01
 -1       955 7.95153E+00
 -1       956 2.75620E+00
 -1       957 2.54683E+00
 -1       958 2.54683E+00
 -1       959 2.49846E+00
 -1       960 2.46512E+00
 -1       961 2.44597E+00
 -1       962 2.43491E+00
 -1       963 2.42730E+00
 -1       964 2.42015E+00
 -1       965 2.41169E+00
 -1       966 2.40003E+00
 -1       967 2.38724E+00
 -1       968 2.44878E+00
 -1       969 2.55365E+00
 -1       970 2.98904E+00
 -1       971 1.11590E+01
 -1       972 3.70739E+01
 -1       973 2.79017E+01
 -1       974 7.95153E+00
 -1       975 1.41689E+00
 -1       976 1.63107E+00
 -1       977 1.63107E+00
 -1       978 1.58181E+00
 -1       979 1.55241E+00
 -1       980 1.53172E+00
 -1       981 1.52177E+00
 -1       982 1.51599E+00
 -1       983 1.51105E+00
 -1       984 1.50447E+00
 -1       985 1.49419E+00
 -1       986 1.47898E+00
 -1       987 1.52294E+00
 -1       988 1.80658E+00
 -1       989 2.38521E+00
 -1       990 8.32199E+00
 -1       991 2.78224E+01
 -1       992 2.96024E+01
 -1       993 7.95153E+00
 -1       994 2.75620E+00
 -1       995 2.54683E+00
 -1       996 2.54683E+00
 -1       997 2.49846E+00
 -1       998 2.46512E+00
 -1       999 2.44597E+00
 -1      1000 2.43491E+00
 -1      1001 2.42730E+00
 -1      1002 2.42015E+00
 -1      1003 2.41169E+00
 -1      1004 2.40003E+00
 -1      1005 2.38724E+00
 -1      1006 2.44878E+00
 -1      1007 2.55365E+00
 -1      1008 2.98904E+00
 -1      1009 1.11590E+01
 -1      1010 3.70739E+01
 -1      1011 3.89137E+01
 -1      1012 3.67926E+01
 -1      1013 1.31434E+01
 -1      1014 1.19004E+01
 -1      1015 1.19004E+01
 -1      1016 1.15171E+01
 -1      1017 1.13286E+01
 -1      1018 1.12152E+01
 -1      1019 1.11474E+01
 -1      1020 1.10916E+01
 -1      1021 1.10379E+01
 -1      1022 1.09819E+01
 -1      1023 1.09190E+01
 -1      1024 1.08487E+01
 -1      1025 1.07565E+01
 -1      1026 1.07335E+01
 -1      1027 1.22029E+01
 -1      1028 1.89602E+01
 -1      1029 3.92449E+01
 -1      1030 1.88878E+01
 -1      1031 8.72832E+00
 -1      1032 1.88878E+01
 -1      1033 8.72832E+00
 -1      1034 5.26573E+00
 -1      1035 7.64348E+00
 -1      1036 5.26573E+00
 -1      1037 5.44687E+00
 -1      1038 4.67286E+00
 -1      1039 5.11398E+00
 -1      1040 3.98981E+00
 -1      1041 6.78706E+00
 -1      1042 3.24624E+00
 -1      1043 6.78706E+00
 -1      1044 3.98981E+00
 -1      1045 6.78706E+00
 -1      1046 4.67290E+00
 -1      1047 5.11398E+00
 -1      1048 5.26586E+00
 -1      1049 5.44687E+00
 -1      1050 5.26586E+00
 -1      1051 7.64348E+00
 -1      1052 1.88879E+01
 -1      1053 8.72832E+00
 -1      1054 1.88879E+01
 -1      1055 8.72832E+00
 -1      1056 2.97290E+01
 -1      1057 9.24205E+00
 -1      1058 2.97290E+01
 -1      1059 9.24205E+00
 -1      1060 2.06112E+01
 -1      1061 7.64348E+00
 -1      1062 2.11740E+01
 -1      1063 5.44687E+00
 -1      1064 2.11740E+01
 -1      1065 5.91579E+00
 -1      1066 2.03872E+01
 -1      1067 6.78706E+00
 -1      1068 1.88347E+01
 -1      1069 6.78706E+00
 -1      1070 2.03871E+01
 -1      1071 6.78706E+00
 -1      1072 2.11738E+01
 -1      1073 5.91579E+00
 -1      1074 2.11738E+01
 -1      1075 5.44687E+00
 -1      1076 2.06110E+01
 -1      1077 7.64348E+00
 -1      1078 2.97289E+01
 -1      1079 9.24205E+00
 -1      1080 2.97289E+01
 -1      1081 9.24205E+00
 -1      1082 6.37675E+01
 -1      1083 1.02300E+01
 -1      1084 6.37675E+01
 -1      1085 1.02300E+01
 -1      1086 4.50780E+01
 -1      1087 6.67615E+00
 -1      1088 4.03494E+01
 -1      1089 1.43366E+01
 -1      1090 3.96122E+01
 -1      1091 1.79759E+01
 -1      1092 3.78390E+01
 -1      1093 1.84223E+01
 -1      1094 3.56868E+01
 -1      1095 1.84223E+01
 -1      1096 3.78387E+01
 -1      1097 1.84223E+01
 -1      1098 3.96119E+01
 -1      1099 1.79759E+01
 -1      1100 4.03492E+01
 -1      1101 1.43366E+01
 -1      1102 4.50779E+01
 -1      1103 6.67615E+00
 -1      1104 6.37674E+01
 -1      1105 1.02300E+01
 -1      1106 6.37674E+01
 -1      1107 1.02300E+01
 -1      1108 7.74528E+01
 -1      1109 2.34708E+01
 -1      1110 7.74528E+01
 -1      1111 3.10650E+01
 -1      1112 6.14129E+01
 -1      1113 3.79358E+01
 -1      1114 5.62426E+01
 -1      1115 5.20411E+01
 -1      1116 5.27466E+01
 -1      1117 5.89464E+01
 -1      1118 4.97162E+01
 -1      1119 6.14621E+01
 -1      1120 4.78203E+01
 -1      1121 6.14621E+01
 -1      1122 4.97156E+01
 -1      1123 6.14621E+01
 -1      1124 5.27462E+01
 -1      1125 5.89464E+01
 -1      1126 5.62424E+01
 -1      1127 5.20411E+01
 -1      1128 6.14128E+01
 -1      1129 3.79358E+01
 -1      1130 7.74530E+01
 -1      1131 3.10650E+01
 -1      1132 7.74530E+01
 -1      1133 2.34708E+01
 -1      1134 7.74528E+01
 -1      1135 4.74227E+01
 -1      1136 7.74528E+01
 -1      1137 5.00837E+01
 -1      1138 6.74182E+01
 -1      1139 5.82058E+01
 -1      1140 6.74182E+01
 -1      1141 6.59587E+01
 -1      1142 6.20076E+01
 -1      1143 7.05017E+01
 -1      1144 5.67545E+01
 -1      1145 7.26085E+01
 -1      1146 5.60562E+01
 -1      1147 7.26085E+01
 -1      1148 5.67534E+01
 -1      1149 7.26085E+01
 -1      1150 6.20073E+01
 -1      1151 7.05017E+01
 -1      1152 6.74180E+01
 -1      1153 6.59587E+01
 -1      1154 6.74180E+01
 -1      1155 5.82058E+01
 -1      1156 7.74530E+01
 -1      1157 5.00837E+01
 -1      1158 7.74530E+01
 -1      1159 4.74227E+01
 -1      1160 6.81881E+01
 -1      1161 6.09127E+01
 -1      1162 6.81881E+01
 -1      1163 6.09127E+01
 -1      1164 7.19927E+01
 -1      1165 5.88521E+01
 -1      1166 7.19927E+01
 -1      1167 8.63842E+01
 -1      1168 6.47199E+01
 -1      1169 9.38520E+01
 -1      1170 5.93128E+01
 -1      1171 9.73370E+01
 -1      1172 5.80131E+01
 -1      1173 9.73370E+01
 -1      1174 5.93072E+01
 -1      1175 9.73370E+01
 -1      1176 6.47197E+01
 -1      1177 9.38520E+01
 -1      1178 7.19925E+01
 -1      1179 8.63842E+01
 -1      1180 7.19925E+01
 -1      1181 5.88521E+01
 -1      1182 6.81881E+01
 -1      1183 6.09127E+01
 -1      1184 6.81881E+01
 -1      1185 6.09127E+01
 -1      1186 4.47560E+01
 -1      1187 6.09127E+01
 -1      1188 6.62418E+01
 -1      1189 6.09127E+01
 -1      1190 7.19927E+01
 -1      1191 5.88521E+01
 -1      1192 7.19927E+01
 -1      1193 8.63842E+01
 -1      1194 6.47199E+01
 -1      1195 9.38520E+01
 -1      1196 5.93128E+01
 -1      1197 9.73370E+01
 -1      1198 5.80131E+01
 -1      1199 9.73370E+01
 -1      1200 5.93072E+01
 -1      1201 9.73370E+01
 -1      1202 6.47197E+01
 -1      1203 9.38520E+01
 -1      1204 7.19925E+01
 -1      1205 8.63842E+01
 -1      1206 7.19925E+01
 -1      1207 5.88521E+01
 -1      1208 6.62417E+01
 -1      1209 6.09127E+01
 -1      1210 4.47559E+01
 -1      1211 6.09127E+01
 -1      1212 3.11630E+01
 -1      1213 3.11630E+01
 -1      1214 3.11630E+01
 -1      1215 3.11630E+01
 -1      1216 2.68275E+01
 -1      1217 2.68275E+01
 -1      1218 2.36590E+01
 -1      1219 2.36590E+01
 -1      1220 2.18711E+01
 -1      1221 2.18711E+01
 -1      1222 2.16876E+01
 -1      1223 2.16876E+01
 -1      1224 2.16876E+01
 -1      1225 2.16876E+01
 -1      1226 2.15872E+01
 -1      1227 2.15872E+01
 -1      1228 2.15539E+01
 -1      1229 2.15539E+01
 -1      1230 2.15539E+01
 -1      1231 2.15539E+01
 -1      1232 2.15519E+01
 -1      1233 2.15519E+01
 -1      1234 2.15512E+01
 -1      1235 2.15512E+01
 -1      1236 2.16252E+01
 -1      1237 2.16252E+01
 -1      1238 2.17846E+01
 -1      1239 2.17846E+01
 -1      1240 2.19557E+01
 -1      1241 2.19557E+01
 -1      1242 2.19557E+01
 -1      1243 2.19557E+01
 -1      1244 2.25915E+01
 -1      1245 2.25915E+01
 -1      1246 2.38892E+01
 -1      1247 2.38892E+01
 -1      1248 2.38892E+01
 -1      1249 2.38892E+01
 -1      1250 3.09498E+01
 -1      1251 3.09498E+01
 -1      1252 3.54662E+01
 -1      1253 3.54662E+01
 -1      1254 4.05490E+01
 -1      1255 4.05490E+01
 -1      1256 4.05490E+01
 -1      1257 4.05490E+01
 -1      1258 3.11630E+01
 -1      1259 3.11630E+01
 -1      1260 3.11630E+01
 -1      1261 3.11630E+01
 -1      1262 3.02607E+01
 -1      1263 3.02607E+01
 -1      1264 2.68626E+01
 -1      1265 2.68626E+01
 -1      1266 2.73627E+01
 -1      1267 2.73627E+01
 -1      1268 2.73627E+01
 -1      1269 2.73627E+01
 -1      1270 2.71290E+01
 -1      1271 2.71290E+01
 -1      1272 2.68675E+01
 -1      1273 2.68675E+01
 -1      1274 2.67454E+01
 -1      1275 2.67454E+01
 -1      1276 2.67108E+01
 -1      1277 2.67108E+01
 -1      1278 2.66794E+01
 -1      1279 2.66794E+01
 -1      1280 2.66593E+01
 -1      1281 2.66593E+01
 -1      1282 2.66468E+01
 -1      1283 2.66468E+01
 -1      1284 2.69119E+01
 -1      1285 2.69119E+01
 -1      1286 2.74512E+01
 -1      1287 2.74512E+01
 -1      1288 2.75029E+01
 -1      1289 2.75029E+01
 -1      1290 2.84562E+01
 -1      1291 2.84562E+01
 -1      1292 3.05306E+01
 -1      1293 3.05306E+01
 -1      1294 3.05306E+01
 -1      1295 3.05306E+01
 -1      1296 3.44213E+01
 -1      1297 3.44213E+01
 -1      1298 3.58039E+01
 -1      1299 3.58039E+01
 -1      1300 4.05490E+01
 -1      1301 4.05490E+01
 -1      1302 4.05490E+01
 -1      1303 4.05490E+01
 -1      1304 6.37675E+01
 -1      1305 6.37674E+01
 -1      1306 6.28290E+01
 -1      1307 6.28290E+01
 -1      1308 6.61355E+01
 -1      1309 6.61355E+01
 -1      1310 6.83065E+01
 -1      1311 6.83065E+01
 -1      1312 6.88308E+01
 -1      1313 6.88308E+01
 -1      1314 6.88308E+01
 -1      1315 6.88308E+01
 -1      1316 6.87158E+01
 -1      1317 6.87158E+01
 -1      1318 6.84881E+01
 -1      1319 6.84881E+01
 -1      1320 6.83231E+01
 -1      1321 6.83231E+01
 -1      1322 6.82145E+01
 -1      1323 6.82145E+01
 -1      1324 6.81342E+01
 -1      1325 6.81342E+01
 -1      1326 6.80846E+01
 -1      1327 6.80846E+01
 -1      1328 6.80400E+01
 -1      1329 6.80400E+01
 -1      1330 6.80347E+01
 -1      1331 6.80347E+01
 -1      1332 6.85264E+01
 -1      1333 6.85264E+01
 -1      1334 6.87966E+01
 -1      1335 6.87966E+01
 -1      1336 6.94222E+01
 -1      1337 6.94222E+01
 -1      1338 7.00557E+01
 -1      1339 7.00557E+01
 -1      1340 7.00557E+01
 -1      1341 7.00557E+01
 -1      1342 6.65291E+01
 -1      1343 6.65291E+01
 -1      1344 6.44587E+01
 -1      1345 6.44587E+01
 -1      1346 4.81310E+01
 -1      1347 4.81310E+01
 -1      1348 2.05711E+01
 -1      1349 2.05711E+01
 -1      1350 7.80353E+01
 -1      1351 7.80353E+01
 -1      1352 9.22368E+01
 -1      1353 9.22368E+01
 -1      1354 9.81848E+01
 -1      1355 9.81848E+01
 -1      1356 9.83295E+01
 -1      1357 9.83295E+01
 -1      1358 9.83295E+01
 -1      1359 9.83295E+01
 -1      1360 9.80219E+01
 -1      1361 9.80219E+01
 -1      1362 9.78207E+01
 -1      1363 9.78207E+01
 -1      1364 9.77359E+01
 -1      1365 9.77359E+01
 -1      1366 9.76922E+01
 -1      1367 9.76922E+01
 -1      1368 9.76552E+01
 -1      1369 9.76552E+01
 -1      1370 9.76197E+01
 -1      1371 9.76197E+01
 -1      1372 9.75994E+01
 -1      1373 9.75994E+01
 -1      1374 9.76032E+01
 -1      1375 9.76032E+01
 -1      1376 9.76032E+01
 -1      1377 9.76032E+01
 -1      1378 9.74628E+01
 -1      1379 9.74628E+01
 -1      1380 9.73049E+01
 -1      1381 9.73049E+01
 -1      1382 9.71150E+01
 -1      1383 9.71150E+01
 -1      1384 9.73587E+01
 -1      1385 9.73587E+01
 -1      1386 9.87912E+01
 -1      1387 9.87912E+01
 -1      1388 9.87912E+01
 -1      1389 9.87912E+01
 -1      1390 8.93763E+01
 -1      1391 8.93763E+01
 -1      1392 5.40809E+01
 -1      1393 5.40809E+01
 -1      1394 2.54630E+01
 -1      1395 2.54630E+01
 -1      1396 7.80353E+01
 -1      1397 7.80353E+01
 -1      1398 9.22368E+01
 -1      1399 9.22368E+01
 -1      1400 9.81848E+01
 -1      1401 9.81848E+01
 -1      1402 9.83295E+01
 -1      1403 9.83295E+01
 -1      1404 9.83295E+01
 -1      1405 9.83295E+01
 -1      1406 9.80219E+01
 -1      1407 9.80219E+01
 -1      1408 9.78207E+01
 -1      1409 9.78207E+01
 -1      1410 9.77359E+01
 -1      1411 9.77359E+01
 -1      1412 9.76922E+01
 -1      1413 9.76922E+01
 -1      1414 9.76552E+01
 -1      1415 9.76552E+01
 -1      1416 9.76197E+01
 -1      1417 9.76197E+01
 -1      1418 9.75994E+01
 -1      1419 9.75994E+01
 -1      1420 9.76032E+01
 -1      1421 9.76032E+01
 -1      1422 9.76032E+01
 -1      1423 9.76032E+01
 -1      1424 9.74628E+01
 -1      1425 9.74628E+01
 -1      1426 9.73049E+01
 -1      1427 9.73049E+01
 -1      1428 9.71150E+01
 -1      1429 9.71150E+01
 -1      1430 9.73587E+01
 -1      1431 9.73587E+01
 -1      1432 9.87912E+01
 -1      1433 9.87912E+01
 -1      1434 9.87912E+01
 -1      1435 9.87912E+01
 -1      1436 8.93763E+01
 -1      1437 8.93763E+01
 -1      1438 6.52920E+01
 -1      1439 6.52920E+01
 -1      1440 5.66608E+01
 -1      1441 5.66608E+01
 -1      1442 6.81881E+01
 -1      1443 6.81881E+01
 -1      1444 5.59912E+01
 -1      1445 5.59910E+01
 -1      1446 6.26196E+01
 -1      1447 6.26196E+01
 -1      1448 6.98751E+01
 -1      1449 6.98751E+01
 -1      1450 7.56901E+01
 -1      1451 7.56901E+01
 -1      1452 7.99793E+01
 -1      1453 7.99793E+01
 -1      1454 8.21713E+01
 -1      1455 8.21713E+01
 -1      1456 8.21713E+01
 -1      1457 8.21713E+01
 -1      1458 8.20178E+01
 -1      1459 8.20178E+01
 -1      1460 8.18323E+01
 -1      1461 8.18323E+01
 -1      1462 8.17146E+01
 -1      1463 8.17146E+01
 -1      1464 8.17146E+01
 -1      1465 8.17146E+01
 -1      1466 8.18070E+01
 -1      1467 8.18070E+01
 -1      1468 8.18070E+01
 -1      1469 8.18070E+01
 -1      1470 8.13879E+01
 -1      1471 8.13879E+01
 -1      1472 7.98458E+01
 -1      1473 7.98458E+01
 -1      1474 7.72675E+01
 -1      1475 7.72675E+01
 -1      1476 7.78006E+01
 -1      1477 7.78006E+01
 -1      1478 7.78006E+01
 -1      1479 7.78006E+01
 -1      1480 6.97304E+01
 -1      1481 6.97304E+01
 -1      1482 6.52920E+01
 -1      1483 6.52920E+01
 -1      1484 6.96305E+01
 -1      1485 6.96305E+01
 -1      1486 6.96305E+01
 -1      1487 6.96305E+01
 -1      1488 5.19336E+01
 -1      1489 5.19335E+01
 -1      1490 5.19336E+01
 -1      1491 5.19335E+01
 -1      1492 4.44614E+01
 -1      1493 4.44614E+01
 -1      1494 4.35704E+01
 -1      1495 4.35704E+01
 -1      1496 4.48565E+01
 -1      1497 4.48565E+01
 -1      1498 4.48565E+01
 -1      1499 4.48565E+01
 -1      1500 4.47162E+01
 -1      1501 4.47162E+01
 -1      1502 4.41871E+01
 -1      1503 4.41871E+01
 -1      1504 4.37148E+01
 -1      1505 4.37148E+01
 -1      1506 4.34076E+01
 -1      1507 4.34076E+01
 -1      1508 4.32320E+01
 -1      1509 4.32320E+01
 -1      1510 4.31313E+01
 -1      1511 4.31313E+01
 -1      1512 4.31194E+01
 -1      1513 4.31194E+01
 -1      1514 4.32792E+01
 -1      1515 4.32792E+01
 -1      1516 4.40400E+01
 -1      1517 4.40400E+01
 -1      1518 4.50020E+01
 -1      1519 4.50020E+01
 -1      1520 4.50020E+01
 -1      1521 4.50020E+01
 -1      1522 4.52392E+01
 -1      1523 4.52392E+01
 -1      1524 4.62377E+01
 -1      1525 4.62377E+01
 -1      1526 4.91342E+01
 -1      1527 4.91342E+01
 -1      1528 6.32913E+01
 -1      1529 6.32913E+01
 -1      1530 6.96305E+01
 -1      1531 6.96305E+01
 -1      1532 6.96305E+01
 -1      1533 6.96305E+01
 -1      1534 3.11630E+01
 -1      1535 7.02906E+01
 -1      1536 3.11630E+01
 -1      1537 7.30614E+01
 -1      1538 2.68275E+01
 -1      1539 7.65976E+01
 -1      1540 2.36590E+01
 -1      1541 7.90060E+01
 -1      1542 2.18711E+01
 -1      1543 8.23390E+01
 -1      1544 2.16876E+01
 -1      1545 8.55594E+01
 -1      1546 2.16876E+01
 -1      1547 8.79712E+01
 -1      1548 2.15872E+01
 -1      1549 8.94082E+01
 -1      1550 2.15539E+01
 -1      1551 9.01489E+01
 -1      1552 2.15539E+01
 -1      1553 9.04852E+01
 -1      1554 2.15519E+01
 -1      1555 9.06024E+01
 -1      1556 2.15512E+01
 -1      1557 9.06486E+01
 -1      1558 2.16252E+01
 -1      1559 9.06721E+01
 -1      1560 2.17846E+01
 -1      1561 9.06721E+01
 -1      1562 2.19557E+01
 -1      1563 9.05657E+01
 -1      1564 2.19557E+01
 -1      1565 8.95727E+01
 -1      1566 2.25915E+01
 -1      1567 8.63759E+01
 -1      1568 2.38892E+01
 -1      1569 8.27151E+01
 -1      1570 2.38892E+01
 -1      1571 8.46466E+01
 -1      1572 3.09498E+01
 -1      1573 8.47599E+01
 -1      1574 3.54662E+01
 -1      1575 8.47599E+01
 -1      1576 4.05490E+01
 -1      1577 7.67665E+01
 -1      1578 4.05490E+01
 -1      1579 6.96305E+01
 -1      1580 2.00496E+01
 -1      1581 7.19927E+01
 -1      1582 2.00496E+01
 -1      1583 7.30614E+01
 -1      1584 1.10740E+01
 -1      1585 7.65976E+01
 -1      1586 5.34829E+00
 -1      1587 7.90060E+01
 -1      1588 3.97086E+00
 -1      1589 8.23390E+01
 -1      1590 3.87849E+00
 -1      1591 8.55594E+01
 -1      1592 3.78608E+00
 -1      1593 8.79712E+01
 -1      1594 3.70059E+00
 -1      1595 8.94082E+01
 -1      1596 3.65827E+00
 -1      1597 9.01489E+01
 -1      1598 3.65157E+00
 -1      1599 9.04852E+01
 -1      1600 3.65102E+00
 -1      1601 9.06024E+01
 -1      1602 3.65504E+00
 -1      1603 9.06486E+01
 -1      1604 3.69521E+00
 -1      1605 9.06721E+01
 -1      1606 3.77931E+00
 -1      1607 9.06721E+01
 -1      1608 3.86841E+00
 -1      1609 9.05657E+01
 -1      1610 3.86841E+00
 -1      1611 8.95727E+01
 -1      1612 4.10038E+00
 -1      1613 8.63759E+01
 -1      1614 5.67522E+00
 -1      1615 8.27151E+01
 -1      1616 5.67522E+00
 -1      1617 8.46466E+01
 -1      1618 1.80560E+01
 -1      1619 8.47599E+01
 -1      1620 3.21701E+01
 -1      1621 8.47599E+01
 -1      1622 3.95693E+01
 -1      1623 7.67665E+01
 -1      1624 3.95693E+01
 -1      1625 6.99840E+01
 -1      1626 2.05269E+01
 -1      1627 7.19927E+01
 -1      1628 2.05269E+01
 -1      1629 5.56884E+01
 -1      1630 1.16392E+01
 -1      1631 4.47124E+01
 -1      1632 5.87270E+00
 -1      1633 4.20958E+01
 -1      1634 4.21181E+00
 -1      1635 4.21300E+01
 -1      1636 4.18809E+00
 -1      1637 4.21300E+01
 -1      1638 4.09594E+00
 -1      1639 4.19466E+01
 -1      1640 4.01369E+00
 -1      1641 4.18265E+01
 -1      1642 3.97324E+00
 -1      1643 4.17384E+01
 -1      1644 3.96473E+00
 -1      1645 4.16925E+01
 -1      1646 3.96473E+00
 -1      1647 4.16655E+01
 -1      1648 3.96829E+00
 -1      1649 4.16504E+01
 -1      1650 4.00573E+00
 -1      1651 4.16621E+01
 -1      1652 4.08805E+00
 -1      1653 4.16913E+01
 -1      1654 4.18579E+00
 -1      1655 4.17949E+01
 -1      1656 4.18579E+00
 -1      1657 4.17949E+01
 -1      1658 4.37728E+00
 -1      1659 4.20230E+01
 -1      1660 6.63226E+00
 -1      1661 4.20230E+01
 -1      1662 6.63226E+00
 -1      1663 4.99042E+01
 -1      1664 1.89134E+01
 -1      1665 5.59307E+01
 -1      1666 3.21701E+01
 -1      1667 6.17708E+01
 -1      1668 4.03295E+01
 -1      1669 7.30999E+01
 -1      1670 4.03295E+01
 -1      1671 8.63842E+01
 -1      1672 2.05269E+01
 -1      1673 6.47199E+01
 -1      1674 2.05269E+01
 -1      1675 4.74041E+01
 -1      1676 1.16392E+01
 -1      1677 3.23416E+01
 -1      1678 5.87270E+00
 -1      1679 2.85981E+01
 -1      1680 4.21181E+00
 -1      1681 2.81332E+01
 -1      1682 4.18809E+00
 -1      1683 2.81332E+01
 -1      1684 4.09594E+00
 -1      1685 2.79396E+01
 -1      1686 4.01369E+00
 -1      1687 2.78493E+01
 -1      1688 3.97324E+00
 -1      1689 2.77941E+01
 -1      1690 3.96473E+00
 -1      1691 2.77746E+01
 -1      1692 3.96473E+00
 -1      1693 2.77710E+01
 -1      1694 3.96829E+00
 -1      1695 2.77823E+01
 -1      1696 4.00573E+00
 -1      1697 2.78328E+01
 -1      1698 4.08805E+00
 -1      1699 2.79194E+01
 -1      1700 4.18579E+00
 -1      1701 2.81455E+01
 -1      1702 4.18579E+00
 -1      1703 2.81956E+01
 -1      1704 4.37728E+00
 -1      1705 2.81956E+01
 -1      1706 6.63226E+00
 -1      1707 2.79891E+01
 -1      1708 6.63226E+00
 -1      1709 4.00521E+01
 -1      1710 1.89134E+01
 -1      1711 4.88110E+01
 -1      1712 3.14749E+01
 -1      1713 5.87601E+01
 -1      1714 4.03295E+01
 -1      1715 7.39516E+01
 -1      1716 4.03295E+01
 -1      1717 9.38520E+01
 -1      1718 1.99849E+01
 -1      1719 5.93128E+01
 -1      1720 1.99849E+01
 -1      1721 3.42055E+01
 -1      1722 1.07988E+01
 -1      1723 9.23198E+00
 -1      1724 4.97277E+00
 -1      1725 4.36588E+00
 -1      1726 3.89698E+00
 -1      1727 4.00553E+00
 -1      1728 3.89698E+00
 -1      1729 3.98967E+00
 -1      1730 3.80309E+00
 -1      1731 3.87258E+00
 -1      1732 3.72167E+00
 -1      1733 3.82149E+00
 -1      1734 3.68215E+00
 -1      1735 3.79088E+00
 -1      1736 3.67354E+00
 -1      1737 3.77963E+00
 -1      1738 3.67354E+00
 -1      1739 3.77476E+00
 -1      1740 3.67679E+00
 -1      1741 3.77912E+00
 -1      1742 3.71298E+00
 -1      1743 3.80419E+00
 -1      1744 3.79534E+00
 -1      1745 3.85483E+00
 -1      1746 3.90092E+00
 -1      1747 3.95817E+00
 -1      1748 3.90092E+00
 -1      1749 3.98889E+00
 -1      1750 4.07204E+00
 -1      1751 3.98889E+00
 -1      1752 6.03093E+00
 -1      1753 3.74223E+00
 -1      1754 6.03093E+00
 -1      1755 2.07824E+01
 -1      1756 1.83687E+01
 -1      1757 3.25167E+01
 -1      1758 2.98499E+01
 -1      1759 5.16199E+01
 -1      1760 3.99042E+01
 -1      1761 7.39516E+01
 -1      1762 3.99042E+01
 -1      1763 9.73370E+01
 -1      1764 1.85037E+01
 -1      1765 5.80131E+01
 -1      1766 1.85037E+01
 -1      1767 3.26630E+01
 -1      1768 8.96184E+00
 -1      1769 6.65653E+00
 -1      1770 4.22887E+00
 -1      1771 3.40035E+00
 -1      1772 3.17562E+00
 -1      1773 3.02470E+00
 -1      1774 3.17562E+00
 -1      1775 3.02470E+00
 -1      1776 3.08020E+00
 -1      1777 2.91165E+00
 -1      1778 2.99802E+00
 -1      1779 2.86242E+00
 -1      1780 2.95851E+00
 -1      1781 2.82959E+00
 -1      1782 2.95020E+00
 -1      1783 2.81741E+00
 -1      1784 2.95020E+00
 -1      1785 2.81149E+00
 -1      1786 2.95330E+00
 -1      1787 2.81583E+00
 -1      1788 2.98926E+00
 -1      1789 2.84094E+00
 -1      1790 3.07277E+00
 -1      1791 2.89292E+00
 -1      1792 3.18461E+00
 -1      1793 2.99914E+00
 -1      1794 3.18461E+00
 -1      1795 3.04742E+00
 -1      1796 3.35422E+00
 -1      1797 3.04742E+00
 -1      1798 4.72917E+00
 -1      1799 2.87202E+00
 -1      1800 4.72917E+00
 -1      1801 1.97916E+01
 -1      1802 1.67983E+01
 -1      1803 3.16764E+01
 -1      1804 2.83818E+01
 -1      1805 4.87636E+01
 -1      1806 3.89734E+01
 -1      1807 7.39239E+01
 -1      1808 3.89734E+01
 -1      1809 9.73370E+01
 -1      1810 1.99849E+01
 -1      1811 5.93072E+01
 -1      1812 1.99849E+01
 -1      1813 3.42059E+01
 -1      1814 1.07988E+01
 -1      1815 9.23190E+00
 -1      1816 4.97277E+00
 -1      1817 4.36589E+00
 -1      1818 3.89698E+00
 -1      1819 4.00553E+00
 -1      1820 3.89698E+00
 -1      1821 3.98967E+00
 -1      1822 3.80309E+00
 -1      1823 3.87258E+00
 -1      1824 3.72167E+00
 -1      1825 3.82149E+00
 -1      1826 3.68215E+00
 -1      1827 3.79088E+00
 -1      1828 3.67354E+00
 -1      1829 3.77962E+00
 -1      1830 3.67354E+00
 -1      1831 3.77476E+00
 -1      1832 3.67679E+00
 -1      1833 3.77912E+00
 -1      1834 3.71298E+00
 -1      1835 3.80419E+00
 -1      1836 3.79534E+00
 -1      1837 3.85483E+00
 -1      1838 3.90092E+00
 -1      1839 3.95817E+00
 -1      1840 3.90092E+00
 -1      1841 3.98889E+00
 -1      1842 4.07204E+00
 -1      1843 3.98889E+00
 -1      1844 6.03093E+00
 -1      1845 3.74223E+00
 -1      1846 6.03093E+00
 -1      1847 2.07824E+01
 -1      1848 1.83687E+01
 -1      1849 3.25167E+01
 -1      1850 2.98499E+01
 -1      1851 5.16199E+01
 -1      1852 3.99042E+01
 -1      1853 7.39516E+01
 -1      1854 3.99042E+01
 -1      1855 9.73370E+01
 -1      1856 2.05268E+01
 -1      1857 6.47197E+01
 -1      1858 2.05268E+01
 -1      1859 4.74040E+01
 -1      1860 1.16392E+01
 -1      1861 3.23416E+01
 -1      1862 5.87270E+00
 -1      1863 2.85981E+01
 -1      1864 4.21181E+00
 -1      1865 2.81332E+01
 -1      1866 4.18809E+00
 -1      1867 2.81332E+01
 -1      1868 4.09594E+00
 -1      1869 2.79396E+01
 -1      1870 4.01369E+00
 -1      1871 2.78492E+01
 -1      1872 3.97324E+00
 -1      1873 2.77941E+01
 -1      1874 3.96473E+00
 -1      1875 2.77746E+01
 -1      1876 3.96473E+00
 -1      1877 2.77710E+01
 -1      1878 3.96829E+00
 -1      1879 2.77823E+01
 -1      1880 4.00573E+00
 -1      1881 2.78328E+01
 -1      1882 4.08805E+00
 -1      1883 2.79194E+01
 -1      1884 4.18579E+00
 -1      1885 2.81455E+01
 -1      1886 4.18579E+00
 -1      1887 2.81956E+01
 -1      1888 4.37728E+00
 -1      1889 2.81956E+01
 -1      1890 6.63226E+00
 -1      1891 2.79891E+01
 -1      1892 6.63226E+00
 -1      1893 4.00521E+01
 -1      1894 1.89134E+01
 -1      1895 4.88110E+01
 -1      1896 3.14749E+01
 -1      1897 5.87601E+01
 -1      1898 4.03295E+01
 -1      1899 7.39516E+01
 -1      1900 4.03295E+01
 -1      1901 9.38520E+01
 -1      1902 2.05268E+01
 -1      1903 7.19925E+01
 -1      1904 2.05268E+01
 -1      1905 5.56883E+01
 -1      1906 1.16392E+01
 -1      1907 4.47124E+01
 -1      1908 5.87270E+00
 -1      1909 4.20958E+01
 -1      1910 4.21181E+00
 -1      1911 4.21300E+01
 -1      1912 4.18809E+00
 -1      1913 4.21300E+01
 -1      1914 4.09594E+00
 -1      1915 4.19466E+01
 -1      1916 4.01369E+00
 -1      1917 4.18265E+01
 -1      1918 3.97324E+00
 -1      1919 4.17384E+01
 -1      1920 3.96473E+00
 -1      1921 4.16925E+01
 -1      1922 3.96473E+00
 -1      1923 4.16655E+01
 -1      1924 3.96829E+00
 -1      1925 4.16504E+01
 -1      1926 4.00573E+00
 -1      1927 4.16621E+01
 -1      1928 4.08805E+00
 -1      1929 4.16913E+01
 -1      1930 4.18579E+00
 -1      1931 4.17949E+01
 -1      1932 4.18579E+00
 -1      1933 4.17949E+01
 -1      1934 4.37728E+00
 -1      1935 4.20230E+01
 -1      1936 6.63226E+00
 -1      1937 4.20230E+01
 -1      1938 6.63226E+00
 -1      1939 4.99042E+01
 -1      1940 1.89134E+01
 -1      1941 5.59307E+01
 -1      1942 3.21701E+01
 -1      1943 6.17708E+01
 -1      1944 4.03295E+01
 -1      1945 7.30999E+01
 -1      1946 4.03295E+01
 -1      1947 8.63842E+01
 -1      1948 2.00495E+01
 -1      1949 7.19925E+01
 -1      1950 2.00495E+01
 -1      1951 7.30613E+01
 -1      1952 1.10740E+01
 -1      1953 7.65976E+01
 -1      1954 5.34829E+00
 -1      1955 7.90060E+01
 -1      1956 3.97086E+00
 -1      1957 8.23390E+01
 -1      1958 3.87849E+00
 -1      1959 8.55594E+01
 -1      1960 3.78608E+00
 -1      1961 8.79712E+01
 -1      1962 3.70059E+00
 -1      1963 8.94082E+01
 -1      1964 3.65827E+00
 -1      1965 9.01489E+01
 -1      1966 3.65157E+00
 -1      1967 9.04852E+01
 -1      1968 3.65102E+00
 -1      1969 9.06024E+01
 -1      1970 3.65504E+00
 -1      1971 9.06486E+01
 -1      1972 3.69521E+00
 -1      1973 9.06721E+01
 -1      1974 3.77931E+00
 -1      1975 9.06721E+01
 -1      1976 3.86841E+00
 -1      1977 9.05657E+01
 -1      1978 3.86841E+00
 -1      1979 8.95727E+01
 -1      1980 4.10038E+00
 -1      1981 8.63759E+01
 -1      1982 5.67522E+00
 -1      1983 8.27151E+01
 -1      1984 5.67522E+00
 -1      1985 8.46466E+01
 -1      1986 1.80560E+01
 -1      1987 8.47599E+01
 -1      1988 3.21701E+01
 -1      1989 8.47599E+01
 -1      1990 3.95693E+01
 -1      1991 7.67665E+01
 -1      1992 3.95693E+01
 -1      1993 6.99840E+01
 -1      1994 3.11630E+01
 -1      1995 7.02904E+01
 -1      1996 3.11630E+01
 -1      1997 7.30613E+01
 -1      1998 2.68275E+01
 -1      1999 7.65976E+01
 -1      2000 2.36590E+01
 -1      2001 7.90060E+01
 -1      2002 2.18711E+01
 -1      2003 8.23390E+01
 -1      2004 2.16876E+01
 -1      2005 8.55594E+01
 -1      2006 2.16876E+01
 -1      2007 8.79712E+01
 -1      2008 2.15872E+01
 -1      2009 8.94082E+01
 -1      2010 2.15539E+01
 -1      2011 9.01489E+01
 -1      2012 2.15539E+01
 -1      2013 9.04852E+01
 -1      2014 2.15519E+01
 -1      2015 9.06024E+01
 -1      2016 2.15512E+01
 -1      2017 9.06486E+01
 -1      2018 2.16252E+01
 -1      2019 9.06721E+01
 -1      2020 2.17846E+01
 -1      2021 9.06721E+01
 -1      2022 2.19557E+01
 -1      2023 9.05657E+01
 -1      2024 2.19557E+01
 -1      2025 8.95727E+01
 -1      2026 2.25915E+01
 -1      2027 8.63759E+01
 -1      2028 2.38892E+01
 -1      2029 8.27151E+01
 -1      2030 2.38892E+01
 -1      2031 8.46466E+01
 -1      2032 3.09498E+01
 -1      2033 8.47599E+01
 -1      2034 3.54662E+01
 -1      2035 8.47599E+01
 -1      2036 4.05490E+01
 -1      2037 7.67665E+01
 -1      2038 4.05490E+01
 -1      2039 6.96305E+01
 -1      2040 3.11630E+01
 -1      2041 3.11630E+01
 -1      2042 3.02607E+01
 -1      2043 2.68626E+01
 -1      2044 2.73627E+01
 -1      2045 2.73627E+01
 -1      2046 2.71290E+01
 -1      2047 2.68675E+01
 -1      2048 2.67454E+01
 -1      2049 2.67108E+01
 -1      2050 2.66794E+01
 -1      2051 2.66593E+01
 -1      2052 2.66468E+01
 -1      2053 2.69119E+01
 -1      2054 2.74512E+01
 -1      2055 2.75029E+01
 -1      2056 2.84562E+01
 -1      2057 3.05306E+01
 -1      2058 3.05306E+01
 -1      2059 3.44213E+01
 -1      2060 3.58039E+01
 -1      2061 4.05490E+01
 -1      2062 4.05490E+01
 -1      2063 2.09859E+01
 -1      2064 2.09859E+01
 -1      2065 1.39810E+01
 -1      2066 7.22471E+00
 -1      2067 5.23245E+00
 -1      2068 5.23245E+00
 -1      2069 4.94970E+00
 -1      2070 4.84390E+00
 -1      2071 4.79390E+00
 -1      2072 4.78049E+00
 -1      2073 4.77989E+00
 -1      2074 4.77901E+00
 -1      2075 4.80772E+00
 -1      2076 4.89601E+00
 -1      2077 5.09940E+00
 -1      2078 5.09940E+00
 -1      2079 5.77738E+00
 -1      2080 9.78161E+00
 -1      2081 9.78161E+00
 -1      2082 2.26535E+01
 -1      2083 3.66276E+01
 -1      2084 3.95693E+01
 -1      2085 3.95693E+01
 -1      2086 2.11740E+01
 -1      2087 2.09859E+01
 -1      2088 1.39810E+01
 -1      2089 7.22471E+00
 -1      2090 5.23245E+00
 -1      2091 5.23245E+00
 -1      2092 4.94970E+00
 -1      2093 4.84390E+00
 -1      2094 4.79390E+00
 -1      2095 4.78049E+00
 -1      2096 4.77989E+00
 -1      2097 4.77901E+00
 -1      2098 4.80772E+00
 -1      2099 4.89601E+00
 -1      2100 5.09940E+00
 -1      2101 5.09940E+00
 -1      2102 5.77738E+00
 -1      2103 9.78161E+00
 -1      2104 9.78161E+00
 -1      2105 2.26535E+01
 -1      2106 3.68653E+01
 -1      2107 4.03295E+01
 -1      2108 4.03295E+01
 -1      2109 2.11740E+01
 -1      2110 2.08814E+01
 -1      2111 1.33646E+01
 -1      2112 6.35049E+00
 -1      2113 4.83835E+00
 -1      2114 4.83835E+00
 -1      2115 4.70777E+00
 -1      2116 4.60904E+00
 -1      2117 4.56286E+00
 -1      2118 4.54948E+00
 -1      2119 4.54948E+00
 -1      2120 4.54915E+00
 -1      2121 4.57533E+00
 -1      2122 4.66023E+00
 -1      2123 4.80767E+00
 -1      2124 4.80767E+00
 -1      2125 4.99829E+00
 -1      2126 9.31385E+00
 -1      2127 9.31385E+00
 -1      2128 2.21579E+01
 -1      2129 3.68653E+01
 -1      2130 4.03295E+01
 -1      2131 4.03295E+01
 -1      2132 2.03872E+01
 -1      2133 1.99849E+01
 -1      2134 1.12762E+01
 -1      2135 4.97277E+00
 -1      2136 3.94688E+00
 -1      2137 3.94688E+00
 -1      2138 3.81626E+00
 -1      2139 3.72167E+00
 -1      2140 3.68215E+00
 -1      2141 3.67354E+00
 -1      2142 3.67354E+00
 -1      2143 3.67679E+00
 -1      2144 3.71298E+00
 -1      2145 3.79534E+00
 -1      2146 3.92696E+00
 -1      2147 3.94968E+00
 -1      2148 4.08771E+00
 -1      2149 7.20774E+00
 -1      2150 7.20774E+00
 -1      2151 2.07276E+01
 -1      2152 3.56411E+01
 -1      2153 3.99042E+01
 -1      2154 3.99042E+01
 -1      2155 1.88347E+01
 -1      2156 1.85037E+01
 -1      2157 8.96184E+00
 -1      2158 4.22887E+00
 -1      2159 3.17562E+00
 -1      2160 3.17562E+00
 -1      2161 3.08020E+00
 -1      2162 2.99802E+00
 -1      2163 2.95851E+00
 -1      2164 2.95020E+00
 -1      2165 2.95020E+00
 -1      2166 2.95330E+00
 -1      2167 2.98926E+00
 -1      2168 3.07277E+00
 -1      2169 3.18461E+00
 -1      2170 3.18461E+00
 -1      2171 3.35422E+00
 -1      2172 4.72917E+00
 -1      2173 4.72917E+00
 -1      2174 1.80800E+01
 -1      2175 3.36730E+01
 -1      2176 3.89734E+01
 -1      2177 3.89734E+01
 -1      2178 2.03871E+01
 -1      2179 1.99849E+01
 -1      2180 1.12762E+01
 -1      2181 4.97277E+00
 -1      2182 3.94688E+00
 -1      2183 3.94688E+00
 -1      2184 3.81626E+00
 -1      2185 3.72167E+00
 -1      2186 3.68215E+00
 -1      2187 3.67354E+00
 -1      2188 3.67354E+00
 -1      2189 3.67679E+00
 -1      2190 3.71298E+00
 -1      2191 3.79534E+00
 -1      2192 3.92696E+00
 -1      2193 3.94968E+00
 -1      2194 4.08771E+00
 -1      2195 7.20774E+00
 -1      2196 7.20774E+00
 -1      2197 2.07276E+01
 -1      2198 3.56411E+01
 -1      2199 3.99042E+01
 -1      2200 3.99042E+01
 -1      2201 2.11738E+01
 -1      2202 2.08814E+01
 -1      2203 1.33646E+01
 -1      2204 6.35049E+00
 -1      2205 4.83835E+00
 -1      2206 4.83835E+00
 -1      2207 4.70777E+00
 -1      2208 4.60904E+00
 -1      2209 4.56286E+00
 -1      2210 4.54948E+00
 -1      2211 4.54948E+00
 -1      2212 4.54915E+00
 -1      2213 4.57533E+00
 -1      2214 4.66023E+00
 -1      2215 4.80767E+00
 -1      2216 4.80767E+00
 -1      2217 4.99829E+00
 -1      2218 9.31385E+00
 -1      2219 9.31385E+00
 -1      2220 2.21579E+01
 -1      2221 3.68653E+01
 -1      2222 4.03295E+01
 -1      2223 4.03295E+01
 -1      2224 2.11738E+01
 -1      2225 2.09859E+01
 -1      2226 1.39810E+01
 -1      2227 7.22471E+00
 -1      2228 5.23245E+00
 -1      2229 5.23245E+00
 -1      2230 4.94970E+00
 -1      2231 4.84390E+00
 -1      2232 4.79390E+00
 -1      2233 4.78049E+00
 -1      2234 4.77989E+00
 -1      2235 4.77901E+00
 -1      2236 4.80772E+00
 -1      2237 4.89601E+00
 -1      2238 5.09940E+00
 -1      2239 5.09940E+00
 -1      2240 5.77738E+00
 -1      2241 9.78161E+00
 -1      2242 9.78161E+00
 -1      2243 2.26535E+01
 -1      2244 3.68653E+01
 -1      2245 4.03295E+01
 -1      2246 4.03295E+01
 -1      2247 2.09859E+01
 -1      2248 2.09859E+01
 -1      2249 1.39810E+01
 -1      2250 7.22471E+00
 -1      2251 5.23245E+00
 -1      2252 5.23245E+00
 -1      2253 4.94970E+00
 -1      2254 4.84390E+00
 -1      2255 4.79390E+00
 -1      2256 4.78049E+00
 -1      2257 4.77989E+00
 -1      2258 4.77901E+00
 -1      2259 4.80772E+00
 -1      2260 4.89601E+00
 -1      2261 5.09940E+00
 -1      2262 5.09940E+00
 -1      2263 5.77738E+00
 -1      2264 9.78161E+00
 -1      2265 9.78161E+00
 -1      2266 2.26535E+01
 -1      2267 3.66276E+01
 -1      2268 3.95693E+01
 -1      2269 3.95693E+01
 -1      2270 3.11630E+01
 -1      2271 3.11630E+01
 -1      2272 3.02607E+01
 -1      2273 2.68626E+01
 -1      2274 2.73627E+01
 -1      2275 2.73627E+01
 -1      2276 2.71290E+01
 -1      2277 2.68675E+01
 -1      2278 2.67454E+01
 -1      2279 2.67108E+01
 -1      2280 2.66794E+01
 -1      2281 2.66593E+01
 -1      2282 2.66468E+01
 -1      2283 2.69119E+01
 -1      2284 2.74512E+01
 -1      2285 2.75029E+01
 -1      2286 2.84562E+01
 -1      2287 3.05306E+01
 -1      2288 3.05306E+01
 -1      2289 3.44213E+01
 -1      2290 3.58039E+01
 -1      2291 4.05490E+01
 -1      2292 4.05490E+01
 -1      2293 6.37675E+01
 -1      2294 6.28290E+01
 -1      2295 6.61355E+01
 -1      2296 6.83065E+01
 -1      2297 6.88308E+01
 -1      2298 6.88308E+01
 -1      2299 6.87158E+01
 -1      2300 6.84881E+01
 -1      2301 6.83231E+01
 -1      2302 6.82145E+01
 -1      2303 6.81342E+01
 -1      2304 6.80846E+01
 -1      2305 6.80400E+01
 -1      2306 6.80347E+01
 -1      2307 6.85264E+01
 -1      2308 6.87966E+01
 -1      2309 6.94222E+01
 -1      2310 7.00557E+01
 -1      2311 7.00557E+01
 -1      2312 6.65291E+01
 -1      2313 6.44587E+01
 -1      2314 4.81310E+01
 -1      2315 2.35963E+01
 -1      2316 4.50780E+01
 -1      2317 3.17612E+01
 -1      2318 2.67353E+01
 -1      2319 2.10939E+01
 -1      2320 2.05916E+01
 -1      2321 2.05916E+01
 -1      2322 2.02409E+01
 -1      2323 1.99716E+01
 -1      2324 1.98439E+01
 -1      2325 1.97983E+01
 -1      2326 1.97931E+01
 -1      2327 1.97929E+01
 -1      2328 1.98141E+01
 -1      2329 2.00430E+01
 -1      2330 2.04818E+01
 -1      2331 2.05153E+01
 -1      2332 2.10520E+01
 -1      2333 2.48460E+01
 -1      2334 2.48460E+01
 -1      2335 3.54340E+01
 -1      2336 4.24784E+01
 -1      2337 4.24784E+01
 -1      2338 2.91439E+01
 -1      2339 4.03494E+01
 -1      2340 2.79620E+01
 -1      2341 1.94781E+01
 -1      2342 1.28227E+01
 -1      2343 1.18732E+01
 -1      2344 1.18732E+01
 -1      2345 1.15325E+01
 -1      2346 1.12837E+01
 -1      2347 1.11702E+01
 -1      2348 1.11306E+01
 -1      2349 1.11331E+01
 -1      2350 1.11331E+01
 -1      2351 1.11766E+01
 -1      2352 1.13918E+01
 -1      2353 1.17960E+01
 -1      2354 1.18943E+01
 -1      2355 1.20813E+01
 -1      2356 1.67262E+01
 -1      2357 1.67262E+01
 -1      2358 3.00676E+01
 -1      2359 4.19558E+01
 -1      2360 4.19558E+01
 -1      2361 3.00886E+01
 -1      2362 3.96122E+01
 -1      2363 2.52485E+01
 -1      2364 1.46592E+01
 -1      2365 7.42853E+00
 -1      2366 6.60865E+00
 -1      2367 6.60865E+00
 -1      2368 6.27183E+00
 -1      2369 6.03031E+00
 -1      2370 5.92326E+00
 -1      2371 5.89039E+00
 -1      2372 5.89469E+00
 -1      2373 5.89469E+00
 -1      2374 5.93854E+00
 -1      2375 6.14525E+00
 -1      2376 6.55367E+00
 -1      2377 6.76440E+00
 -1      2378 6.76440E+00
 -1      2379 1.20961E+01
 -1      2380 1.20961E+01
 -1      2381 2.66172E+01
 -1      2382 4.18176E+01
 -1      2383 4.18176E+01
 -1      2384 3.00886E+01
 -1      2385 3.78390E+01
 -1      2386 2.14620E+01
 -1      2387 1.12762E+01
 -1      2388 4.58466E+00
 -1      2389 3.94688E+00
 -1      2390 3.94688E+00
 -1      2391 3.81626E+00
 -1      2392 3.71946E+00
 -1      2393 3.67487E+00
 -1      2394 3.66236E+00
 -1      2395 3.66251E+00
 -1      2396 3.66251E+00
 -1      2397 3.68771E+00
 -1      2398 3.77223E+00
 -1      2399 3.92696E+00
 -1      2400 3.94968E+00
 -1      2401 4.08771E+00
 -1      2402 7.22290E+00
 -1      2403 7.22290E+00
 -1      2404 2.22971E+01
 -1      2405 4.02730E+01
 -1      2406 4.02730E+01
 -1      2407 2.93821E+01
 -1      2408 3.56868E+01
 -1      2409 1.80262E+01
 -1      2410 8.02171E+00
 -1      2411 3.19781E+00
 -1      2412 2.54917E+00
 -1      2413 2.54917E+00
 -1      2414 2.41366E+00
 -1      2415 2.31469E+00
 -1      2416 2.26983E+00
 -1      2417 2.25801E+00
 -1      2418 2.25853E+00
 -1      2419 2.25853E+00
 -1      2420 2.28404E+00
 -1      2421 2.37053E+00
 -1      2422 2.53261E+00
 -1      2423 2.56701E+00
 -1      2424 2.68784E+00
 -1      2425 4.54582E+00
 -1      2426 4.54582E+00
 -1      2427 1.88501E+01
 -1      2428 3.81313E+01
 -1      2429 3.81313E+01
 -1      2430 2.78575E+01
 -1      2431 3.78387E+01
 -1      2432 2.14620E+01
 -1      2433 1.12762E+01
 -1      2434 4.58466E+00
 -1      2435 3.94688E+00
 -1      2436 3.94688E+00
 -1      2437 3.81626E+00
 -1      2438 3.71946E+00
 -1      2439 3.67487E+00
 -1      2440 3.66236E+00
 -1      2441 3.66251E+00
 -1      2442 3.66251E+00
 -1      2443 3.68771E+00
 -1      2444 3.77223E+00
 -1      2445 3.92696E+00
 -1      2446 3.94968E+00
 -1      2447 4.08771E+00
 -1      2448 7.22290E+00
 -1      2449 7.22290E+00
 -1      2450 2.22971E+01
 -1      2451 4.02730E+01
 -1      2452 4.02730E+01
 -1      2453 2.93821E+01
 -1      2454 3.96119E+01
 -1      2455 2.52485E+01
 -1      2456 1.46592E+01
 -1      2457 7.42853E+00
 -1      2458 6.60865E+00
 -1      2459 6.60865E+00
 -1      2460 6.27183E+00
 -1      2461 6.03031E+00
 -1      2462 5.92326E+00
 -1      2463 5.89039E+00
 -1      2464 5.89469E+00
 -1      2465 5.89469E+00
 -1      2466 5.93854E+00
 -1      2467 6.14525E+00
 -1      2468 6.55367E+00
 -1      2469 6.76440E+00
 -1      2470 6.76440E+00
 -1      2471 1.20961E+01
 -1      2472 1.20961E+01
 -1      2473 2.66172E+01
 -1      2474 4.18176E+01
 -1      2475 4.18176E+01
 -1      2476 3.00886E+01
 -1      2477 4.03492E+01
 -1      2478 2.79620E+01
 -1      2479 1.94781E+01
 -1      2480 1.28227E+01
 -1      2481 1.18732E+01
 -1      2482 1.18732E+01
 -1      2483 1.15325E+01
 -1      2484 1.12837E+01
 -1      2485 1.11702E+01
 -1      2486 1.11306E+01
 -1      2487 1.11331E+01
 -1      2488 1.11331E+01
 -1      2489 1.11766E+01
 -1      2490 1.13918E+01
 -1      2491 1.17960E+01
 -1      2492 1.18943E+01
 -1      2493 1.20813E+01
 -1      2494 1.67262E+01
 -1      2495 1.67262E+01
 -1      2496 3.00676E+01
 -1      2497 4.19558E+01
 -1      2498 4.19558E+01
 -1      2499 3.00886E+01
 -1      2500 4.50779E+01
 -1      2501 3.17611E+01
 -1      2502 2.67353E+01
 -1      2503 2.10939E+01
 -1      2504 2.05916E+01
 -1      2505 2.05916E+01
 -1      2506 2.02409E+01
 -1      2507 1.99716E+01
 -1      2508 1.98439E+01
 -1      2509 1.97983E+01
 -1      2510 1.97931E+01
 -1      2511 1.97929E+01
 -1      2512 1.98141E+01
 -1      2513 2.00430E+01
 -1      2514 2.04818E+01
 -1      2515 2.05153E+01
 -1      2516 2.10520E+01
 -1      2517 2.48460E+01
 -1      2518 2.48460E+01
 -1      2519 3.54340E+01
 -1      2520 4.24784E+01
 -1      2521 4.24784E+01
 -1      2522 2.91439E+01
 -1      2523 6.37674E+01
 -1      2524 6.28290E+01
 -1      2525 6.61355E+01
 -1      2526 6.83065E+01
 -1      2527 6.88308E+01
 -1      2528 6.88308E+01
 -1      2529 6.87158E+01
 -1      2530 6.84881E+01
 -1      2531 6.83231E+01
 -1      2532 6.82145E+01
 -1      2533 6.81342E+01
 -1      2534 6.80846E+01
 -1      2535 6.80400E+01
 -1      2536 6.80347E+01
 -1      2537 6.85264E+01
 -1      2538 6.87966E+01
 -1      2539 6.94222E+01
 -1      2540 7.00557E+01
 -1      2541 7.00557E+01
 -1      2542 6.65291E+01
 -1      2543 6.44587E+01
 -1      2544 4.81310E+01
 -1      2545 2.35963E+01
 -1      2546 7.80353E+01
 -1      2547 9.22368E+01
 -1      2548 9.81848E+01
 -1      2549 9.83295E+01
 -1      2550 9.83295E+01
 -1      2551 9.80219E+01
 -1      2552 9.78207E+01
 -1      2553 9.77359E+01
 -1      2554 9.76922E+01
 -1      2555 9.76552E+01
 -1      2556 9.76197E+01
 -1      2557 9.75994E+01
 -1      2558 9.76032E+01
 -1      2559 9.76032E+01
 -1      2560 9.74628E+01
 -1      2561 9.73049E+01
 -1      2562 9.71150E+01
 -1      2563 9.73587E+01
 -1      2564 9.87912E+01
 -1      2565 9.87912E+01
 -1      2566 8.93763E+01
 -1      2567 5.40809E+01
 -1      2568 3.10650E+01
 -1      2569 6.14129E+01
 -1      2570 4.39294E+01
 -1      2571 3.86307E+01
 -1      2572 3.50835E+01
 -1      2573 3.50835E+01
 -1      2574 3.50804E+01
 -1      2575 3.47513E+01
 -1      2576 3.45135E+01
 -1      2577 3.43938E+01
 -1      2578 3.43417E+01
 -1      2579 3.43171E+01
 -1      2580 3.43171E+01
 -1      2581 3.43161E+01
 -1      2582 3.44620E+01
 -1      2583 3.48306E+01
 -1      2584 3.50450E+01
 -1      2585 3.50450E+01
 -1      2586 3.88465E+01
 -1      2587 3.88465E+01
 -1      2588 4.68708E+01
 -1      2589 4.80022E+01
 -1      2590 4.80022E+01
 -1      2591 3.79358E+01
 -1      2592 5.62426E+01
 -1      2593 3.77390E+01
 -1      2594 2.82826E+01
 -1      2595 2.26291E+01
 -1      2596 2.24895E+01
 -1      2597 2.24322E+01
 -1      2598 2.21122E+01
 -1      2599 2.19023E+01
 -1      2600 2.18065E+01
 -1      2601 2.17701E+01
 -1      2602 2.17619E+01
 -1      2603 2.17619E+01
 -1      2604 2.17871E+01
 -1      2605 2.19467E+01
 -1      2606 2.22777E+01
 -1      2607 2.24976E+01
 -1      2608 2.24976E+01
 -1      2609 2.68229E+01
 -1      2610 2.78714E+01
 -1      2611 3.93797E+01
 -1      2612 4.80022E+01
 -1      2613 4.80022E+01
 -1      2614 5.20411E+01
 -1      2615 5.27466E+01
 -1      2616 3.20255E+01
 -1      2617 1.92348E+01
 -1      2618 1.26244E+01
 -1      2619 1.24046E+01
 -1      2620 1.23425E+01
 -1      2621 1.20086E+01
 -1      2622 1.17943E+01
 -1      2623 1.17016E+01
 -1      2624 1.16694E+01
 -1      2625 1.16685E+01
 -1      2626 1.16685E+01
 -1      2627 1.17044E+01
 -1      2628 1.18712E+01
 -1      2629 1.22142E+01
 -1      2630 1.24966E+01
 -1      2631 1.24966E+01
 -1      2632 1.76966E+01
 -1      2633 1.94253E+01
 -1      2634 3.29475E+01
 -1      2635 4.69361E+01
 -1      2636 4.69361E+01
 -1      2637 5.89464E+01
 -1      2638 4.97162E+01
 -1      2639 2.59610E+01
 -1      2640 1.03851E+01
 -1      2641 4.10826E+00
 -1      2642 3.95728E+00
 -1      2643 3.92985E+00
 -1      2644 3.79119E+00
 -1      2645 3.70336E+00
 -1      2646 3.66650E+00
 -1      2647 3.65433E+00
 -1      2648 3.65529E+00
 -1      2649 3.65529E+00
 -1      2650 3.67033E+00
 -1      2651 3.73710E+00
 -1      2652 3.87408E+00
 -1      2653 4.00275E+00
 -1      2654 4.00275E+00
 -1      2655 8.56207E+00
 -1      2656 1.06011E+01
 -1      2657 2.60173E+01
 -1      2658 4.45868E+01
 -1      2659 4.45868E+01
 -1      2660 6.14621E+01
 -1      2661 4.78203E+01
 -1      2662 2.22008E+01
 -1      2663 6.15927E+00
 -1      2664 2.31061E+00
 -1      2665 1.95176E+00
 -1      2666 1.95176E+00
 -1      2667 1.80920E+00
 -1      2668 1.70753E+00
 -1      2669 1.66148E+00
 -1      2670 1.64558E+00
 -1      2671 1.64677E+00
 -1      2672 1.64677E+00
 -1      2673 1.66369E+00
 -1      2674 1.74578E+00
 -1      2675 1.92192E+00
 -1      2676 2.06574E+00
 -1      2677 2.06574E+00
 -1      2678 4.16522E+00
 -1      2679 4.92896E+00
 -1      2680 2.13198E+01
 -1      2681 4.22680E+01
 -1      2682 4.22680E+01
 -1      2683 6.14621E+01
 -1      2684 4.97156E+01
 -1      2685 2.59610E+01
 -1      2686 1.03851E+01
 -1      2687 4.10826E+00
 -1      2688 3.95728E+00
 -1      2689 3.92985E+00
 -1      2690 3.79119E+00
 -1      2691 3.70336E+00
 -1      2692 3.66650E+00
 -1      2693 3.65433E+00
 -1      2694 3.65529E+00
 -1      2695 3.65529E+00
 -1      2696 3.67033E+00
 -1      2697 3.73710E+00
 -1      2698 3.87408E+00
 -1      2699 4.00275E+00
 -1      2700 4.00275E+00
 -1      2701 8.56207E+00
 -1      2702 1.06011E+01
 -1      2703 2.60173E+01
 -1      2704 4.45868E+01
 -1      2705 4.45868E+01
 -1      2706 6.14621E+01
 -1      2707 5.27462E+01
 -1      2708 3.20255E+01
 -1      2709 1.92348E+01
 -1      2710 1.26244E+01
 -1      2711 1.24046E+01
 -1      2712 1.23425E+01
 -1      2713 1.20086E+01
 -1      2714 1.17943E+01
 -1      2715 1.17016E+01
 -1      2716 1.16694E+01
 -1      2717 1.16685E+01
 -1      2718 1.16685E+01
 -1      2719 1.17044E+01
 -1      2720 1.18712E+01
 -1      2721 1.22142E+01
 -1      2722 1.24966E+01
 -1      2723 1.24966E+01
 -1      2724 1.76966E+01
 -1      2725 1.94253E+01
 -1      2726 3.29475E+01
 -1      2727 4.69361E+01
 -1      2728 4.69361E+01
 -1      2729 5.89464E+01
 -1      2730 5.62424E+01
 -1      2731 3.77389E+01
 -1      2732 2.82826E+01
 -1      2733 2.26291E+01
 -1      2734 2.24895E+01
 -1      2735 2.24322E+01
 -1      2736 2.21122E+01
 -1      2737 2.19023E+01
 -1      2738 2.18065E+01
 -1      2739 2.17701E+01
 -1      2740 2.17619E+01
 -1      2741 2.17619E+01
 -1      2742 2.17871E+01
 -1      2743 2.19467E+01
 -1      2744 2.22777E+01
 -1      2745 2.24976E+01
 -1      2746 2.24976E+01
 -1      2747 2.68229E+01
 -1      2748 2.78714E+01
 -1      2749 3.93797E+01
 -1      2750 4.80022E+01
 -1      2751 4.80022E+01
 -1      2752 5.20411E+01
 -1      2753 6.14128E+01
 -1      2754 4.39294E+01
 -1      2755 3.86307E+01
 -1      2756 3.50835E+01
 -1      2757 3.50835E+01
 -1      2758 3.50804E+01
 -1      2759 3.47513E+01
 -1      2760 3.45135E+01
 -1      2761 3.43938E+01
 -1      2762 3.43417E+01
 -1      2763 3.43171E+01
 -1      2764 3.43171E+01
 -1      2765 3.43161E+01
 -1      2766 3.44620E+01
 -1      2767 3.48306E+01
 -1      2768 3.50450E+01
 -1      2769 3.50450E+01
 -1      2770 3.88465E+01
 -1      2771 3.88465E+01
 -1      2772 4.68708E+01
 -1      2773 4.80022E+01
 -1      2774 4.80022E+01
 -1      2775 3.79358E+01
 -1      2776 7.80353E+01
 -1      2777 9.22368E+01
 -1      2778 9.81848E+01
 -1      2779 9.83295E+01
 -1      2780 9.83295E+01
 -1      2781 9.80219E+01
 -1      2782 9.78207E+01
 -1      2783 9.77359E+01
 -1      2784 9.76922E+01
 -1      2785 9.76552E+01
 -1      2786 9.76197E+01
 -1      2787 9.75994E+01
 -1      2788 9.76032E+01
 -1      2789 9.76032E+01
 -1      2790 9.74628E+01
 -1      2791 9.73049E+01
 -1      2792 9.71150E+01
 -1      2793 9.73587E+01
 -1      2794 9.87912E+01
 -1      2795 9.87912E+01
 -1      2796 8.93763E+01
 -1      2797 5.40809E+01
 -1      2798 3.10650E+01
 -1      2799 7.80353E+01
 -1      2800 9.22368E+01
 -1      2801 9.81848E+01
 -1      2802 9.83295E+01
 -1      2803 9.83295E+01
 -1      2804 9.80219E+01
 -1      2805 9.78207E+01
 -1      2806 9.77359E+01
 -1      2807 9.76922E+01
 -1      2808 9.76552E+01
 -1      2809 9.76197E+01
 -1      2810 9.75994E+01
 -1      2811 9.76032E+01
 -1      2812 9.76032E+01
 -1      2813 9.74628E+01
 -1      2814 9.73049E+01
 -1      2815 9.71150E+01
 -1      2816 9.73587E+01
 -1      2817 9.87912E+01
 -1      2818 9.87912E+01
 -1      2819 8.93763E+01
 -1      2820 6.52920E+01
 -1      2821 5.99634E+01
 -1      2822 6.74182E+01
 -1      2823 5.22184E+01
 -1      2824 4.65409E+01
 -1      2825 4.58869E+01
 -1      2826 4.58869E+01
 -1      2827 4.58443E+01
 -1      2828 4.55284E+01
 -1      2829 4.52857E+01
 -1      2830 4.51450E+01
 -1      2831 4.50715E+01
 -1      2832 4.50288E+01
 -1      2833 4.50092E+01
 -1      2834 4.50092E+01
 -1      2835 4.50120E+01
 -1      2836 4.51850E+01
 -1      2837 4.54400E+01
 -1      2838 4.55471E+01
 -1      2839 4.91177E+01
 -1      2840 4.96897E+01
 -1      2841 5.33925E+01
 -1      2842 5.40904E+01
 -1      2843 5.99634E+01
 -1      2844 5.99634E+01
 -1      2845 6.74182E+01
 -1      2846 4.89925E+01
 -1      2847 3.96234E+01
 -1      2848 3.57729E+01
 -1      2849 3.57729E+01
 -1      2850 3.57093E+01
 -1      2851 3.54670E+01
 -1      2852 3.53205E+01
 -1      2853 3.52459E+01
 -1      2854 3.52132E+01
 -1      2855 3.51971E+01
 -1      2856 3.51944E+01
 -1      2857 3.52091E+01
 -1      2858 3.52979E+01
 -1      2859 3.55154E+01
 -1      2860 3.57138E+01
 -1      2861 3.57138E+01
 -1      2862 3.83449E+01
 -1      2863 4.25364E+01
 -1      2864 4.99197E+01
 -1      2865 5.37607E+01
 -1      2866 5.37607E+01
 -1      2867 6.59587E+01
 -1      2868 6.20076E+01
 -1      2869 3.92958E+01
 -1      2870 2.46077E+01
 -1      2871 1.91338E+01
 -1      2872 1.91338E+01
 -1      2873 1.90857E+01
 -1      2874 1.88001E+01
 -1      2875 1.86410E+01
 -1      2876 1.85670E+01
 -1      2877 1.85391E+01
 -1      2878 1.85330E+01
 -1      2879 1.85346E+01
 -1      2880 1.85733E+01
 -1      2881 1.86893E+01
 -1      2882 1.89817E+01
 -1      2883 1.91528E+01
 -1      2884 1.92237E+01
 -1      2885 2.28711E+01
 -1      2886 2.94538E+01
 -1      2887 4.01144E+01
 -1      2888 5.23947E+01
 -1      2889 5.23947E+01
 -1      2890 7.05017E+01
 -1      2891 5.67545E+01
 -1      2892 2.88680E+01
 -1      2893 1.00262E+01
 -1      2894 4.02904E+00
 -1      2895 3.95728E+00
 -1      2896 3.92985E+00
 -1      2897 3.79119E+00
 -1      2898 3.70336E+00
 -1      2899 3.66650E+00
 -1      2900 3.65433E+00
 -1      2901 3.65529E+00
 -1      2902 3.65529E+00
 -1      2903 3.67033E+00
 -1      2904 3.73710E+00
 -1      2905 3.87408E+00
 -1      2906 4.00275E+00
 -1      2907 4.00275E+00
 -1      2908 8.56207E+00
 -1      2909 1.54935E+01
 -1      2910 2.89491E+01
 -1      2911 4.84232E+01
 -1      2912 4.84232E+01
 -1      2913 7.26085E+01
 -1      2914 5.60562E+01
 -1      2915 2.69410E+01
 -1      2916 4.92109E+00
 -1      2917 2.02058E+00
 -1      2918 1.99457E+00
 -1      2919 1.96712E+00
 -1      2920 1.82338E+00
 -1      2921 1.74712E+00
 -1      2922 1.71275E+00
 -1      2923 1.70022E+00
 -1      2924 1.69815E+00
 -1      2925 1.69815E+00
 -1      2926 1.71796E+00
 -1      2927 1.77374E+00
 -1      2928 1.90657E+00
 -1      2929 1.97481E+00
 -1      2930 2.04382E+00
 -1      2931 4.07861E+00
 -1      2932 1.17314E+01
 -1      2933 2.54803E+01
 -1      2934 4.60631E+01
 -1      2935 4.68309E+01
 -1      2936 7.26085E+01
 -1      2937 5.67534E+01
 -1      2938 2.88680E+01
 -1      2939 1.00262E+01
 -1      2940 4.02904E+00
 -1      2941 3.95728E+00
 -1      2942 3.92985E+00
 -1      2943 3.79119E+00
 -1      2944 3.70336E+00
 -1      2945 3.66650E+00
 -1      2946 3.65433E+00
 -1      2947 3.65529E+00
 -1      2948 3.65529E+00
 -1      2949 3.67033E+00
 -1      2950 3.73710E+00
 -1      2951 3.87408E+00
 -1      2952 4.00275E+00
 -1      2953 4.00275E+00
 -1      2954 8.56207E+00
 -1      2955 1.54935E+01
 -1      2956 2.89491E+01
 -1      2957 4.84232E+01
 -1      2958 4.84232E+01
 -1      2959 7.26085E+01
 -1      2960 6.20073E+01
 -1      2961 3.92958E+01
 -1      2962 2.46077E+01
 -1      2963 1.91338E+01
 -1      2964 1.91338E+01
 -1      2965 1.90857E+01
 -1      2966 1.88001E+01
 -1      2967 1.86410E+01
 -1      2968 1.85670E+01
 -1      2969 1.85391E+01
 -1      2970 1.85330E+01
 -1      2971 1.85346E+01
 -1      2972 1.85733E+01
 -1      2973 1.86893E+01
 -1      2974 1.89817E+01
 -1      2975 1.91528E+01
 -1      2976 1.92237E+01
 -1      2977 2.28711E+01
 -1      2978 2.94538E+01
 -1      2979 4.01144E+01
 -1      2980 5.23947E+01
 -1      2981 5.23947E+01
 -1      2982 7.05017E+01
 -1      2983 6.74180E+01
 -1      2984 4.89925E+01
 -1      2985 3.96234E+01
 -1      2986 3.57729E+01
 -1      2987 3.57729E+01
 -1      2988 3.57093E+01
 -1      2989 3.54670E+01
 -1      2990 3.53205E+01
 -1      2991 3.52459E+01
 -1      2992 3.52132E+01
 -1      2993 3.51971E+01
 -1      2994 3.51944E+01
 -1      2995 3.52091E+01
 -1      2996 3.52979E+01
 -1      2997 3.55154E+01
 -1      2998 3.57138E+01
 -1      2999 3.57138E+01
 -1      3000 3.83449E+01
 -1      3001 4.25364E+01
 -1      3002 4.99197E+01
 -1      3003 5.37607E+01
 -1      3004 5.37607E+01
 -1      3005 6.59587E+01
 -1      3006 6.74180E+01
 -1      3007 5.22184E+01
 -1      3008 4.65409E+01
 -1      3009 4.58869E+01
 -1      3010 4.58869E+01
 -1      3011 4.58443E+01
 -1      3012 4.55284E+01
 -1      3013 4.52857E+01
 -1      3014 4.51450E+01
 -1      3015 4.50715E+01
 -1      3016 4.50288E+01
 -1      3017 4.50092E+01
 -1      3018 4.50092E+01
 -1      3019 4.50120E+01
 -1      3020 4.51850E+01
 -1      3021 4.54400E+01
 -1      3022 4.55471E+01
 -1      3023 4.91177E+01
 -1      3024 4.96897E+01
 -1      3025 5.33925E+01
 -1      3026 5.40904E+01
 -1      3027 5.99634E+01
 -1      3028 5.99634E+01
 -1      3029 7.80353E+01
 -1      3030 9.22368E+01
 -1      3031 9.81848E+01
 -1      3032 9.83295E+01
 -1      3033 9.83295E+01
 -1      3034 9.80219E+01
 -1      3035 9.78207E+01
 -1      3036 9.77359E+01
 -1      3037 9.76922E+01
 -1      3038 9.76552E+01
 -1      3039 9.76197E+01
 -1      3040 9.75994E+01
 -1      3041 9.76032E+01
 -1      3042 9.76032E+01
 -1      3043 9.74628E+01
 -1      3044 9.73049E+01
 -1      3045 9.71150E+01
 -1      3046 9.73587E+01
 -1      3047 9.87912E+01
 -1      3048 9.87912E+01
 -1      3049 8.93763E+01
 -1      3050 6.52920E+01
 -1      3051 5.99634E+01
 -1      3052 7.02906E+01
 -1      3053 7.30614E+01
 -1      3054 7.65976E+01
 -1      3055 7.90060E+01
 -1      3056 8.23390E+01
 -1      3057 8.55594E+01
 -1      3058 8.79712E+01
 -1      3059 8.94082E+01
 -1      3060 9.01489E+01
 -1      3061 9.04852E+01
 -1      3062 9.06024E+01
 -1      3063 9.06486E+01
 -1      3064 9.06721E+01
 -1      3065 9.06721E+01
 -1      3066 9.05657E+01
 -1      3067 8.95727E+01
 -1      3068 8.63759E+01
 -1      3069 8.27151E+01
 -1      3070 8.46466E+01
 -1      3071 8.47599E+01
 -1      3072 8.47599E+01
 -1      3073 7.67665E+01
 -1      3074 6.96305E+01
 -1      3075 7.19927E+01
 -1      3076 7.30614E+01
 -1      3077 7.65976E+01
 -1      3078 7.90060E+01
 -1      3079 8.23390E+01
 -1      3080 8.55594E+01
 -1      3081 8.79712E+01
 -1      3082 8.94082E+01
 -1      3083 9.01489E+01
 -1      3084 9.04852E+01
 -1      3085 9.06024E+01
 -1      3086 9.06486E+01
 -1      3087 9.06721E+01
 -1      3088 9.06721E+01
 -1      3089 9.05657E+01
 -1      3090 8.95727E+01
 -1      3091 8.63759E+01
 -1      3092 8.27151E+01
 -1      3093 8.46466E+01
 -1      3094 8.47599E+01
 -1      3095 8.47599E+01
 -1      3096 7.67665E+01
 -1      3097 6.99840E+01
 -1      3098 7.19927E+01
 -1      3099 5.56884E+01
 -1      3100 4.47124E+01
 -1      3101 4.20958E+01
 -1      3102 4.21300E+01
 -1      3103 4.21300E+01
 -1      3104 4.19466E+01
 -1      3105 4.18265E+01
 -1      3106 4.17384E+01
 -1      3107 4.16925E+01
 -1      3108 4.16655E+01
 -1      3109 4.16504E+01
 -1      3110 4.16621E+01
 -1      3111 4.16913E+01
 -1      3112 4.17949E+01
 -1      3113 4.17949E+01
 -1      3114 4.20230E+01
 -1      3115 4.20230E+01
 -1      3116 4.99042E+01
 -1      3117 5.59307E+01
 -1      3118 6.17708E+01
 -1      3119 7.30999E+01
 -1      3120 8.63842E+01
 -1      3121 6.47199E+01
 -1      3122 4.74041E+01
 -1      3123 3.23416E+01
 -1      3124 2.85981E+01
 -1      3125 2.81332E+01
 -1      3126 2.81332E+01
 -1      3127 2.79396E+01
 -1      3128 2.78493E+01
 -1      3129 2.77941E+01
 -1      3130 2.77746E+01
 -1      3131 2.77710E+01
 -1      3132 2.77823E+01
 -1      3133 2.78328E+01
 -1      3134 2.79194E+01
 -1      3135 2.81455E+01
 -1      3136 2.81956E+01
 -1      3137 2.81956E+01
 -1      3138 2.79891E+01
 -1      3139 4.00521E+01
 -1      3140 4.88110E+01
 -1      3141 5.87601E+01
 -1      3142 7.39516E+01
 -1      3143 9.38520E+01
 -1      3144 5.93128E+01
 -1      3145 3.42055E+01
 -1      3146 9.23198E+00
 -1      3147 4.36588E+00
 -1      3148 4.00553E+00
 -1      3149 3.98967E+00
 -1      3150 3.87258E+00
 -1      3151 3.82149E+00
 -1      3152 3.79088E+00
 -1      3153 3.77963E+00
 -1      3154 3.77476E+00
 -1      3155 3.77912E+00
 -1      3156 3.80419E+00
 -1      3157 3.85483E+00
 -1      3158 3.95817E+00
 -1      3159 3.98889E+00
 -1      3160 3.98889E+00
 -1      3161 6.77091E+00
 -1      3162 2.07824E+01
 -1      3163 3.25167E+01
 -1      3164 5.16199E+01
 -1      3165 7.39516E+01
 -1      3166 9.73370E+01
 -1      3167 5.80131E+01
 -1      3168 3.26630E+01
 -1      3169 6.65653E+00
 -1      3170 3.40035E+00
 -1      3171 3.02470E+00
 -1      3172 3.02470E+00
 -1      3173 2.91165E+00
 -1      3174 2.86242E+00
 -1      3175 2.82959E+00
 -1      3176 2.81741E+00
 -1      3177 2.81149E+00
 -1      3178 2.81583E+00
 -1      3179 2.84094E+00
 -1      3180 2.89292E+00
 -1      3181 2.99914E+00
 -1      3182 3.04742E+00
 -1      3183 3.04742E+00
 -1      3184 4.01697E+00
 -1      3185 1.97916E+01
 -1      3186 3.16764E+01
 -1      3187 4.87636E+01
 -1      3188 7.39239E+01
 -1      3189 9.73370E+01
 -1      3190 5.93072E+01
 -1      3191 3.42059E+01
 -1      3192 9.23190E+00
 -1      3193 4.36589E+00
 -1      3194 4.00553E+00
 -1      3195 3.98967E+00
 -1      3196 3.87258E+00
 -1      3197 3.82149E+00
 -1      3198 3.79088E+00
 -1      3199 3.77962E+00
 -1      3200 3.77476E+00
 -1      3201 3.77912E+00
 -1      3202 3.80419E+00
 -1      3203 3.85483E+00
 -1      3204 3.95817E+00
 -1      3205 3.98889E+00
 -1      3206 3.98889E+00
 -1      3207 6.77091E+00
 -1      3208 2.07824E+01
 -1      3209 3.25167E+01
 -1      3210 5.16199E+01
 -1      3211 7.39516E+01
 -1      3212 9.73370E+01
 -1      3213 6.47197E+01
 -1      3214 4.74040E+01
 -1      3215 3.23416E+01
 -1      3216 2.85981E+01
 -1      3217 2.81332E+01
 -1      3218 2.81332E+01
 -1      3219 2.79396E+01
 -1      3220 2.78492E+01
 -1      3221 2.77941E+01
 -1      3222 2.77746E+01
 -1      3223 2.77710E+01
 -1      3224 2.77823E+01
 -1      3225 2.78328E+01
 -1      3226 2.79194E+01
 -1      3227 2.81455E+01
 -1      3228 2.81956E+01
 -1      3229 2.81956E+01
 -1      3230 2.79891E+01
 -1      3231 4.00521E+01
 -1      3232 4.88110E+01
 -1      3233 5.87601E+01
 -1      3234 7.39516E+01
 -1      3235 9.38520E+01
 -1      3236 7.19925E+01
 -1      3237 5.56883E+01
 -1      3238 4.47124E+01
 -1      3239 4.20958E+01
 -1      3240 4.21300E+01
 -1      3241 4.21300E+01
 -1      3242 4.19466E+01
 -1      3243 4.18265E+01
 -1      3244 4.17384E+01
 -1      3245 4.16925E+01
 -1      3246 4.16655E+01
 -1      3247 4.16504E+01
 -1      3248 4.16621E+01
 -1      3249 4.16913E+01
 -1      3250 4.17949E+01
 -1      3251 4.17949E+01
 -1      3252 4.20230E+01
 -1      3253 4.20230E+01
 -1      3254 4.99042E+01
 -1      3255 5.59307E+01
 -1      3256 6.17708E+01
 -1      3257 7.30999E+01
 -1      3258 8.63842E+01
 -1      3259 7.19925E+01
 -1      3260 7.30613E+01
 -1      3261 7.65976E+01
 -1      3262 7.90060E+01
 -1      3263 8.23390E+01
 -1      3264 8.55594E+01
 -1      3265 8.79712E+01
 -1      3266 8.94082E+01
 -1      3267 9.01489E+01
 -1      3268 9.04852E+01
 -1      3269 9.06024E+01
 -1      3270 9.06486E+01
 -1      3271 9.06721E+01
 -1      3272 9.06721E+01
 -1      3273 9.05657E+01
 -1      3274 8.95727E+01
 -1      3275 8.63759E+01
 -1      3276 8.27151E+01
 -1      3277 8.46466E+01
 -1      3278 8.47599E+01
 -1      3279 8.47599E+01
 -1      3280 7.67665E+01
 -1      3281 6.99840E+01
 -1      3282 7.02904E+01
 -1      3283 7.30613E+01
 -1      3284 7.65976E+01
 -1      3285 7.90060E+01
 -1      3286 8.23390E+01
 -1      3287 8.55594E+01
 -1      3288 8.79712E+01
 -1      3289 8.94082E+01
 -1      3290 9.01489E+01
 -1      3291 9.04852E+01
 -1      3292 9.06024E+01
 -1      3293 9.06486E+01
 -1      3294 9.06721E+01
 -1      3295 9.06721E+01
 -1      3296 9.05657E+01
 -1      3297 8.95727E+01
 -1      3298 8.63759E+01
 -1      3299 8.27151E+01
 -1      3300 8.46466E+01
 -1      3301 8.47599E+01
 -1      3302 8.47599E+01
 -1      3303 7.67665E+01
 -1      3304 6.96305E+01
 -3
 9999
